"PointID","x","y","Displacement_x","Displacement_y","Sxx","Syy","Sxy","Von_Mises_Stress"
0, -2.500000000000000e-04, 0.000000000000000e+00, 0.000000000000000e+00, 0.000000000000000e+00, 3.336296512878888e+04, 4.077249423981839e+04, 4.177111550200375e+03, 1.116665416579482e+04
1, 2.500000000000000e-04, 0.000000000000000e+00, 0.000000000000000e+00, 0.000000000000000e+00, -3.357993966015774e+04, -4.104587666988627e+04, 4.106384549014870e+03, 1.109908967847302e+04
2, 2.500000000000000e-04, 1.000000000000000e-02, 6.471810332454228e-04, -4.571997604456035e-05, 1.615806243412015e+01, 1.304711638092291e+01, 2.706772779347401e+00, 6.243753747703992e+00
3, -2.500000000000000e-04, 1.000000000000000e-02, 6.490826570542931e-04, -2.183020141880529e-06, 6.588880386575754e+00, 3.039144510874054e+01, 2.564386282366891e+00, 2.434884792702951e+01
4, -2.000000000000817e-04, 0.000000000000000e+00, 0.000000000000000e+00, 0.000000000000000e+00, 2.251512971490154e+04, 2.751641533759638e+04, 2.374319904824356e+03, 6.896552611381631e+03
5, -1.500000000001972e-04, 0.000000000000000e+00, 0.000000000000000e+00, 0.000000000000000e+00, 1.619794737930612e+04, 1.979939897780266e+04, 1.105716564336109e+03, 4.226214630009013e+03
6, -1.000000000003456e-04, 0.000000000000000e+00, 0.000000000000000e+00, 0.000000000000000e+00, 1.053347714291156e+04, 1.287555445340439e+04, 2.578356178785526e+02, 2.398174920999832e+03
7, -5.000000000047588e-05, 0.000000000000000e+00, 0.000000000000000e+00, 0.000000000000000e+00, 5.257477130029165e+03, 6.425713359787512e+03, -2.343533156623779e+02, 1.258754064449365e+03
8, -6.410887445906788e-16, 0.000000000000000e+00, 0.000000000000000e+00, 0.000000000000000e+00, 1.279927787200088e+02, 1.556943810284567e+02, -4.018467857463168e+02, 8.041708373405742e+02
9, 4.999999999945738e-05, 0.000000000000000e+00, 0.000000000000000e+00, 0.000000000000000e+00, -5.015582431857079e+03, -6.130302592990723e+03, -2.540520796454848e+02, 1.225059539094570e+03
10, 9.999999999958566e-05, 0.000000000000000e+00, 0.000000000000000e+00, 0.000000000000000e+00, -1.033447643824764e+04, -1.262976301180960e+04, 2.196946351188399e+02, 2.336964566606386e+03
11, 1.499999999997626e-04, 0.000000000000000e+00, 0.000000000000000e+00, 0.000000000000000e+00, -1.607324119859149e+04, -1.964307027818530e+04, 1.051839299329216e+03, 4.143566495661345e+03
12, 1.999999999998909e-04, 0.000000000000000e+00, 0.000000000000000e+00, 0.000000000000000e+00, -2.249145893051216e+04, -2.749128023327883e+04, 2.309425349571540e+03, 6.806760965435306e+03
13, 2.500000000000000e-04, 9.999999999981111e-05, 5.177641274195963e-07, -4.680449610095277e-07, 1.790055995669199e+03, -1.379658850719110e+04, 1.055694506573950e+03, 1.572900029955453e+04
14, 2.500000000000000e-04, 1.999999999996242e-04, 8.890799958466965e-07, -1.056888163564282e-06, -3.591906305246441e+03, -2.003616561081557e+04, -1.488248218895098e+02, 1.644695289162216e+04
15, 2.500000000000000e-04, 2.999999999994322e-04, 1.463038339651827e-06, -1.652833363117052e-06, -3.829743105100381e+03, -2.035258552965905e+04, -9.359488395403105e+01, 1.652390274105985e+04
16, 2.500000000000000e-04, 3.999999999992179e-04, 2.269030570303228e-06, -2.252528098126189e-06, -4.177433479740787e+03, -2.054832546752837e+04, -1.038490196830028e+02, 1.637220947066596e+04
17, 2.500000000000000e-04, 4.999999999990053e-04, 3.311827695096630e-06, -2.846142247497352e-06, -4.189853937114015e+03, -2.027736230110909e+04, -1.261825984795937e+02, 1.608948767221156e+04
18, 2.500000000000000e-04, 5.999999999988090e-04, 4.587640418515109e-06, -3.431398591065939e-06, -4.131430662000260e+03, -1.989626563769933e+04, -1.567536270273271e+02, 1.576795194720511e+04
19, 2.500000000000000e-04, 6.999999999986395e-04, 6.091643824883209e-06, -4.008004016198925e-06, -4.048464587394882e+03, -1.948364910779607e+04, -1.874470124817078e+02, 1.543973661397064e+04
20, 2.500000000000000e-04, 7.999999999985029e-04, 7.818976578631005e-06, -4.576392815455457e-06, -3.962571934078212e+03, -1.907041108062834e+04, -2.165237684891327e+02, 1.511404425848076e+04
21, 2.500000000000000e-04, 8.999999999983563e-04, 9.764923102968061e-06, -5.137111316664815e-06, -3.877595722944809e+03, -1.866195445056289e+04, -2.435094530322169e+02, 1.479237811853663e+04
22, 2.500000000000000e-04, 9.999999999981935e-04, 1.192486882684186e-05, -5.690686527894668e-06, -3.794123362767280e+03, -1.825874143312102e+04, -2.684482728639962e+02, 1.447457888237232e+04
23, 2.500000000000000e-04, 1.099999999998054e-03, 1.429426608304680e-05, -6.237604217657075e-06, -3.711901939586374e+03, -1.786029108189163e+04, -2.914395268048460e+02, 1.416039064832740e+04
24, 2.500000000000000e-04, 1.199999999997903e-03, 1.686861861204806e-05, -6.778315177376779e-06, -3.630752967527920e+03, -1.746633012896442e+04, -3.125754273683233e+02, 1.384969346163450e+04
25, 2.500000000000000e-04, 1.299999999997659e-03, 1.964347745855043e-05, -7.313240967616298e-06, -3.550595383465635e+03, -1.707676459951177e+04, -3.319335666876331e+02, 1.354245078380904e+04
26, 2.500000000000000e-04, 1.399999999997322e-03, 2.261444051974360e-05, -7.842777032199557e-06, -3.471400182284158e+03, -1.669158106583378e+04, -3.495846263012512e+02, 1.323865628519585e+04
27, 2.500000000000000e-04, 1.499999999997028e-03, 2.577715286037732e-05, -8.367294259840935e-06, -3.393153802478616e+03, -1.631078669178092e+04, -3.655961154877089e+02, 1.293831061388709e+04
28, 2.500000000000000e-04, 1.599999999996764e-03, 2.912730699303329e-05, -8.887140019316911e-06, -3.315847262769639e+03, -1.593439180649809e+04, -3.800335871451740e+02, 1.264141481446965e+04
29, 2.500000000000000e-04, 1.699999999996466e-03, 3.266064309810058e-05, -9.402639091151064e-06, -3.239471977818200e+03, -1.556240481813518e+04, -3.929612397265022e+02, 1.234796938490990e+04
30, 2.500000000000000e-04, 1.799999999996210e-03, 3.637294916544419e-05, -9.914094542660989e-06, -3.164018677778764e+03, -1.519483135052635e+04, -4.044419002464326e+02, 1.205797439744519e+04
31, 2.500000000000000e-04, 1.899999999995898e-03, 4.026006104704605e-05, -1.042178860923985e-05, -3.089482270938200e+03, -1.483167911805660e+04, -4.145367219241093e+02, 1.177142937674825e+04
32, 2.500000000000000e-04, 1.999999999995521e-03, 4.431786269369145e-05, -1.092598358565930e-05, -3.015852861596374e+03, -1.447295015879377e+04, -4.233057893108027e+02, 1.148833450255102e+04
33, 2.500000000000000e-04, 2.099999999995151e-03, 4.854228609338244e-05, -1.142692263494307e-05, -2.943125624002943e+03, -1.411864930039818e+04, -4.308075166257871e+02, 1.120868903606464e+04
34, 2.500000000000000e-04, 2.199999999994897e-03, 5.292931145563555e-05, -1.192483065298889e-05, -2.871293929944710e+03, -1.376877884274945e+04, -4.370989777991731e+02, 1.093249283056610e+04
35, 2.500000000000000e-04, 2.299999999994653e-03, 5.747496725368647e-05, -1.241991506157531e-05, -2.800350591994487e+03, -1.342333923647360e+04, -4.422360648340073e+02, 1.065974571408210e+04
36, 2.500000000000000e-04, 2.399999999994409e-03, 6.217533019227105e-05, -1.291236659817104e-05, -2.730294130597647e+03, -1.308233471810788e+04, -4.462730820173488e+02, 1.039044671707584e+04
37, 2.500000000000000e-04, 2.499999999994080e-03, 6.702652543484005e-05, -1.340236010393282e-05, -2.661120907817372e+03, -1.274576721031826e+04, -4.492626081261827e+02, 1.012459572579499e+04
38, 2.500000000000000e-04, 2.599999999993751e-03, 7.202472668158948e-05, -1.389005529779784e-05, -2.592824133409521e+03, -1.241363480586568e+04, -4.512565326671337e+02, 9.862193067331824e+03
39, 2.500000000000000e-04, 2.699999999993507e-03, 7.716615606041382e-05, -1.437559747061843e-05, -2.525402234945193e+03, -1.208593894110485e+04, -4.523052232705618e+02, 9.603238108566173e+03
40, 2.500000000000000e-04, 2.799999999993264e-03, 8.244708427040201e-05, -1.485911823282058e-05, -2.458853966835371e+03, -1.176268071775482e+04, -4.524575259602063e+02, 9.347730390972800e+03
41, 2.500000000000000e-04, 2.899999999993009e-03, 8.786383070715758e-05, -1.534073620158532e-05, -2.393174823964993e+03, -1.144385783867755e+04, -4.517610770547921e+02, 9.095670141104130e+03
42, 2.500000000000000e-04, 2.999999999992623e-03, 9.341276336175291e-05, -1.582055769078201e-05, -2.328368021978033e+03, -1.112947390162010e+04, -4.502620560892373e+02, 8.847056481185424e+03
43, 2.500000000000000e-04, 3.099999999992220e-03, 9.909029912997325e-05, -1.629867738654255e-05, -2.264427358922301e+03, -1.081952415986698e+04, -4.480054646125197e+02, 8.601890307300167e+03
44, 2.500000000000000e-04, 3.199999999991949e-03, 1.048929036025340e-04, -1.677517898088115e-05, -2.201352774025869e+03, -1.051400816520264e+04, -4.450354485769374e+02, 8.360171401019275e+03
45, 2.500000000000000e-04, 3.299999999991705e-03, 1.108170911728573e-04, -1.725013579628674e-05, -2.139144271558744e+03, -1.021292500820064e+04, -4.413945999997757e+02, 8.121899541055997e+03
46, 2.500000000000000e-04, 3.399999999991461e-03, 1.168594251151733e-04, -1.772361140206620e-05, -2.077802399826280e+03, -9.916274121511875e+03, -4.371240065517014e+02, 7.887074775864623e+03
47, 2.500000000000000e-04, 3.499999999991149e-03, 1.230165176849269e-04, -1.819566023038368e-05, -2.017323053986146e+03, -9.624050392639114e+03, -4.322641319042488e+02, 7.655697873057307e+03
48, 2.500000000000000e-04, 3.599999999990803e-03, 1.292850299497012e-04, -1.866632811041820e-05, -1.957708363413891e+03, -9.336253405290056e+03, -4.268542069375831e+02, 7.427768506820644e+03
49, 2.500000000000000e-04, 3.699999999990560e-03, 1.356616719028153e-04, -1.913565286289378e-05, -1.898964862891885e+03, -9.052886224112150e+03, -4.209316973917639e+02, 7.203285695986247e+03
50, 2.500000000000000e-04, 3.799999999990315e-03, 1.421432028053113e-04, -1.960366484160010e-05, -1.841086847585917e+03, -8.773941376555309e+03, -4.145329826001230e+02, 6.982250517884962e+03
51, 2.500000000000000e-04, 3.899999999990071e-03, 1.487264308892441e-04, -2.007038744995751e-05, -1.784075068073262e+03, -8.499416355213287e+03, -4.076938963820830e+02, 6.764663026001832e+03
52, 2.500000000000000e-04, 3.999999999989709e-03, 1.554082134209292e-04, -2.053583765384187e-05, -1.727931193783333e+03, -8.229309159479073e+03, -4.004488787118835e+02, 6.550523083745335e+03
53, 2.500000000000000e-04, 4.099999999989249e-03, 1.621854567842858e-04, -2.100002647947780e-05, -1.672655525399289e+03, -7.963616428473360e+03, -3.928312784268381e+02, 6.339830812982976e+03
54, 2.500000000000000e-04, 4.199999999988788e-03, 1.690551164523650e-04, -2.146295949216961e-05, -1.618249599825846e+03, -7.702335939884926e+03, -3.848734176833007e+02, 6.132586467702710e+03
55, 2.500000000000000e-04, 4.299999999988333e-03, 1.760141970244839e-04, -2.192463728489084e-05, -1.564716471771782e+03, -7.445466964830849e+03, -3.766064066180058e+02, 5.928790425005540e+03
56, 2.500000000000000e-04, 4.399999999988144e-03, 1.830597523576838e-04, -2.238505594128804e-05, -1.512053251778399e+03, -7.193003444654852e+03, -3.680607992113617e+02, 5.728443951162255e+03
57, 2.500000000000000e-04, 4.499999999988117e-03, 1.901888853553334e-04, -2.284420743712650e-05, -1.460266429980779e+03, -6.944946937618577e+03, -3.592657449304867e+02, 5.531546598627172e+03
58, 2.500000000000000e-04, 4.599999999988090e-03, 1.973987482671249e-04, -2.330208009847109e-05, -1.409357099079441e+03, -6.701294255526678e+03, -3.502490423963458e+02, 5.338098578575063e+03
59, 2.500000000000000e-04, 4.699999999988035e-03, 2.046865426965345e-04, -2.375865896936908e-05, -1.359322614709299e+03, -6.462039575062665e+03, -3.410377752654377e+02, 5.148101342641759e+03
60, 2.500000000000000e-04, 4.799999999987717e-03, 2.120495193476512e-04, -2.421392626375640e-05, -1.310170738392152e+03, -6.227185551155126e+03, -3.316586555053058e+02, 4.961554647891813e+03
61, 2.500000000000000e-04, 4.899999999987257e-03, 2.194849783732184e-04, -2.466786170453056e-05, -1.261898763800769e+03, -5.996725750781745e+03, -3.221367373708500e+02, 4.778459470048803e+03
62, 2.500000000000000e-04, 4.999999999986965e-03, 2.269902692118949e-04, -2.512044289444274e-05, -1.214509384232487e+03, -5.770658454792152e+03, -3.124962759248000e+02, 4.598816156689585e+03
63, 2.500000000000000e-04, 5.099999999987202e-03, 2.345627906715483e-04, -2.557164568103668e-05, -1.168004374594485e+03, -5.548981053389254e+03, -3.027606949094853e+02, 4.422625104355096e+03
64, 2.500000000000000e-04, 5.199999999987608e-03, 2.421999909243820e-04, -2.602144448044684e-05, -1.122386405416341e+03, -5.331691581944544e+03, -2.929523839683234e+02, 4.249886406274646e+03
65, 2.500000000000000e-04, 5.299999999988015e-03, 2.498993675836267e-04, -2.646981261476664e-05, -1.077655140829335e+03, -5.118785642072955e+03, -2.830930088932676e+02, 4.080600732100421e+03
66, 2.500000000000000e-04, 5.399999999988211e-03, 2.576584676187936e-04, -2.691672261651046e-05, -1.033812519060371e+03, -4.910260725513121e+03, -2.732035128954376e+02, 3.914768362897652e+03
67, 2.500000000000000e-04, 5.499999999988184e-03, 2.654748873828272e-04, -2.736214653691593e-05, -9.908617583837688e+02, -4.706115477989133e+03, -2.633037848496690e+02, 3.752389336610227e+03
68, 2.500000000000000e-04, 5.599999999988157e-03, 2.733462727174967e-04, -2.780605623841525e-05, -9.488036807996684e+02, -4.506346655919074e+03, -2.534126922070901e+02, 3.593464065509493e+03
69, 2.500000000000000e-04, 5.699999999988293e-03, 2.812703189439611e-04, -2.824842367303319e-05, -9.076393454022186e+02, -4.310950977104965e+03, -2.435484631151947e+02, 3.437992652410168e+03
70, 2.500000000000000e-04, 5.799999999988694e-03, 2.892447708474905e-04, -2.868922112797456e-05, -8.673706418528402e+02, -4.119925640847849e+03, -2.337286211443956e+02, 3.285974786095545e+03
71, 2.500000000000000e-04, 5.899999999989099e-03, 2.972674226588674e-04, -2.912842148057133e-05, -8.279987409781411e+02, -3.933267674997257e+03, -2.239701136810416e+02, 3.137410652094083e+03
72, 2.500000000000000e-04, 5.999999999989505e-03, 3.053361180272029e-04, -2.956599846413712e-05, -7.895261703773479e+02, -3.750975969422170e+03, -2.142890057810973e+02, 2.992300791073188e+03
73, 2.500000000000000e-04, 6.099999999989911e-03, 3.134487501334807e-04, -3.000192692788422e-05, -7.519528610483234e+02, -3.573047466134767e+03, -2.047005144187516e+02, 2.850646237831177e+03
74, 2.500000000000000e-04, 6.199999999990317e-03, 3.216032616786258e-04, -3.043618304252619e-05, -7.152829755160870e+02, -3.399482325119076e+03, -1.952186393086900e+02, 2.712446758361029e+03
75, 2.500000000000000e-04, 6.299999999990723e-03, 3.297976450600786e-04, -3.086874450823467e-05, -6.795103643337460e+02, -3.230271853882804e+03, -1.858575456505243e+02, 2.577703684613009e+03
76, 2.500000000000000e-04, 6.399999999990975e-03, 3.380299419156095e-04, -3.129959071731249e-05, -6.446455279796412e+02, -3.065420393310008e+03, -1.766305796670698e+02, 2.446414600044186e+03
77, 2.500000000000000e-04, 6.499999999990961e-03, 3.462982436564870e-04, -3.172870294231417e-05, -6.106864022967142e+02, -2.904921098931514e+03, -1.675492868435260e+02, 2.318577990348841e+03
78, 2.500000000000000e-04, 6.599999999990934e-03, 3.546006913523834e-04, -3.215606446071190e-05, -5.776265038085963e+02, -2.748764445112072e+03, -1.586251775739048e+02, 2.194194099893833e+03
79, 2.500000000000000e-04, 6.699999999991035e-03, 3.629354752680558e-04, -3.258166080491915e-05, -5.454772210546225e+02, -2.596955183203686e+03, -1.498702194475338e+02, 2.073259790738316e+03
80, 2.500000000000000e-04, 6.799999999991401e-03, 3.713008353446725e-04, -3.300547984298287e-05, -5.142333585091501e+02, -2.449484261686207e+03, -1.412944734821399e+02, 1.955774161603020e+03
81, 2.500000000000000e-04, 6.899999999991809e-03, 3.796950609451300e-04, -3.342751198074027e-05, -4.838984633305339e+02, -2.306350878761834e+03, -1.329072047801053e+02, 1.841735623492477e+03
82, 2.500000000000000e-04, 6.999999999992214e-03, 3.881164911150951e-04, -3.384775032447240e-05, -4.544619439683768e+02, -2.167543361960872e+03, -1.247178841772664e+02, 1.731145905810886e+03
83, 2.500000000000000e-04, 7.099999999992620e-03, 3.965635139217246e-04, -3.426619082155395e-05, -4.259331220783466e+02, -2.033066354927493e+03, -1.167364927861809e+02, 1.624003344553274e+03
84, 2.500000000000000e-04, 7.199999999993026e-03, 4.050345668675464e-04, -3.468283238440083e-05, -3.983231855115976e+02, -1.902924523172823e+03, -1.089701560741353e+02, 1.520303642352815e+03
85, 2.500000000000000e-04, 7.299999999993359e-03, 4.135281375189284e-04, -3.509767694496438e-05, -3.716083403359896e+02, -1.777094690331748e+03, -1.014257990544937e+02, 1.420049524094061e+03
86, 2.500000000000000e-04, 7.399999999993427e-03, 4.220427622357606e-04, -3.551072962752050e-05, -3.458069959200912e+02, -1.655587782356238e+03, -9.411155518084185e+01, 1.323236051425262e+03
87, 2.500000000000000e-04, 7.499999999993399e-03, 4.305770270900295e-04, -3.592199877165268e-05, -3.209127373502568e+02, -1.538391171904158e+03, -8.703351897102556e+01, 1.229858964394592e+03
88, 2.500000000000000e-04, 7.599999999993372e-03, 4.391295675111286e-04, -3.633149589505443e-05, -2.969294209266170e+02, -1.425499335474509e+03, -8.019581517071424e+01, 1.139910315378459e+03
89, 2.500000000000000e-04, 7.699999999993440e-03, 4.476990686294420e-04, -3.673923579347079e-05, -2.738416950522104e+02, -1.316892041264333e+03, -7.360259911373653e+01, 1.053386631355467e+03
90, 2.500000000000000e-04, 7.799999999993771e-03, 4.562842643528991e-04, -3.714523663729510e-05, -2.516454863809674e+02, -1.212561749496351e+03, -6.726031593904980e+01, 9.702864861063024e+02
91, 2.500000000000000e-04, 7.899999999994177e-03, 4.648839370306938e-04, -3.754952022191309e-05, -2.303607770812898e+02, -1.112519417561104e+03, -6.117542756614023e+01, 8.906029411161824e+02
92, 2.500000000000000e-04, 7.999999999994584e-03, 4.734969184856712e-04, -3.795211185390239e-05, -2.099750662413008e+02, -1.016748246767641e+03, -5.535107881154498e+01, 8.143328143449667e+02
93, 2.500000000000000e-04, 8.099999999994990e-03, 4.821220893825626e-04, -3.835304048286817e-05, -1.904857387394136e+02, -9.252415076321829e+02, -4.979080014435097e+01, 7.414732193661910e+02
94, 2.500000000000000e-04, 8.199999999995398e-03, 4.907583792938168e-04, -3.875233879654315e-05, -1.718943094010901e+02, -8.379943953216368e+02, -4.449786562823006e+01, 6.720190210442199e+02
95, 2.500000000000000e-04, 8.299999999995804e-03, 4.994047666718872e-04, -3.915004314296688e-05, -1.542010559491997e+02, -7.549981740063092e+02, -3.947470125103730e+01, 6.059621978483171e+02
96, 2.500000000000000e-04, 8.399999999996209e-03, 5.080602788550491e-04, -3.954619349547882e-05, -1.374022905039587e+02, -6.762382657792575e+02, -3.472237976635984e+01, 5.432925389488057e+02
97, 2.500000000000000e-04, 8.499999999996616e-03, 5.167239920638540e-04, -3.994083337744307e-05, -1.214821868510763e+02, -6.016893702713569e+02, -3.024148921122302e+01, 4.840011670309165e+02
98, 2.500000000000000e-04, 8.599999999997021e-03, 5.253950305973968e-04, -4.033400988871403e-05, -1.064373979196474e+02, -5.313381097695574e+02, -2.603388024722307e+01, 4.280790424833564e+02
99, 2.500000000000000e-04, 8.699999999997429e-03, 5.340725665891297e-04, -4.072577381426742e-05, -9.227545765748746e+01, -4.651783730699399e+02, -2.210182257179681e+01, 3.755137102251892e+02
100, 2.500000000000000e-04, 8.799999999997834e-03, 5.427558203078449e-04, -4.111617948970632e-05, -7.899044524956764e+01, -4.031927107245193e+02, -1.844491108988235e+01, 3.262942964863862e+02
101, 2.500000000000000e-04, 8.899999999997930e-03, 5.514440599414486e-04, -4.150528492212917e-05, -6.656731747129901e+01, -3.453610167454574e+02, -1.506303858086338e+01, 2.804166672652041e+02
102, 2.500000000000000e-04, 8.999999999997496e-03, 5.601366009892522e-04, -4.189315198724571e-05, -5.499735060580145e+01, -2.916698008565469e+02, -1.195827492445157e+01, 2.378778049006815e+02
103, 2.500000000000000e-04, 9.099999999997034e-03, 5.688328060363382e-04, -4.227984635534101e-05, -4.428473355692313e+01, -2.421119151314830e+02, -9.130571538935715e+00, 1.986682237204641e+02
104, 2.500000000000000e-04, 9.199999999996832e-03, 5.775320853531765e-04, -4.266543730511917e-05, -3.441300537224600e+01, -1.966525143404515e+02, -6.576247644792893e+00, 1.627717616866852e+02
105, 2.500000000000000e-04, 9.299999999997156e-03, 5.862338967609005e-04, -4.304999716087527e-05, -2.533760634466091e+01, -1.552211126789226e+02, -4.288501737584777e+00, 1.301663943047331e+02
106, 2.500000000000000e-04, 9.399999999997563e-03, 5.949377439969343e-04, -4.343360078855681e-05, -1.703852722444217e+01, -1.177580284016679e+02, -2.259219762287755e+00, 1.008208024820594e+02
107, 2.500000000000000e-04, 9.499999999997968e-03, 6.036431756780086e-04, -4.381632522878491e-05, -9.452538792108376e+00, -8.415867583334285e+01, -4.856391371409843e-01, 7.471245072348918e+01
108, 2.500000000000000e-04, 9.599999999998375e-03, 6.123497817465899e-04, -4.419824913719268e-05, -2.610453442083047e+00, -5.440586139511021e+01, 1.030649460021031e+00, 5.183640842360007e+01
109, 2.500000000000000e-04, 9.699999999998783e-03, 6.210571915120067e-04, -4.457945370710689e-05, 3.414050253719074e+00, -2.876355952668104e+01, 2.268502931088018e+00, 3.249589194610790e+01
110, 2.500000000000000e-04, 9.799999999999188e-03, 6.297650631360600e-04, -4.496003800048093e-05, 8.016780621240169e+00, -8.383439843473457e+00, 3.030326089640322e+00, 1.748424250945493e+01
111, 2.500000000000000e-04, 9.899999999999593e-03, 6.384730896711420e-04, -4.534013834538187e-05, 1.061590459905608e+01, 4.708771624724242e+00, 3.012654349052917e+00, 8.437924204679033e+00
112, 2.000000000000817e-04, 1.000000000000000e-02, 6.473708692642910e-04, -4.136618279283407e-05, 1.465394665100435e+01, 1.168049321721591e+01, 3.866530977923077e+00, 8.285027008758837e+00
113, 1.500000000001972e-04, 1.000000000000000e-02, 6.475607205059047e-04, -3.701251399609250e-05, 1.313801931020096e+01, 1.267166813231768e+01, 5.967464979636157e+00, 1.194403769894624e+01
114, 1.000000000003456e-04, 1.000000000000000e-02, 6.477506389475542e-04, -3.265895447693976e-05, 8.540480756882189e+00, 1.298412301478157e+01, 7.799625940914814e+00, 1.621982169411718e+01
115, 5.000000000047588e-05, 1.000000000000000e-02, 6.479406615710661e-04, -2.830546069314092e-05, 2.133200292907382e+00, 1.304478222835770e+01, 9.053155175854641e+00, 2.114003535679306e+01
116, 6.410887445906788e-16, 1.000000000000000e-02, 6.481308092569234e-04, -2.395197158244763e-05, -4.464842504004679e+00, 1.367875909549060e+01, 9.484812613390750e+00, 2.624951352398274e+01
117, -4.999999999945738e-05, 1.000000000000000e-02, 6.483210863378551e-04, -1.959841507586545e-05, -9.212511606195882e+00, 1.617758514599167e+01, 8.936085557012042e+00, 3.104950101715649e+01
118, -9.999999999958566e-05, 1.000000000000000e-02, 6.485114785890758e-04, -1.524472394079119e-05, -9.631824121140671e+00, 2.211967081922553e+01, 7.482352805879604e+00, 3.510127981989714e+01
119, -1.499999999997626e-04, 1.000000000000000e-02, 6.487019469120516e-04, -1.089086490532149e-05, -2.574438299374773e+00, 3.304516249165985e+01, 5.704193629455204e+00, 3.740196866960272e+01
120, -1.999999999998909e-04, 1.000000000000000e-02, 6.488924077112412e-04, -6.536894238265467e-06, 1.830895959338287e+01, 5.111993249054858e+01, 4.838615938749551e+00, 3.420831418338862e+01
121, -2.500000000000000e-04, 9.899999999999590e-03, 6.403747174232155e-04, -1.804044510126505e-06, -1.519304533256542e+01, 2.675295588518862e+01, -1.677389479709098e+00, 4.207994249076843e+01
122, -2.500000000000000e-04, 9.799999999999181e-03, 6.316665254995883e-04, -1.425923591404203e-06, 3.691996415128628e+00, 6.284977548388260e+01, 1.635429267475202e+00, 5.924813364067398e+01
123, -2.500000000000000e-04, 9.699999999999055e-03, 6.229585012193330e-04, -1.048433985805613e-06, 1.086159417061563e+01, 8.681932441560180e+01, 4.754710460030962e+00, 7.655067517798258e+01
124, -2.500000000000000e-04, 9.599999999999458e-03, 6.142508885247612e-04, -6.716763282614304e-07, 1.619618446085754e+01, 1.124565620900570e+02, 7.862078538625724e+00, 9.753619542050102e+01
125, -2.500000000000000e-04, 9.499999999999916e-03, 6.055439576567676e-04, -2.958119168999849e-07, 2.221288270186442e+01, 1.424633779662338e+02, 1.114158502592383e+01, 1.222976748711344e+02
126, -2.500000000000000e-04, 9.400000000000373e-03, 5.968380354516639e-04, 7.900278895493136e-08, 2.908364216716443e+01, 1.767658852623218e+02, 1.460676844538078e+01, 1.505439326684574e+02
127, -2.500000000000000e-04, 9.300000000000832e-03, 5.881334972079194e-04, 4.526117285947862e-07, 3.712441589655945e+01, 2.154694834317031e+02, 1.827963368880397e+01, 1.820536820426941e+02
128, -2.500000000000000e-04, 9.200000000001289e-03, 5.794307791193217e-04, 8.248588858250526e-07, 4.588642840998345e+01, 2.580947072314015e+02, 2.217868829550213e+01, 2.167946735009531e+02
129, -2.500000000000000e-04, 9.100000000001746e-03, 5.707303535748496e-04, 1.195587139417043e-06, 5.565385329457977e+01, 3.048356221723394e+02, 2.632032425813706e+01, 2.546813534934647e+02
130, -2.500000000000000e-04, 9.000000000002204e-03, 5.620327451909234e-04, 1.564635038305964e-06, 6.635344738097596e+01, 3.556436154253106e+02, 3.069681881066710e+01, 2.957329539762167e+02
131, -2.500000000000000e-04, 8.900000000002661e-03, 5.533385267484652e-04, 1.931836181365327e-06, 7.794098493965257e+01, 4.105040899488027e+02, 3.531725430321082e+01, 3.399815474689732e+02
132, -2.500000000000000e-04, 8.800000000003118e-03, 5.446483173355126e-04, 2.297019305287175e-06, 9.042100339700814e+01, 4.694378386809793e+02, 4.019104844084654e+01, 3.874468259358629e+02
133, -2.500000000000000e-04, 8.700000000003576e-03, 5.359627835862054e-04, 2.660008579624540e-06, 1.037567218713772e+02, 5.324279719604685e+02, 4.532349921784097e+01, 4.381505665617047e+02
134, -2.500000000000000e-04, 8.600000000004033e-03, 5.272826384533175e-04, 3.020623715756157e-06, 1.179520235989060e+02, 5.994935215546456e+02, 5.071894445845682e+01, 4.921096011676440e+02
135, -2.500000000000000e-04, 8.500000000004490e-03, 5.186086417614939e-04, 3.378679796235240e-06, 1.330186591386502e+02, 6.706588304214574e+02, 5.638072022623581e+01, 5.493378707406969e+02
136, -2.500000000000000e-04, 8.400000000004949e-03, 5.099416007958981e-04, 3.733987498318538e-06, 1.489938966944530e+02, 7.459746613586144e+02, 6.230405743863086e+01, 6.098468788739282e+02
137, -2.500000000000000e-04, 8.300000000005149e-03, 5.012823721401197e-04, 4.086352513495874e-06, 1.658407677492667e+02, 8.254264919169398e+02, 6.849207165728927e+01, 6.736601391246352e+02
138, -2.500000000000000e-04, 8.200000000005172e-03, 4.926318595411483e-04, 4.435576376871796e-06, 1.836220604528187e+02, 9.090859125114840e+02, 7.493792582426687e+01, 7.407837549185119e+02
139, -2.500000000000000e-04, 8.100000000005195e-03, 4.839910173861137e-04, 4.781455491184042e-06, 2.022840276435246e+02, 9.969276603390404e+02, 8.164300378252963e+01, 8.112464627041910e+02
140, -2.500000000000000e-04, 8.000000000005220e-03, 4.753608477910856e-04, 5.123782086081734e-06, 2.218288646754299e+02, 1.088958849697363e+03, 8.861143068341423e+01, 8.850550002769230e+02
141, -2.500000000000000e-04, 7.900000000005243e-03, 4.667424007881028e-04, 5.462344443058066e-06, 2.423483555544105e+02, 1.185272083755985e+03, 9.582997427048149e+01, 9.622051200655094e+02
142, -2.500000000000000e-04, 7.800000000005240e-03, 4.581367794697247e-04, 5.796925841034356e-06, 2.637118827555057e+02, 1.285769271280109e+03, 1.033007158042557e+02, 1.042729810152380e+03
143, -2.500000000000000e-04, 7.700000000005121e-03, 4.495451331738225e-04, 6.127306179469497e-06, 2.859780617682636e+02, 1.390505668899509e+03, 1.110211763763258e+02, 1.126625066883836e+03
144, -2.500000000000000e-04, 7.600000000005145e-03, 4.409686610777907e-04, 6.453260930061881e-06, 3.091403127429654e+02, 1.499482952187646e+03, 1.189888843637503e+02, 1.213898273204411e+03
145, -2.500000000000000e-04, 7.500000000005337e-03, 4.324086120744306e-04, 6.774562053833841e-06, 3.331435242272057e+02, 1.612654611502993e+03, 1.272025240319127e+02, 1.304557607368116e+03
146, -2.500000000000000e-04, 7.400000000005796e-03, 4.238662818321685e-04, 7.090978066142008e-06, 3.580966313431201e+02, 1.730124305923156e+03, 1.356506319983959e+02, 1.398593692127831e+03
147, -2.500000000000000e-04, 7.300000000006254e-03, 4.153430185175263e-04, 7.402272991470595e-06, 3.839470755133129e+02, 1.851865380517185e+03, 1.443256975032706e+02, 1.496029337280745e+03
148, -2.500000000000000e-04, 7.200000000006711e-03, 4.068402197066575e-04, 7.708207178931120e-06, 4.106845916357446e+02, 1.977873928102864e+03, 1.532263322966832e+02, 1.596870580846370e+03
149, -2.500000000000000e-04, 7.100000000007169e-03, 3.983593320778216e-04, 8.008537645273224e-06, 4.383440974697286e+02, 2.108184350795782e+03, 1.623431301147535e+02, 1.701113646764919e+03
150, -2.500000000000000e-04, 7.000000000007627e-03, 3.899018535992669e-04, 8.303017849143103e-06, 4.668824643775048e+02, 2.242768974160765e+03, 1.716684609610875e+02, 1.808771167833334e+03
151, -2.500000000000000e-04, 6.900000000008085e-03, 3.814693313359765e-04, 8.591397990812208e-06, 4.963196481987481e+02, 2.381649031278576e+03, 1.811960722204520e+02, 1.919842428184313e+03
152, -2.500000000000000e-04, 6.800000000008542e-03, 3.730633627867646e-04, 8.873425166186862e-06, 5.266343820677723e+02, 2.524809439501664e+03, 1.909183494757884e+02, 2.034331050939638e+03
153, -2.500000000000000e-04, 6.700000000009001e-03, 3.646855948501489e-04, 9.148843651720765e-06, 5.578547275106440e+02, 2.672280941613218e+03, 2.008237571075937e+02, 2.152235800408353e+03
154, -2.500000000000000e-04, 6.600000000009459e-03, 3.563377254253184e-04, 9.417394536938691e-06, 5.899683784428698e+02, 2.824059947811503e+03, 2.109022765809950e+02, 2.273562011776277e+03
155, -2.500000000000000e-04, 6.500000000009916e-03, 3.480215030361960e-04, 9.678816336756862e-06, 6.229323933999592e+02, 2.980113381584530e+03, 2.211460363630423e+02, 2.398317011709487e+03
156, -2.500000000000000e-04, 6.400000000010177e-03, 3.397387247708092e-04, 9.932845147484934e-06, 6.567902025731926e+02, 3.140481701809360e+03, 2.315453616950107e+02, 2.526494900344724e+03
157, -2.500000000000000e-04, 6.300000000010201e-03, 3.314912386704633e-04, 1.017921460583716e-05, 6.915415352611848e+02, 3.305171289057689e+03, 2.420860390386161e+02, 2.658097645143986e+03
158, -2.500000000000000e-04, 6.200000000010225e-03, 3.232809437017975e-04, 1.041765605554994e-05, 7.271768528464813e+02, 3.474179997741105e+03, 2.527548287898591e+02, 2.793128405921811e+03
159, -2.500000000000000e-04, 6.100000000010248e-03, 3.151097894829996e-04, 1.064789880609761e-05, 7.636737405669521e+02, 3.647492838688358e+03, 2.635407611324738e+02, 2.931591295150621e+03
160, -2.500000000000000e-04, 6.000000000010509e-03, 3.069797752941203e-04, 1.086967046465447e-05, 8.010531104299907e+02, 3.825131109976521e+03, 2.744304537435754e+02, 3.073482722110044e+03
161, -2.500000000000000e-04, 5.900000000010967e-03, 2.988929513246040e-04, 1.108269695919374e-05, 8.393203250940437e+02, 4.007104895486477e+03, 2.854072235798933e+02, 3.218802295497924e+03
162, -2.500000000000000e-04, 5.800000000011424e-03, 2.908514191226670e-04, 1.128670275508681e-05, 8.784540866477000e+02, 4.193401882482254e+03, 2.964548539761169e+02, 3.367554128873413e+03
163, -2.500000000000000e-04, 5.700000000011876e-03, 2.828573307992262e-04, 1.148141113418777e-05, 9.184368364717100e+02, 4.384011583732663e+03, 3.075595879096034e+02, 3.519741457737104e+03
164, -2.500000000000000e-04, 5.600000000012062e-03, 2.749128884221026e-04, 1.166654451576306e-05, 9.592725052822584e+02, 4.578940284630717e+03, 3.187071044134058e+02, 3.675362799298555e+03
165, -2.500000000000000e-04, 5.500000000012085e-03, 2.670203443637258e-04, 1.184182469268417e-05, 1.000980360055463e+03, 4.778207809826294e+03, 3.298789527999306e+02, 3.834413605925131e+03
166, -2.500000000000000e-04, 5.400000000012110e-03, 2.591820024177597e-04, 1.200697298520198e-05, 1.043550130701371e+03, 4.981810589801226e+03, 3.410550585280346e+02, 3.996895001810736e+03
167, -2.500000000000000e-04, 5.300000000012160e-03, 2.514002174242987e-04, 1.216171052993363e-05, 1.086969706074903e+03, 5.189743228109821e+03, 3.522164620698934e+02, 4.162808705396267e+03
168, -2.500000000000000e-04, 5.200000000012475e-03, 2.436773949066444e-04, 1.230575858945718e-05, 1.131236066239539e+03, 5.402007731771319e+03, 3.633439079014570e+02, 4.332154868047250e+03
169, -2.500000000000000e-04, 5.100000000012934e-03, 2.360159911681919e-04, 1.243883883290619e-05, 1.176349680625179e+03, 5.618609067433776e+03, 3.744167528476567e+02, 4.504932860647428e+03
170, -2.500000000000000e-04, 5.000000000013221e-03, 2.284185135414345e-04, 1.256067363379844e-05, 1.222306917361672e+03, 5.839549128219700e+03, 3.854130106064457e+02, 4.681142850705160e+03
171, -2.500000000000000e-04, 4.900000000012981e-03, 2.208875204269614e-04, 1.267098636726855e-05, 1.269097017465383e+03, 6.064823291596568e+03, 3.963112405038438e+02, 4.860786036619073e+03
172, -2.500000000000000e-04, 4.800000000012570e-03, 2.134256209054343e-04, 1.276950181156809e-05, 1.316728112318355e+03, 6.294442075108241e+03, 4.070883132576886e+02, 5.043859620817905e+03
173, -2.500000000000000e-04, 4.700000000012160e-03, 2.060354753703769e-04, 1.285594643801671e-05, 1.365202899650451e+03, 6.528412408360155e+03, 4.177179520464740e+02, 5.230361897677626e+03
174, -2.500000000000000e-04, 4.600000000011960e-03, 1.987197959658135e-04, 1.293004872661061e-05, 1.414494334866143e+03, 6.766716754792462e+03, 4.281750483600604e+02, 5.420297069397073e+03
175, -2.500000000000000e-04, 4.500000000011985e-03, 1.914813454354884e-04, 1.299153960547728e-05, 1.464604242331451e+03, 7.009360803839114e+03, 4.384353752476740e+02, 5.613664368258629e+03
176, -2.500000000000000e-04, 4.400000000012010e-03, 1.843229374431337e-04, 1.304015281449879e-05, 1.515543400604080e+03, 7.256357352350858e+03, 4.484716504874611e+02, 5.810460576730064e+03
177, -2.500000000000000e-04, 4.300000000011870e-03, 1.772474373324734e-04, 1.307562529491800e-05, 1.567302340262019e+03, 7.507702388724059e+03, 4.582547838658699e+02, 6.010685694952917e+03
178, -2.500000000000000e-04, 4.200000000011467e-03, 1.702577618294262e-04, 1.309769760882186e-05, 1.619874143254789e+03, 7.763393814456240e+03, 4.677558112492314e+02, 6.214339542241709e+03
179, -2.500000000000000e-04, 4.100000000011056e-03, 1.633568789319532e-04, 1.310611437527610e-05, 1.673258670292678e+03, 8.023435345665297e+03, 4.769442795783258e+02, 6.421420963598041e+03
180, -2.500000000000000e-04, 4.000000000010646e-03, 1.565478081861422e-04, 1.310062467400223e-05, 1.727447108448479e+03, 8.287823875632344e+03, 4.857889564286159e+02, 6.631930862739587e+03
181, -2.500000000000000e-04, 3.900000000010236e-03, 1.498336204488635e-04, 1.308098250765096e-05, 1.782435781585311e+03, 8.556560338975452e+03, 4.942584571450676e+02, 6.845869499842504e+03
182, -2.500000000000000e-04, 3.800000000009824e-03, 1.432174378787806e-04, 1.304694727057131e-05, 1.838230319461907e+03, 8.829652756849788e+03, 5.023195860341388e+02, 7.063234922049863e+03
183, -2.500000000000000e-04, 3.700000000009415e-03, 1.367024344394883e-04, 1.299828424309154e-05, 1.894823323147523e+03, 9.107098274924298e+03, 5.099373572813066e+02, 7.284027348481804e+03
184, -2.500000000000000e-04, 3.600000000009160e-03, 1.302918357197664e-04, 1.293476508278964e-05, 1.952210271850761e+03, 9.388896376512519e+03, 5.170763264177961e+02, 7.508246927787882e+03
185, -2.500000000000000e-04, 3.500000000009170e-03, 1.239889189293806e-04, 1.285616834381374e-05, 2.010387898334939e+03, 9.675047592297135e+03, 5.237000172995079e+02, 7.735893940374743e+03
186, -2.500000000000000e-04, 3.400000000009196e-03, 1.177970129162040e-04, 1.276227999195873e-05, 2.069356678666793e+03, 9.965554913412478e+03, 5.297709502702110e+02, 7.966967779613627e+03
187, -2.500000000000000e-04, 3.300000000009092e-03, 1.117194983437144e-04, 1.265289398548216e-05, 2.129115149294831e+03, 1.026041873844829e+04, 5.352499751098525e+02, 8.201467442013065e+03
188, -2.500000000000000e-04, 3.200000000008720e-03, 1.057598077933115e-04, 1.252781285554120e-05, 2.189658129862392e+03, 1.055963634710737e+04, 5.400966458319915e+02, 8.439392922746947e+03
189, -2.500000000000000e-04, 3.100000000008311e-03, 9.992142567686825e-05, 1.238684826475461e-05, 2.250983035816248e+03, 1.086320715394275e+04, 5.442698198626155e+02, 8.680744369470449e+03
190, -2.500000000000000e-04, 3.000000000007901e-03, 9.420788825305028e-05, 1.222982160805802e-05, 2.313089928129154e+03, 1.117113207676180e+04, 5.477270973021232e+02, 8.925521306872139e+03
191, -2.500000000000000e-04, 2.900000000007490e-03, 8.862278376993210e-05, 1.205656464470577e-05, 2.375977560603252e+03, 1.148341034397730e+04, 5.504244140960786e+02, 9.173723346940889e+03
192, -2.500000000000000e-04, 2.800000000007079e-03, 8.316975254087402e-05, 1.186692013198537e-05, 2.439641384217632e+03, 1.180003841631625e+04, 5.523167009580870e+02, 9.425351322425575e+03
193, -2.500000000000000e-04, 2.700000000006744e-03, 7.785248680163526e-05, 1.166074245847216e-05, 2.504083103364308e+03, 1.212101725860253e+04, 5.533581833955251e+02, 9.680405139389084e+03
194, -2.500000000000000e-04, 2.600000000006672e-03, 7.267473085489424e-05, 1.143789833963565e-05, 2.569305669750484e+03, 1.244634736551284e+04, 5.535011836009755e+02, 9.938883584227093e+03
195, -2.500000000000000e-04, 2.500000000006697e-03, 6.764028130188528e-05, 1.119826754298858e-05, 2.635304102805472e+03, 1.277602216359605e+04, 5.526964294753809e+02, 1.020078703635478e+04
196, -2.500000000000000e-04, 2.400000000006722e-03, 6.275298682477047e-05, 1.094174357050657e-05, 2.702080182926438e+03, 1.311004053842147e+04, 5.508938745644180e+02, 1.046611556431930e+04
197, -2.500000000000000e-04, 2.300000000006651e-03, 5.801674829935105e-05, 1.066823437634799e-05, 2.769635353430579e+03, 1.344839983924975e+04, 5.480421350542981e+02, 1.073486896383799e+04
198, -2.500000000000000e-04, 2.200000000006315e-03, 5.343551886926300e-05, 1.037766315991052e-05, 2.837969864451804e+03, 1.379109575471105e+04, 5.440881165419501e+02, 1.100704748250484e+04
199, -2.500000000000000e-04, 2.100000000005904e-03, 4.901330390994951e-05, 1.006996909059803e-05, 2.907087322633772e+03, 1.413812578839005e+04, 5.389778070826983e+02, 1.128265098837183e+04
200, -2.500000000000000e-04, 2.000000000005494e-03, 4.475416114210815e-05, 9.745108141771048e-06, 2.976989062966170e+03, 1.448948427106190e+04, 5.326554547545284e+02, 1.156167951684989e+04
201, -2.500000000000000e-04, 1.900000000005083e-03, 4.066220060448230e-05, 9.403053887812767e-06, 3.047678517224896e+03, 1.484516631328699e+04, 5.250640321970782e+02, 1.184413303073983e+04
202, -2.500000000000000e-04, 1.800000000004675e-03, 3.674158470569384e-05, 9.043798344925326e-06, 3.119158950881967e+03, 1.520516603034797e+04, 5.161449985528875e+02, 1.213001194405954e+04
203, -2.500000000000000e-04, 1.700000000004264e-03, 3.299652821107210e-05, 8.667352801450020e-06, 3.191435312885164e+03, 1.556947729042907e+04, 5.058387660653275e+02, 1.241931618998635e+04
204, -2.500000000000000e-04, 1.600000000003854e-03, 2.943129829488956e-05, 8.273748743995421e-06, 3.264511878520687e+03, 1.593809183391926e+04, 4.940838954183125e+02, 1.271204564453445e+04
205, -2.500000000000000e-04, 1.500000000003443e-03, 2.605021451125220e-05, 7.863038730391428e-06, 3.338394851383843e+03, 1.631100200884302e+04, 4.808176484686480e+02, 1.300820044841241e+04
206, -2.500000000000000e-04, 1.400000000003032e-03, 2.285764881597879e-05, 7.435297306465545e-06, 3.413091164144515e+03, 1.668819921087202e+04, 4.659758067761624e+02, 1.330778071138430e+04
207, -2.500000000000000e-04, 1.300000000002622e-03, 1.985802558504791e-05, 6.990621957292499e-06, 3.488607733743303e+03, 1.706967309210334e+04, 4.494926446794899e+02, 1.361078656134652e+04
208, -2.500000000000000e-04, 1.200000000002211e-03, 1.705582157404365e-05, 6.529134077173508e-06, 3.564955070458703e+03, 1.745541532629330e+04, 4.313011359057984e+02, 1.391721842891944e+04
209, -2.500000000000000e-04, 1.100000000002113e-03, 1.445556587194297e-05, 6.050979902717984e-06, 3.642156340869061e+03, 1.784543220021236e+04, 4.113339561627687e+02, 1.422708078386336e+04
210, -2.500000000000000e-04, 1.000000000002544e-03, 1.206183991403625e-05, 5.556331152858907e-06, 3.720276201651224e+03, 1.823978832200102e+04, 3.895263070154060e+02, 1.454039735318168e+04
211, -2.500000000000000e-04, 9.000000000030026e-04, 9.879278197954143e-06, 5.045384567566258e-06, 3.799450821451330e+03, 1.863867216974770e+04, 3.658220379941468e+02, 1.485724716351127e+04
212, -2.500000000000000e-04, 8.000000000032027e-04, 7.912572090695736e-06, 4.518359637614993e-06, 3.879844675702707e+03, 1.904237676513091e+04, 3.401617566626256e+02, 1.517778704046553e+04
213, -2.500000000000000e-04, 7.000000000028719e-04, 6.166483435367588e-06, 3.975496958398142e-06, 3.960729782409993e+03, 1.945011445886389e+04, 3.124101950625599e+02, 1.550198174992735e+04
214, -2.500000000000000e-04, 6.000000000024631e-04, 4.645873445872328e-06, 3.417086214736524e-06, 4.038121390134400e+03, 1.985610326455334e+04, 2.818799752755993e+02, 1.582802501455224e+04
215, -2.500000000000000e-04, 5.000000000020526e-04, 3.355734785149369e-06, 2.843604355027496e-06, 4.090651149271878e+03, 2.022951079329303e+04, 2.466137643255537e+02, 1.614639476801040e+04
216, -2.500000000000000e-04, 4.000000000016421e-04, 2.300987459439328e-06, 2.256340810135163e-06, 4.073304834139692e+03, 2.049344767458645e+04, 1.985888939736811e+02, 1.642494569537183e+04
217, -2.500000000000000e-04, 3.000000000012316e-04, 1.485425850390703e-06, 1.658659462731686e-06, 3.726304975784347e+03, 2.029646128481823e+04, 1.355501251047205e+02, 1.657237386289240e+04
218, -2.500000000000000e-04, 2.000000000008210e-04, 9.041299537182100e-07, 1.061662303174048e-06, 3.496454971863340e+03, 1.999112354952978e+04, 1.117679570307996e+01, 1.649468372446424e+04
219, -2.500000000000000e-04, 1.000000000004105e-04, 5.266819149712971e-07, 4.697903700481247e-07, -1.793913261686531e+03, 1.382046283062789e+04, 1.181144702477545e+03, 1.579205977651437e+04
220, -1.999999999998928e-04, 9.899999999999593e-03, 6.401841353053822e-04, -6.158297887418857e-06, -2.917303499839275e+00, 3.944597424252183e+01, 2.924681786575955e+00, 4.276520028349388e+01
221, -1.499999999997670e-04, 9.899999999999591e-03, 6.399935962640089e-04, -1.051223546911224e-05, -9.438302717700564e-01, 3.637591516050626e+01, 7.748727793151255e+00, 4.040958461527818e+01
222, -9.999999999959327e-05, 9.899999999999591e-03, 6.398031628836316e-04, -1.486593964119098e-05, 1.669473962306673e+00, 3.141154810984116e+01, 1.095989141760560e+01, 3.694682468278240e+01
223, -4.999999999946756e-05, 9.899999999999593e-03, 6.396128556349503e-04, -1.921943845610662e-05, 4.320251712826714e+00, 2.599320203212659e+01, 1.313324406928282e+01, 3.405356331834086e+01
224, 6.282680539010377e-16, 9.899999999999593e-03, 6.394226718710969e-04, -2.357279044216084e-05, 6.475375269705129e+00, 2.048067096231578e+01, 1.406546145025672e+01, 3.142446707061378e+01
225, 5.000000000046569e-05, 9.899999999999590e-03, 6.392326014262286e-04, -2.792607507040249e-05, 8.137354395960681e+00, 1.523489618889751e+01, 1.365722797692339e+01, 2.822152730730782e+01
226, 1.000000000003380e-04, 9.899999999999590e-03, 6.390426303416190e-04, -3.227937812314562e-05, 9.345257532198458e+00, 1.057917716521246e+01, 1.195813304915054e+01, 2.394807595080412e+01
227, 1.500000000001929e-04, 9.899999999999593e-03, 6.388527400677146e-04, -3.663278054175139e-05, 1.008863268234095e+01, 6.901017260788571e+00, 9.121897338948010e+00, 1.852017646581549e+01
228, 2.000000000000797e-04, 9.899999999999593e-03, 6.386629052248467e-04, -4.098635123908742e-05, 1.013582400851877e+01, 4.548868182845807e+00, 5.399273104764630e+00, 1.215823488987443e+01
229, -1.999999999998947e-04, 9.799999999999184e-03, 6.314757562136104e-04, -5.780037316731205e-06, -4.461619086886675e-01, 5.228873720056485e+01, 5.882066221470726e+00, 5.403114283631446e+01
230, -1.499999999997712e-04, 9.799999999999181e-03, 6.312851265571269e-04, -1.013377788212383e-05, 2.449697608567849e+00, 4.531770408052615e+01, 1.178051863252358e+01, 4.891613696812944e+01
231, -9.999999999960086e-05, 9.799999999999184e-03, 6.310946458622994e-04, -1.448721919558803e-05, 4.256518680613720e+00, 3.651060164610270e+01, 1.601685021485066e+01, 4.545859468972279e+01
232, -4.999999999947776e-05, 9.799999999999184e-03, 6.309043234016905e-04, -1.884044373446890e-05, 6.376011858905265e+00, 2.798276589677448e+01, 1.864314518225146e+01, 4.309430669124404e+01
233, 6.154473632113966e-16, 9.799999999999184e-03, 6.307141563189355e-04, -2.319353119423399e-05, 8.490071731108124e+00, 2.007090005409841e+01, 1.964941438749644e+01, 4.096966594607262e+01
234, 5.000000000045551e-05, 9.799999999999184e-03, 6.305241332140626e-04, -2.754656902732553e-05, 1.024330122834703e+01, 1.282326750724573e+01, 1.895562195686791e+01, 3.799892947290786e+01
235, 1.000000000003303e-04, 9.799999999999184e-03, 6.303342374743311e-04, -3.189964932650539e-05, 1.141863071462939e+01, 6.320489032197775e+00, 1.655467378411457e+01, 3.349955141502566e+01
236, 1.500000000001885e-04, 9.799999999999188e-03, 6.301444477082095e-04, -3.625286367262775e-05, 1.182748187307288e+01, 7.237490689577970e-01, 1.252443800298914e+01, 2.739961808763136e+01
237, 2.000000000000778e-04, 9.799999999999188e-03, 6.299547359314472e-04, -4.060629879307516e-05, 1.115390230973690e+01, -3.742505900299734e+00, 6.975181120061480e+00, 2.040871343790920e+01
238, -1.999999999998966e-04, 9.699999999999027e-03, 6.227675280686853e-04, -5.402253104514185e-06, 1.262249348215521e+00, 6.776326335640351e+01, 9.438844840603775e+00, 6.912851822379230e+01
239, -1.499999999997756e-04, 9.699999999998999e-03, 6.225767437119432e-04, -9.755658025689438e-06, 3.446566965482294e+00, 5.617286834213473e+01, 1.610486107479716e+01, 6.178615587504736e+01
240, -9.999999999960846e-05, 9.699999999998973e-03, 6.223861616051151e-04, -1.410873640968295e-05, 5.732906798482208e+00, 4.427940922094490e+01, 2.085541217602652e+01, 5.679459232297334e+01
241, -4.999999999948794e-05, 9.699999999998947e-03, 6.221957853929940e-04, -1.846158271826893e-05, 7.814807150240529e+00, 3.227630564579528e+01, 2.363676264848183e+01, 5.322735295551237e+01
242, 6.026266725217555e-16, 9.699999999998920e-03, 6.220056121745490e-04, -2.281429616810231e-05, 9.728936943958114e+00, 2.070198057892783e+01, 2.442059940691799e+01, 5.005866946081969e+01
243, 5.000000000044535e-05, 9.699999999998892e-03, 6.218156315247493e-04, -2.716697766518417e-05, 1.126907085123260e+01, 9.806874896805663e+00, 2.319246969545132e+01, 4.640798012526351e+01
244, 1.000000000003228e-04, 9.699999999998864e-03, 6.216258262758490e-04, -3.151973024547651e-05, 1.220437821945938e+01, -2.319315965122311e-01, 1.995053709160127e+01, 4.179422834330435e+01
245, 1.500000000001842e-04, 9.699999999998836e-03, 6.214361728850498e-04, -3.587265774826738e-05, 1.232271470554728e+01, -9.206402086501363e+00, 1.471812947421114e+01, 3.646911310580834e+01
246, 2.000000000000759e-04, 9.699999999998809e-03, 6.212466407402424e-04, -4.022586414957343e-05, 1.148878863529982e+01, -1.676773288350380e+01, 7.526364075705200e+00, 3.201586533490661e+01
247, -1.999999999998985e-04, 9.599999999999352e-03, 6.140596670665545e-04, -5.025082643745801e-06, 2.135461220611690e+00, 8.576419729846042e+01, 1.315736570801556e+01, 8.767115025751819e+01
248, -1.499999999997800e-04, 9.599999999999241e-03, 6.138686930115394e-04, -9.378021441721436e-06, 4.226982632532425e+00, 6.983021614837944e+01, 2.055176617699840e+01, 7.741630719500132e+01
249, -9.999999999961608e-05, 9.599999999999132e-03, 6.136779804367287e-04, -1.373060224300137e-05, 6.455570543147223e+00, 5.358833957400738e+01, 2.565074689918725e+01, 6.966592554801139e+01
250, -4.999999999949810e-05, 9.599999999999024e-03, 6.134875344864990e-04, -1.808293642638264e-05, 8.591454676069709e+00, 3.736432204330438e+01, 2.843668039589862e+01, 6.373740710357158e+01
251, 5.898059818321144e-16, 9.599999999998917e-03, 6.132973520331557e-04, -2.243513795474982e-05, 1.042027892110125e+01, 2.144195646517741e+01, 2.889469998448568e+01, 5.883104728508019e+01
252, 5.000000000043517e-05, 9.599999999998809e-03, 6.131074226781182e-04, -2.678732279275273e-05, 1.179110837982293e+01, 6.142678607762464e+00, 2.702157500032659e+01, 5.433752681971271e+01
253, 1.000000000003152e-04, 9.599999999998698e-03, 6.129177288775786e-04, -3.113960799377403e-05, 1.252562591804656e+01, -8.256695015997517e+00, 2.282428016091348e+01, 5.015671363697069e+01
254, 1.500000000001798e-04, 9.599999999998591e-03, 6.127282461090094e-04, -3.549211153742680e-05, 1.246305426042854e+01, -2.147100128618526e+01, 1.631572282901753e+01, 4.707792870947029e+01
255, 2.000000000000740e-04, 9.599999999998483e-03, 6.125389430464517e-04, -3.984495206198038e-05, 1.147664140746478e+01, -3.318580713867110e+01, 7.507686381214318e+00, 4.711895297362749e+01
256, -1.999999999999004e-04, 9.499999999999719e-03, 6.053524505917387e-04, -4.648655447608725e-06, 2.571322765201588e+00, 1.063583880053146e+02, 1.698020675595792e+01, 1.092019441084077e+02
257, -1.499999999997843e-04, 9.499999999999528e-03, 6.051612617502247e-04, -9.000976318948889e-06, 4.773358750369942e+00, 8.552068366188716e+01, 2.505902009511082e+01, 9.503656366301763e+01
258, -9.999999999962368e-05, 9.499999999999330e-03, 6.049704051428154e-04, -1.335290280247549e-05, 7.021413783469965e+00, 6.429630687632755e+01, 3.045901811736255e+01, 8.361471471872366e+01
259, -4.999999999950831e-05, 9.499999999999136e-03, 6.047798860515614e-04, -1.770456434984685e-05, 9.127974309720237e+00, 4.304832378617849e+01, 3.318904469220416e+01, 7.454287933082249e+01
260, 5.769988436696294e-16, 9.499999999998942e-03, 6.045897016008598e-04, -2.205609134208886e-05, 1.090371771273606e+01, 2.210330064970760e+01, 3.325716744040879e+01, 6.745062937141246e+01
261, 5.000000000042495e-05, 9.499999999998747e-03, 6.043998411753307e-04, -2.640761511775797e-05, 1.216810556920853e+01, 1.769286235810655e+00, 3.067342621058765e+01, 6.222195549413495e+01
262, 1.000000000003075e-04, 9.499999999998551e-03, 6.042102868152342e-04, -3.075926778547762e-05, 1.276172419694803e+01, -1.764263815726211e+01, 2.545246944577640e+01, 5.929365947315814e+01
263, 1.500000000001755e-04, 9.499999999998359e-03, 6.040210134553559e-04, -3.511118191309542e-05, 1.253352659501812e+01, -3.582898886058663e+01, 1.761367312537448e+01, 5.983225572434794e+01
264, 2.000000000000721e-04, 9.499999999998164e-03, 6.038319891821606e-04, -3.946349030259500e-05, 1.135323268573056e+01, -5.248587378364597e+01, 7.184385236626372e+00, 6.543617561961740e+01
265, -1.999999999999023e-04, 9.400000000000087e-03, 5.966462118175364e-04, -4.273100173074905e-06, 2.825548842770537e+00, 1.295753013658571e+02, 2.092703852838707e+01, 1.334813227793989e+02
266, -1.499999999997887e-04, 9.399999999999811e-03, 5.964547893769869e-04, -8.624623234435728e-06, 5.180581389576883e+00, 1.030799529179500e+02, 2.964177618438459e+01, 1.144501049676715e+02
267, -9.999999999963125e-05, 9.399999999999530e-03, 5.962637812138292e-04, -1.297571372200541e-05, 7.508691950765180e+00, 7.619362559344910e+01, 3.530339140529924e+01, 9.850349175721090e+01
268, -4.999999999951849e-05, 9.399999999999249e-03, 5.960731920669686e-04, -1.732651860367432e-05, 9.625181456157277e+00, 4.926280943218249e+01, 3.794187407735142e+01, 8.561241023106490e+01
269, 5.641646004528322e-16, 9.399999999998968e-03, 5.958830186616046e-04, -2.167718503058952e-05, 1.135759970646048e+01, 2.262844279380493e+01, 3.758062727920704e+01, 7.600161900048091e+01
270, 5.000000000041476e-05, 9.399999999998687e-03, 5.956932499753073e-04, -2.602786039229632e-05, 1.253699084088571e+01, -3.382115318777019e+00, 3.424237423750743e+01, 7.031058750009603e+01
271, 1.000000000003000e-04, 9.399999999998406e-03, 5.955038674809989e-04, -3.037869226026604e-05, 1.300005366698818e+01, -2.845174750987717e+01, 2.795195034186802e+01, 6.959524360517318e+01
272, 1.500000000001711e-04, 9.399999999998125e-03, 5.953148453827379e-04, -3.472982821872894e-05, 1.259163114257250e+01, -5.226964738668124e+01, 1.873897190328626e+01, 7.491049141754470e+01
273, 2.000000000000702e-04, 9.399999999997844e-03, 5.951261508294469e-04, -3.908141552702085e-05, 1.115232698344182e+01, -7.454128201227630e+01, 6.639823378794467e+00, 8.671645542062569e+01
274, -1.999999999999042e-04, 9.300000000000464e-03, 5.879413324237104e-04, -3.898543564665745e-06, 3.211825096397034e+00, 1.555589618811982e+02, 2.501728590783742e+01, 1.603530743805832e+02
275, -1.499999999997930e-04, 9.300000000000100e-03, 5.877496625462533e-04, -8.249062774586681e-06, 5.691005140926968e+00, 1.226383542764224e+02, 3.430992411946787e+01, 1.355926474487243e+02
276, -9.999999999963886e-05, 9.299999999999729e-03, 5.875584993559123e-04, -1.259911049542112e-05, 8.069587720337351e+00, 8.934353467913172e+01, 4.019586866561835e+01, 1.143166037170256e+02
277, -4.999999999952863e-05, 9.299999999999361e-03, 5.873678467698212e-04, -1.694885085402058e-05, 1.018751023166134e+01, 5.602903594352166e+01, 4.271119251930163e+01, 9.694549677666592e+01
278, 5.513303572360351e-16, 9.299999999998993e-03, 5.871777008109841e-04, -2.129844771567636e-05, 1.187420149866501e+01, 2.303310898077885e+01, 4.188860466338514e+01, 8.451711080471139e+01
279, 5.000000000040461e-05, 9.299999999998625e-03, 5.869880497485580e-04, -2.564806475675316e-05, 1.296160421485306e+01, -9.313252120538158e+00, 3.776006992234967e+01, 7.873665440520865e+01
280, 1.000000000002923e-04, 9.299999999998258e-03, 5.867988742539232e-04, -2.999786542580328e-05, 1.328459153001547e+01, -4.068630289732825e+01, 3.035906207984736e+01, 8.123760241882809e+01
281, 1.500000000001668e-04, 9.299999999997890e-03, 5.866101475480520e-04, -3.434801281379719e-05, 1.267960425596567e+01, -7.076981064463760e+01, 1.972242668401185e+01, 9.230222805803723e+01
282, 2.000000000000683e-04, 9.299999999997520e-03, 5.864218355104866e-04, -3.869866946929367e-05, 1.098631471773969e+01, -9.925095035533094e+01, 5.891973867937354e+00, 1.108653058221203e+02
283, -1.999999999999061e-04, 9.200000000000841e-03, 5.792382497329975e-04, -3.525116098340461e-06, 3.476720374815645e+00, 1.840742246736480e+02, 2.928210634366300e+01, 1.898558020357900e+02
284, -1.499999999997973e-04, 9.200000000000397e-03, 5.790463194512799e-04, -7.874399702298677e-06, 6.116697398702726e+00, 1.440387092887208e+02, 3.909644680963763e+01, 1.585452931384139e+02
285, -9.999999999964642e-05, 9.199999999999951e-03, 5.788549988796058e-04, -1.222317299775200e-05, 8.594924891940696e+00, 1.036673137612426e+02, 4.516253338961183e+01, 1.311387693017857e+02
286, -4.999999999953884e-05, 9.199999999999505e-03, 5.786642907821234e-04, -1.657161688206608e-05, 1.074708672213215e+01, 6.330439877899249e+01, 4.751630667704057e+01, 1.085977377828308e+02
287, 5.385367716007061e-16, 9.199999999999058e-03, 5.784741901330276e-04, -2.091991184934663e-05, 1.240850278195262e+01, 2.329038298191263e+01, 4.619512050525468e+01, 9.302887697197193e+01
288, 5.000000000039439e-05, 9.199999999998614e-03, 5.782846841709819e-04, -2.526823797492707e-05, 1.341339047825509e+01, -1.604023630533563e+01, 4.123658829480691e+01, 8.757477369361953e+01
289, 1.000000000002848e-04, 9.199999999998171e-03, 5.780957524770413e-04, -2.961677487110980e-05, 1.359629669123971e+01, -5.435794931981027e+01, 3.267957573518761e+01, 9.428466594233528e+01
290, 1.500000000001625e-04, 9.199999999997726e-03, 5.779073670472055e-04, -3.396570160299981e-05, 1.279263870450301e+01, -9.133700792370389e+01, 2.056535301186060e+01, 1.119585561041451e+02
291, 2.000000000000664e-04, 9.199999999997280e-03, 5.777194923492644e-04, -3.831519656075406e-05, 1.083874320577182e+01, -1.266540370632043e+02, 4.938580009680915e+00, 1.378470997741375e+02
292, -1.999999999999080e-04, 9.100000000001274e-03, 5.705374402345072e-04, -3.152951487454714e-06, 3.865983221367333e+00, 2.152946849995121e+02, 3.374622974494794e+01, 2.219399198512672e+02
293, -1.499999999998017e-04, 9.100000000000802e-03, 5.703452399467021e-04, -7.500743151246482e-06, 6.628550429544635e+00, 1.674185320370727e+02, 4.403218049547297e+01, 1.833268934501778e+02
294, -9.999999999965405e-05, 9.100000000000334e-03, 5.701537622002613e-04, -1.184798596029311e-05, 9.183963370484273e+00, 1.192610870790953e+02, 5.022810850732455e+01, 1.490249130207937e+02
295, -4.999999999954905e-05, 9.099999999999862e-03, 5.699630085958914e-04, -1.619487747959809e-05, 1.135997165655123e+01, 7.115888992347226e+01, 5.237376445010446e+01, 1.206149055324176e+02
296, 5.257025283839090e-16, 9.099999999999390e-03, 5.697729729336066e-04, -2.054161479804846e-05, 1.298938618801088e+01, 2.344995150446131e+01, 5.050874839347810e+01, 1.015576589127695e+02
297, 5.000000000038422e-05, 9.099999999998916e-03, 5.695836412608949e-04, -2.488839447308440e-05, 1.390584827879044e+01, -2.352976515186362e+01, 4.467351432456735e+01, 9.687268284381653e+01
298, 1.000000000002772e-04, 9.099999999998446e-03, 5.693949919120711e-04, -2.923541248736388e-05, 1.394318090381293e+01, -6.944670060938657e+01, 3.490965288674235e+01, 1.087594032600253e+02
299, 1.500000000001581e-04, 9.099999999997978e-03, 5.692069955414924e-04, -3.358286418819777e-05, 1.293515575540130e+01, -1.139693189289138e+02, 2.126043433070542e+01, 1.338385966999913e+02
300, 2.000000000000645e-04, 9.099999999997506e-03, 5.690196151413575e-04, -3.793094420958849e-05, 1.071495765120915e+01, -1.567674921490857e+02, 3.771530553480289e+00, 1.676522256397798e+02
301, -1.999999999999099e-04, 9.000000000001736e-03, 5.618394301358403e-04, -2.782186606704585e-06, 4.310949582085620e+00, 2.491669386681320e+02, 3.840581123570468e+01, 2.566212788098375e+02
302, -1.499999999998060e-04, 9.000000000001264e-03, 5.616469520120664e-04, -7.128206203650901e-06, 7.200333652720893e+00, 1.927685076487408e+02, 4.911509594107061e+01, 2.099636106505587e+02
303, -9.999999999966160e-05, 9.000000000000792e-03, 5.614553190234054e-04, -1.147363866115767e-05, 9.824639824217641e+00, 1.361364697432762e+02, 5.539400793507382e+01, 1.680138769207629e+02
304, -4.999999999955923e-05, 9.000000000000320e-03, 5.612645315364720e-04, -1.581869830036277e-05, 1.201592176536956e+01, 7.961112707986454e+01, 5.728415584284804e+01, 1.330225914046916e+02
305, 5.128818376942679e-16, 8.999999999999852e-03, 5.610745821014798e-04, -2.016359884697420e-05, 1.360549127047340e+01, 2.353010735254143e+01, 5.482716768442390e+01, 1.101025488785804e+02
306, 5.000000000037403e-05, 8.999999999999380e-03, 5.608854554842364e-04, -2.450855343106688e-05, 1.442576397529237e+01, -3.176947656192393e+01, 4.806507153945389e+01, 1.066536668692763e+02
307, 1.000000000002695e-04, 8.999999999998908e-03, 5.606971286876492e-04, -2.885377455604390e-05, 1.430944755250393e+01, -8.595140329552029e+01, 3.704075404682899e+01, 1.246607719140247e+02
308, 1.500000000001538e-04, 8.999999999998436e-03, 5.605095709646989e-04, -3.319947406031203e-05, 1.308911073844958e+01, -1.386802268055000e+02, 2.179821292593057e+01, 1.579068718124266e+02
309, 2.000000000000626e-04, 8.999999999997964e-03, 5.603227438203068e-04, -3.754586307293589e-05, 1.059624813731392e+01, -1.896212179563163e+02, 2.382584733151148e+00, 2.002741635084180e+02
310, -1.999999999999118e-04, 8.900000000002187e-03, 5.531447936934781e-04, -2.412963713460140e-06, 4.780088176950148e+00, 2.856945512331283e+02, 4.326883400997112e+01, 2.939416669008847e+02
311, -1.499999999998104e-04, 8.900000000001712e-03, 5.529520313125578e-04, -6.756907049449794e-06, 7.797727437018104e+00, 2.200891840400501e+02, 5.435076239807329e+01, 2.385030063534719e+02
312, -9.999999999966923e-05, 8.900000000001240e-03, 5.527602464737183e-04, -1.110022550553616e-05, 1.049255927596607e+01, 1.543028855986202e+02, 6.066285553745193e+01, 1.881524332153568e+02
313, -4.999999999956943e-05, 8.900000000000770e-03, 5.525694382237915e-04, -1.544315011681025e-05, 1.269638292728102e+01, 8.867475144818576e+01, 6.224767214219742e+01, 1.458485626654867e+02
314, 5.000475944774707e-16, 8.900000000000293e-03, 5.523795977980448e-04, -1.978591129472020e-05, 1.424154871990583e+01, 2.354420722176753e+01, 5.914767504795186e+01, 1.186605634131015e+02
315, 5.000000000036387e-05, 8.899999999999823e-03, 5.521907086233897e-04, -2.412873882108005e-05, 1.496006129459001e+01, -4.075002893075976e+01, 5.140567990909398e+01, 1.169349813382699e+02
316, 1.000000000002620e-04, 8.899999999999349e-03, 5.520027463245403e-04, -2.847186183145492e-05, 1.468394730482761e+01, -1.038695431700967e+02, 3.906511460679769e+01, 1.419833188116017e+02
317, 1.500000000001494e-04, 8.899999999998874e-03, 5.518156787274103e-04, -3.281550878965414e-05, 1.324518397427006e+01, -1.654760837718740e+02, 2.217013355083417e+01, 1.841394874312302e+02
318, 2.000000000000606e-04, 8.899999999998404e-03, 5.516294658581128e-04, -3.715990746523721e-05, 1.047604614737385e+01, -2.252309654206671e+02, 7.655207829758846e-01, 2.357119839775086e+02
319, -1.999999999999137e-04, 8.800000000002590e-03, 5.444541517939051e-04, -2.045430017848453e-06, 5.281411558756155e+00, 3.249066072136969e+02, 4.834339092927317e+01, 3.339290336038802e+02
320, -1.499999999998147e-04, 8.800000000002060e-03, 5.442611004230043e-04, -6.386968986893753e-06, 8.422051516377458e+00, 2.494080816325617e+02, 5.974521897165354e+01, 2.689837011252574e+02
321, -9.999999999967683e-05, 8.800000000001532e-03, 5.440691687416616e-04, -1.072784596114578e-05, 1.118187435098641e+01, 1.737815976062591e+02, 6.603874628857957e+01, 2.094830161329572e+02
322, -4.999999999957961e-05, 8.800000000001001e-03, 5.438783544703263e-04, -1.506830867804754e-05, 1.339419647326085e+01, 9.836772841760244e+01, 6.726621300888684e+01, 1.591209438801938e+02
323, 4.872540088421418e-16, 8.800000000000474e-03, 5.436886475051103e-04, -1.940860426291368e-05, 1.489101070438412e+01, 2.350668116398384e+01, 6.347008684196557e+01, 1.272322186884086e+02
324, 5.000000000035368e-05, 8.799999999999947e-03, 5.435000299103434e-04, -2.374897921405397e-05, 1.550397596078228e+01, -5.046131809898172e+01, 5.469334032715524e+01, 1.277374883304006e+02
325, 1.000000000002544e-04, 8.799999999999419e-03, 5.433124759153944e-04, -2.808967938233934e-05, 1.506456381719591e+01, -1.231961055966800e+02, 4.097955540756098e+01, 1.607274355932381e+02
326, 1.500000000001451e-04, 8.799999999998892e-03, 5.431259519141107e-04, -3.243094994798375e-05, 1.340439806386295e+01, -1.943573521240982e+02, 2.237298022502821e+01, 2.125256356719414e+02
327, 2.000000000000587e-04, 8.799999999998365e-03, 5.429404164666985e-04, -3.677303539562502e-05, 1.035570234739428e+01, -2.636043200624991e+02, -1.081467627789991e+00, 2.739685605461859e+02
328, -1.999999999999156e-04, 8.700000000002964e-03, 5.357681726777205e-04, -1.679737556178420e-06, 5.791762338499325e+00, 3.668040412777475e+02, 5.363554042425302e+01, 3.766124670418071e+02
329, -1.499999999998191e-04, 8.700000000002345e-03, 5.355748291553110e-04, -6.018520212666906e-06, 9.052447063260530e+00, 2.807290145743422e+02, 6.530473191347033e+01, 3.014415189979050e+02
330, -9.999999999968445e-05, 8.700000000001731e-03, 5.353827572464491e-04, -1.035660437562822e-05, 1.187638497327227e+01, 1.945794019417025e+02, 7.152717985589481e+01, 2.320451297526337e+02
331, -4.999999999958977e-05, 8.700000000001117e-03, 5.351919533500816e-04, -1.469425450801158e-05, 1.409608964631811e+01, 1.086967373130200e+02, 7.234399124217656e+01, 1.728695890385349e+02
332, 4.743926605710325e-16, 8.700000000000502e-03, 5.350024060160623e-04, -1.903173449325065e-05, 1.554317774815059e+01, 2.342263816337078e+01, 6.779727111199038e+01, 1.358232887886533e+02
333, 5.000000000034347e-05, 8.699999999999888e-03, 5.348140959336206e-04, -2.336930760503389e-05, 1.604878178043182e+01, -6.090124073895377e+01, 5.792987324008633e+01, 1.390855377822721e+02
334, 1.000000000002468e-04, 8.699999999999274e-03, 5.346269959265654e-04, -2.770723647818126e-05, 1.544389484650366e+01, -1.439331264015305e+02, 4.278537633877072e+01, 1.808960713108422e+02
335, 1.500000000001407e-04, 8.699999999998657e-03, 5.344410709513863e-04, -3.204578308059170e-05, 1.355945705057455e+01, -2.253311930401836e+02, 2.240809888153395e+01, 2.430580882890414e+02
336, 2.000000000000568e-04, 8.699999999998044e-03, 5.342562780972383e-04, -3.638520868258542e-05, 1.022655835276455e+01, -3.047534989550441e+02, -3.156771843435694e+00, 3.150433261243862e+02
337, -1.999999999999175e-04, 8.600000000003331e-03, 5.270875710743440e-04, -1.316043031528251e-06, 6.313261516475897e+00, 4.114034734866591e+02, 5.915078405003028e+01, 4.220110672114906e+02
338, -1.499999999998235e-04, 8.600000000002632e-03, 5.268939340325472e-04, -5.651693591285526e-06, 9.689211517781033e+00, 3.140660186492126e+02, 7.103606813255777e+01, 3.359013733560169e+02
339, -9.999999999969208e-05, 8.600000000001931e-03, 5.267017303106738e-04, -9.986609719268595e-06, 1.257429406327270e+01, 2.167072776129124e+02, 7.713430112187282e+01, 2.558692568698250e+02
340, -4.999999999959999e-05, 8.600000000001230e-03, 5.265109550056967e-04, -1.432107267138320e-05, 1.479903253827235e+01, 1.196698791507064e+02, 7.748611022346046e+01, 1.871210399165677e+02
341, 4.615584173542353e-16, 8.600000000000526e-03, 5.263215953227991e-04, -1.865536315584988e-05, 1.619385209404359e+01, 2.329671064606143e+01, 7.213322369239827e+01, 1.444411937109364e+02
342, 5.000000000033329e-05, 8.599999999999825e-03, 5.261336305718872e-04, -2.298976128684179e-05, 1.658915129344511e+01, -7.206907577932188e+01, 6.111832283307930e+01, 1.510035720484795e+02
343, 1.000000000002392e-04, 8.599999999999124e-03, 5.259470321643201e-04, -2.732454654976351e-05, 1.581522604365318e+01, -1.660842177708305e+02, 4.448491250972823e+01, 2.024920675582410e+02
344, 1.500000000001364e-04, 8.599999999998423e-03, 5.257617636113264e-04, -3.165999776895742e-05, 1.370226593363269e+01, -2.584054089635932e+02, 2.227727560624188e+01, 2.757312002144847e+02
345, 2.000000000000548e-04, 8.599999999997722e-03, 5.255777805225059e-04, -3.599639307833403e-05, 1.007976593264636e+01, -3.486897788863728e+02, -5.459512960336482e+00, 3.589356647321391e+02
346, -1.999999999999195e-04, 8.500000000003703e-03, 5.184131086582470e-04, -9.545075383675803e-07, 6.850095787677169e+00, 4.587181284293171e+02, 6.489211531388452e+01, 4.701368582052125e+02
347, -1.499999999998278e-04, 8.500000000002915e-03, 5.182191786390179e-04, -5.286626349315041e-06, 1.033812545075791e+01, 3.494314948513432e+02, 7.694244553044551e+01, 3.723773259319962e+02
348, -9.999999999969967e-05, 8.500000000002127e-03, 5.180268534535056e-04, -9.617975284639706e-06, 1.328071022294022e+01, 2.401757144148987e+02, 8.286341815873079e+01, 2.809746024164169e+02
349, -4.999999999961013e-05, 8.500000000001340e-03, 5.178361269031859e-04, -1.394885250670468e-05, 1.550650928919551e+01, 1.312948469515110e+02, 8.269552623820184e+01, 2.018938814770148e+02
350, 4.487512791917503e-16, 8.500000000000552e-03, 5.176469848548566e-04, -1.827955562977058e-05, 1.684503479878585e+01, 2.313357153580898e+01, 7.648038916766548e+01, 1.530899911922499e+02
351, 5.000000000032310e-05, 8.499999999999765e-03, 5.174594052408600e-04, -2.261038168384604e-05, 1.712576798483794e+01, -8.396340745270778e+01, 6.426053254199176e+01, 1.635135638439956e+02
352, 1.000000000002316e-04, 8.499999999998977e-03, 5.172733580591718e-04, -2.694162707680759e-05, 1.617819081181162e+01, -1.896512879173352e+02, 4.607935009083850e+01, 2.255194012343251e+02
353, 1.500000000001320e-04, 8.499999999998190e-03, 5.170888053728422e-04, -3.127358756114566e-05, 1.383177528601862e+01, -2.935851747380955e+02, 2.198103912709270e+01, 3.105444339970623e+02
354, 2.000000000000531e-04, 8.499999999997402e-03, 5.169057013099111e-04, -3.560655820366345e-05, 9.916096271497359e+00, -3.954199745267156e+02, -7.989604892950957e+00, 4.056509157336092e+02
355, -1.999999999999213e-04, 8.400000000004074e-03, 5.097455946702385e-04, -5.952964728723872e-07, 7.425237563369052e+00, 5.087797268649396e+02, 7.085623646120021e+01, 5.209978396544659e+02
356, -1.499999999998322e-04, 8.400000000003200e-03, 5.095513742023663e-04, -4.923459909310454e-06, 1.101643005516506e+01, 3.868485196482112e+02, 8.302199183389770e+01, 4.108775536338613e+02
357, -9.999999999970726e-05, 8.400000000002326e-03, 5.093589398924198e-04, -9.250818517150252e-06, 1.400768497917986e+01, 2.650006519928396e+02, 8.871359239942620e+01, 3.073725352011240e+02
358, -4.999999999962035e-05, 8.400000000001451e-03, 5.091682842609751e-04, -1.357768745605478e-05, 1.622743481289505e+01, 1.435826041946900e+02, 8.797207108323657e+01, 2.171996324374463e+02
359, 4.359305885021092e-16, 8.400000000000581e-03, 5.089793918472565e-04, -1.790438133999155e-05, 1.750366135266255e+01, 2.294021653208947e+01, 8.083906488804094e+01, 1.617695081902351e+02
360, 5.000000000031294e-05, 8.399999999999703e-03, 5.087922392165279e-04, -2.223121419566449e-05, 1.766471222629993e+01, -9.658045912794137e+01, 6.735707245296950e+01, 1.766348210730214e+02
361, 1.000000000002240e-04, 8.399999999998832e-03, 5.086067949625072e-04, -2.655849943060767e-05, 1.653906940802994e+01, -2.146332160739007e+02, 4.756939398556833e+01, 2.499840285929406e+02
362, 1.500000000001277e-04, 8.399999999997958e-03, 5.084230197083233e-04, -3.088654980003182e-05, 1.395534816697478e+01, -3.308716506633376e+02, 2.152014290187583e+01, 3.475026982979972e+02
363, 2.000000000000511e-04, 8.399999999997083e-03, 5.082408661076661e-04, -3.521567737414389e-05, 9.742922062014166e+00, -4.449487282432090e+02, -1.074567511208686e+01, 4.551992695421923e+02
364, -1.999999999999233e-04, 8.300000000004210e-03, 5.010858872639138e-04, -2.385798114947390e-07, 8.006702838864804e+00, 5.615760517854595e+02, 7.704430348467346e+01, 5.746149344482011e+02
365, -1.499999999998365e-04, 8.300000000003279e-03, 5.008913805583349e-04, -4.562340106778173e-06, 1.170330794191414e+01, 4.263104310115474e+02, 8.927410518882432e+01, 4.514183535581369e+02
366, -9.999999999971485e-05, 8.300000000002344e-03, 5.006988512629090e-04, -8.885261119163955e-06, 1.474389221461787e+01, 2.911801472163331e+02, 9.468413322757202e+01, 3.350781153993793e+02
367, -4.999999999963053e-05, 8.300000000001409e-03, 5.005082905891265e-04, -1.320767510722640e-05, 1.695561466109359e+01, 1.565327275529331e+02, 9.331520363290602e+01, 2.330508085363022e+02
368, 4.231098978124681e-16, 8.300000000000474e-03, 5.003196817403057e-04, -1.752991375880223e-05, 1.816645885824247e+01, 2.271605967483267e+01, 8.520914009312290e+01, 1.704789989682837e+02
369, 5.000000000030276e-05, 8.299999999999542e-03, 5.001329999145378e-04, -2.185230817338181e-05, 1.820436716158622e+01, -1.099220410163942e+02, 7.040839830357208e+01, 1.903831575515236e+02
370, 1.000000000002164e-04, 8.299999999998609e-03, 4.999482123064727e-04, -2.617518883211470e-05, 1.689721930523476e+01, -2.410337580157695e+02, 4.895617335752104e+01, 2.758898633531414e+02
371, 1.500000000001233e-04, 8.299999999997672e-03, 4.997652781073761e-04, -3.049888556779934e-05, 1.407285608630299e+01, -3.702711405704014e+02, 2.089644798558540e+01, 3.866095626335514e+02
372, 2.000000000000492e-04, 8.299999999996739e-03, 4.995841485038240e-04, -3.482372753111810e-05, 9.558722708885576e+00, -4.972863445495573e+02, -1.372583046483146e+01, 5.075879390726425e+02
373, -1.999999999999252e-04, 8.200000000004194e-03, 4.924348922762268e-04, 1.154680700503839e-07, 8.639375481667678e+00, 6.171583618981891e+02, 8.345155273968491e+01, 6.309928711546971e+02
374, -1.499999999998408e-04, 8.200000000003217e-03, 4.922401055819592e-04, -4.203417053365894e-06, 1.242755411678024e+01, 4.678525118936724e+02, 9.569569623173945e+01, 4.940066368736288e+02
375, -9.999999999972244e-05, 8.200000000002240e-03, 4.920474974162057e-04, -8.521429005507275e-06, 1.550525898065658e+01, 3.187362899710913e+02, 1.007721364411463e+02, 3.641004697706034e+02
376, -4.999999999964069e-05, 8.200000000001265e-03, 4.918570576964818e-04, -1.283891718273152e-05, 1.769935281894971e+01, 1.701584023353033e+02, 9.872260728871386e+01, 2.494561575486892e+02
377, 4.102892071228270e-16, 8.200000000000287e-03, 4.916687682997328e-04, -1.715623041916511e-05, 1.883683697540550e+01, 2.246779510283206e+01, 8.958890350012454e+01, 1.792145930953772e+02
378, 5.000000000029257e-05, 8.199999999999309e-03, 4.914826030656434e-04, -2.147371695527771e-05, 1.874458368964115e+01, -1.239867715575649e+02, 7.341346908783997e+01, 2.047691127703323e+02
379, 1.000000000002088e-04, 8.199999999998328e-03, 4.912985277993853e-04, -2.579172441457634e-05, 1.724949520042902e+01, -2.688563934101916e+02, 5.023935821722858e+01, 3.032367918871140e+02
380, 1.500000000001190e-04, 8.199999999997352e-03, 4.911165002709662e-04, -3.011059977919109e-05, 1.417827658015050e+01, -4.117920304684159e+02, 2.011027921663484e+01, 4.278649270596200e+02
381, 2.000000000000473e-04, 8.199999999996377e-03, 4.909364702101686e-04, -3.443068936403381e-05, 9.357113596344945e+00, -5.524444848953735e+02, -1.692939865778405e+01, 5.628209788409691e+02
382, -1.999999999999271e-04, 8.100000000004175e-03, 4.837935655264111e-04, 4.666682780005914e-07, 9.277351979863759e+00, 6.755062568698029e+02, 9.007739618451018e+01, 6.901570132400108e+02
383, -1.499999999998452e-04, 8.100000000003150e-03, 4.835985066472523e-04, -3.846845318097414e-06, 1.315839179934944e+01, 5.114636336516991e+02, 1.022840364805315e+02, 5.386614990256230e+02
384, -9.999999999973005e-05, 8.100000000002133e-03, 4.834058374094535e-04, -8.159452411207358e-06, 1.627195739041077e+01, 3.476633156028349e+02, 1.069751574668128e+02, 3.944552820765275e+02
385, -4.999999999965090e-05, 8.100000000001112e-03, 4.832155464155438e-04, -1.247151961696675e-05, 1.844598408841614e+01, 1.844567995318668e+02, 1.041918549106606e+02, 2.664270282142862e+02
386, 3.974685164331859e-16, 8.100000000000092e-03, 4.830276142003882e-04, -1.678341297193306e-05, 1.950645194379039e+01, 2.219346558517451e+01, 9.397611973137302e+01, 1.879714456011083e+02
387, 5.000000000028236e-05, 8.099999999999071e-03, 4.828420132399661e-04, -2.109549791496072e-05, 1.927975108490596e+01, -1.387769162316702e+02, 7.637036426277733e+01, 2.197990906117221e+02
388, 1.000000000002012e-04, 8.099999999998051e-03, 4.826587079526479e-04, -2.540813927003168e-05, 1.759222082106700e+01, -2.981043832595435e+02, 5.141744447417879e+01, 3.320231320451194e+02
389, 1.500000000001146e-04, 8.099999999997031e-03, 4.824776546972945e-04, -2.972170122922275e-05, 1.427004445733515e+01, -4.554386715150553e+02, 1.916066876187930e+01, 4.712693526742871e+02
390, 2.000000000000454e-04, 8.099999999996011e-03, 4.822988017675587e-04, -3.403654733831432e-05, 9.139116804454275e+00, -6.104291186539958e+02, -2.035620898410020e+01, 6.209044204754182e+02
391, -1.999999999999291e-04, 8.000000000004158e-03, 4.751629109924689e-04, 8.148373112760437e-07, 9.923957982707307e+00, 7.366295895030628e+02, 9.692513467874001e+01, 7.521163485880136e+02
392, -1.499999999998495e-04, 8.000000000003093e-03, 4.749675895906440e-04, -3.492783851076633e-06, 1.389522154005419e+01, 5.571490459213592e+02, 1.090416021392582e+02, 5.853930318113624e+02
393, -9.999999999973761e-05, 8.000000000002028e-03, 4.747748789602816e-04, -7.799465832463035e-06, 1.704476419108052e+01, 3.779674183387800e+02, 1.132933619316110e+02, 4.261533828424784e+02
394, -4.999999999966106e-05, 8.000000000000966e-03, 4.745847663556450e-04, -1.210559250276298e-05, 1.919592088217878e+01, 1.994328476218859e+02, 1.097219893941337e+02, 2.839736072014441e+02
395, 3.846478257435448e-16, 7.999999999999901e-03, 4.743972309611330e-04, -1.641154713614962e-05, 2.017560087573669e+01, 2.189639902371659e+01, 9.836940369700112e+01, 1.967463328275279e+02
396, 5.000000000027218e-05, 7.999999999998840e-03, 4.742122438901935e-04, -2.071771240854234e-05, 1.981028789453907e+01, -1.542910168764529e+02, 7.927775539540150e+01, 2.354806028637906e+02
397, 1.000000000001936e-04, 7.999999999997775e-03, 4.740297681839751e-04, -2.502447038666275e-05, 1.792624758422246e+01, -3.287782874041327e+02, 5.248952643273356e+01, 3.622494114860949e+02
398, 1.500000000001103e-04, 7.999999999996709e-03, 4.738497588070319e-04, -2.933220251687652e-05, 1.434954347394667e+01, -5.012139532600332e+02, 1.804755996489502e+01, 5.168254800678025e+02
399, 2.000000000000435e-04, 7.999999999995648e-03, 4.736721626422475e-04, -3.364128961334398e-05, 8.906130931278383e+00, -6.712460652622104e+02, -2.400498457000295e+01, 6.818445329572207e+02
400, -1.999999999999309e-04, 7.900000000004136e-03, 4.665439809994683e-04, 1.159787985949033e-06, 1.064257788601496e+01, 8.005876048303772e+02, 1.039836820165097e+02, 8.168620263526589e+02
401, -1.499999999998538e-04, 7.900000000003030e-03, 4.663484089551062e-04, -3.141395439980157e-06, 1.468602085258783e+01, 6.049562502199083e+02, 1.159592599338626e+02, 6.341964550003298e+02
402, -9.999999999974523e-05, 7.900000000001926e-03, 4.661556786697378e-04, -7.441607682288211e-06, 1.785114843118414e+01, 4.096784845036143e+02, 1.197198459978686e+02, 4.591949775385513e+02
403, -4.999999999967128e-05, 7.900000000000816e-03, 4.659657760995005e-04, -1.174124987295084e-05, 1.996523374547019e+01, 2.151057627095834e+02, 1.153079446383639e+02, 3.020985177575187e+02
404, 3.718271350539037e-16, 7.899999999999709e-03, 4.657786791117085e-04, -1.604072255511986e-05, 2.085356093504303e+01, 2.158841694767926e+01, 1.027651951928493e+02, 2.055317040883401e+02
405, 5.000000000026201e-05, 7.899999999998603e-03, 4.655943574875319e-04, -2.034042567403989e-05, 2.034172030025282e+01, -1.705225115441173e+02, 8.213343261403152e+01, 2.518188992299746e+02
406, 1.000000000001860e-04, 7.899999999997496e-03, 4.654127729188887e-04, -2.464075857453578e-05, 1.825522147539483e+01, -3.608755139016291e+02, 5.345471448665277e+01, 3.939159053794619e+02
407, 1.500000000001060e-04, 7.899999999996389e-03, 4.652338790041791e-04, -2.894211999348515e-05, 1.441935432251678e+01, -5.491186897316567e+02, 1.677140530304471e+01, 5.645354260272419e+02
408, 2.000000000000416e-04, 7.899999999995286e-03, 4.650576212423550e-04, -3.324490804905116e-05, 8.659535003754335e+00, -7.348993990299766e+02, -2.787372205802674e+01, 7.456458045928043e+02
409, -1.999999999999328e-04, 7.800000000004094e-03, 4.579378797130752e-04, 1.501328585340446e-06, 1.133529464745527e+01, 8.673176023138517e+02, 1.112526171464463e+02, 8.844287932477234e+02
410, -1.499999999998583e-04, 7.800000000002947e-03, 4.577420700979072e-04, -2.792847276159336e-06, 1.545860515016778e+01, 6.548411303768346e+02, 1.230338189341218e+02, 6.850980192434409e+02
411, -9.999999999975283e-05, 7.800000000001799e-03, 4.575493433192795e-04, -7.086020634978736e-06, 1.864615184958011e+01, 4.427718710016193e+02, 1.262520566321212e+02, 4.935999927690395e+02
412, -4.999999999968147e-05, 7.800000000000654e-03, 4.573596839999444e-04, -1.137860990964868e-05, 2.072507555660058e+01, 2.314612594029830e+02, 1.209477947784854e+02, 3.208164824775229e+02
413, 3.590064443642627e-16, 7.799999999999507e-03, 4.571730686833008e-04, -1.567103292022057e-05, 2.152172566756058e+01, 2.126082565846650e+01, 1.071623838161237e+02, 2.143249264304822e+02
414, 5.000000000025183e-05, 7.799999999998360e-03, 4.569894658213540e-04, -1.996370690495239e-05, 2.086197124193283e+01, -1.874774354727691e+02, 8.493719941824061e+01, 2.688170749232456e+02
415, 1.000000000001784e-04, 7.799999999997211e-03, 4.568088357669756e-04, -2.425704851445850e-05, 1.857132765902963e+01, -3.944011270677021e+02, 5.431385797913951e+01, 4.270201740402144e+02
416, 1.500000000001016e-04, 7.799999999996065e-03, 4.566311307676640e-04, -2.855147380482163e-05, 1.447500139492796e+01, -5.991574632832312e+02, 1.533422704944550e+01, 6.143983689625226e+02
417, 2.000000000000397e-04, 7.799999999994919e-03, 4.564562949595574e-04, -3.284739823240113e-05, 8.397126723197140e+00, -8.013939103246978e+02, -3.195948984395929e+01, 8.123097682826730e+02
418, -1.999999999999347e-04, 7.700000000003952e-03, 4.493457585526661e-04, 1.839263030851428e-06, 1.205022310129662e+01, 9.368666645430125e+02, 1.187323129593054e+02, 9.548166834128865e+02
419, -1.499999999998626e-04, 7.700000000002785e-03, 4.491497264136058e-04, -2.447310779538124e-06, 1.624158193770839e+01, 7.068353530009866e+02, 1.302685078065695e+02, 7.381052046531041e+02
420, -9.999999999976044e-05, 7.700000000001617e-03, 4.489570281642717e-04, -6.732851533096959e-06, 1.944356848944714e+01, 4.772668282592574e+02, 1.328918625172568e+02, 5.293799445383977e+02
421, -4.999999999969162e-05, 7.700000000000449e-03, 4.487676471347739e-04, -1.101779487677727e-05, 2.148143421830808e+01, 2.485107374231689e+02, 1.266430734799102e+02, 3.401414069992601e+02
422, 3.461857536746216e-16, 7.699999999999279e-03, 4.485815585700760e-04, -1.530257592005174e-05, 2.218168963415739e+01, 2.091951386071361e+01, 1.115624367494835e+02, 2.231284434168202e+02
423, 5.000000000024164e-05, 7.699999999998113e-03, 4.483987296125312e-04, -1.958762921333940e-05, 2.136989990397952e+01, -2.051542279802604e+02, 8.769067446102731e+01, 2.864817586923031e+02
424, 1.000000000001708e-04, 7.699999999996944e-03, 4.482191192917775e-04, -2.387338873812427e-05, 1.887118068802648e+01, -4.293574639153793e+02, 5.506884700364729e+01, 4.615617287906902e+02
425, 1.500000000000973e-04, 7.699999999995776e-03, 4.480426785179306e-04, -2.816028789603252e-05, 1.451034894762972e+01, -6.513367790760876e+02, 1.373835162182497e+01, 6.664138107201652e+02
426, 2.000000000000377e-04, 7.699999999994609e-03, 4.478693500772360e-04, -3.244875949886420e-05, 8.112165794853176e+00, -8.707382148541437e+02, -3.625937029542143e+01, 8.818372635037423e+02
427, -1.999999999999367e-04, 7.600000000003967e-03, 4.407688184462281e-04, 2.173391665853460e-06, 1.278059387538349e+01, 1.009235155368453e+03, 1.264192535022281e+02, 1.028031616121113e+03
428, -1.499999999998669e-04, 7.600000000002791e-03, 4.405725805827564e-04, -2.104961208878015e-06, 1.703392962896537e+01, 7.609452598316273e+02, 1.376595997749106e+02, 7.932242613817659e+02
429, -9.999999999976803e-05, 7.600000000001615e-03, 4.403799376408854e-04, -6.382251082321019e-06, 2.024199698303597e+01, 5.131679439676624e+02, 1.396383895406370e+02, 5.665434745407466e+02
430, -4.999999999970180e-05, 7.600000000000435e-03, 4.401908717148921e-04, -1.065893088870125e-05, 2.223390290743926e+01, 2.662580028637974e+02, 1.323942988782701e+02, 3.600843829734713e+02
431, 3.333650629849805e-16, 7.599999999999259e-03, 4.400053567852729e-04, -1.493545305236209e-05, 2.283458467437339e+01, 2.056772108558565e+01, 1.159668655656548e+02, 2.319448087520409e+02
432, 5.000000000023146e-05, 7.599999999998081e-03, 4.398233587105580e-04, -1.921226946712234e-05, 2.186883967597549e+01, -2.235498366067063e+02, 9.039613475154097e+01, 3.048215402172536e+02
433, 1.000000000001632e-04, 7.599999999996904e-03, 4.396448352196711e-04, -2.348983147642294e-05, 1.916119278726282e+01, -4.657410809049242e+02, 5.572261253993332e+01, 4.975442223812420e+02
434, 1.500000000000929e-04, 7.599999999995727e-03, 4.394697359065092e-04, -2.776858985673621e-05, 1.453607631103088e+01, -7.056518529049158e+02, 1.198722299069158e+01, 7.205868632222403e+02
435, 2.000000000000358e-04, 7.599999999994550e-03, 4.392980022272304e-04, -3.204899480328800e-05, 7.818650724191173e+00, -9.429269968172571e+02, -4.076854835625411e+01, 9.542356021755386e+02
436, -1.999999999999386e-04, 7.500000000004145e-03, 4.322083097755327e-04, 2.503510641512667e-06, 1.349104708250537e+01, 1.084399932162724e+03, 1.343143460978022e+02, 1.104086597334864e+03
437, -1.499999999998712e-04, 7.500000000002950e-03, 4.320118845150655e-04, -1.765977782014479e-06, 1.780544803149725e+01, 8.171488188840069e+02, 1.452102281678563e+02, 8.504668517844162e+02
438, -9.999999999977570e-05, 7.500000000001755e-03, 4.318193253092726e-04, -6.034373854704838e-06, 2.102495564582826e+01, 5.504636125220966e+02, 1.464944054336541e+02, 6.051014251250662e+02
439, -4.999999999971198e-05, 7.500000000000564e-03, 4.316306130154137e-04, -1.030214784240486e-05, 2.297303451007861e+01, 2.846964082242317e+02, 1.382043904415454e+02, 3.806585589443573e+02
440, 3.205443722953394e-16, 7.499999999999370e-03, 4.314457203593251e-04, -1.456976952701007e-05, 2.347498304660616e+01, 2.020120534111005e+01, 1.203790039414856e+02, 2.407802649309985e+02
441, 5.000000000022125e-05, 7.499999999998177e-03, 4.312646119292351e-04, -1.883770817833357e-05, 2.235558153520937e+01, -2.426677886495443e+02, 9.305763964323401e+01, 3.238460806123257e+02
442, 1.000000000001556e-04, 7.499999999996980e-03, 4.310872441701710e-04, -2.310643253345451e-05, 1.943928440681643e+01, -5.035559148374575e+02, 5.628018499103469e+01, 5.349708546482306e+02
443, 1.500000000000885e-04, 7.499999999995787e-03, 4.309135653776219e-04, -2.737641077791425e-05, 1.455024568681129e+01, -7.621080416430128e+02, 1.008705719214612e+01, 7.769202598525067e+02
444, 2.000000000000339e-04, 7.499999999994593e-03, 4.307435156921133e-04, -3.164811052219856e-05, 7.511970952103013e+00, -1.017968904063267e+03, -4.548066648870941e+01, 1.029507158362348e+03
445, -1.999999999999404e-04, 7.400000000004559e-03, 4.236655304338611e-04, 2.829412773124899e-06, 1.425501963224079e+01, 1.162421497689538e+03, 1.424090307699267e+02, 1.182965591010076e+03
446, -1.499999999998756e-04, 7.400000000003323e-03, 4.234689383094528e-04, -1.430543141493419e-06, 1.861328323943400e+01, 8.754925555923069e+02, 1.529153407386290e+02, 9.098211324874978e+02
447, -9.999999999978329e-05, 7.400000000002085e-03, 4.232764933138726e-04, -5.689377890744609e-06, 2.182752872931073e+01, 5.891822799490244e+02, 1.534567584018830e+02, 6.450483086780700e+02
448, -4.999999999972218e-05, 7.400000000000849e-03, 4.230881751232101e-04, -9.947579142855088e-06, 2.372012134203580e+01, 3.038432860551638e+02, 1.440717878435381e+02, 4.018652854112085e+02
449, 3.077507866600104e-16, 7.399999999999613e-03, 4.229039552509422e-04, -1.420563408416298e-05, 2.411472375901813e+01, 1.982953194195136e+01, 1.247987548213263e+02, 2.496342918926065e+02
450, 5.000000000021107e-05, 7.399999999998373e-03, 4.227237970517772e-04, -1.846402939885031e-05, 2.283520258098592e+01, -2.625043191913032e+02, 9.567644038785681e+01, 3.435615922457037e+02
451, 1.000000000001480e-04, 7.399999999997137e-03, 4.225476557180806e-04, -2.272325125361682e-05, 1.970519661459630e+01, -5.428030709081659e+02, 5.674406171623973e+01, 5.738424044907147e+02
452, 1.500000000000842e-04, 7.399999999995899e-03, 4.223754782735552e-04, -2.698378528183607e-05, 1.454785034958985e+01, -8.207110857690325e+02, 8.041297315626661e+00, 8.354137539064617e+02
453, 2.000000000000320e-04, 7.399999999994663e-03, 4.222072035629021e-04, -3.124611656769344e-05, 7.185521390078165e+00, -1.095872309093495e+03, -5.039165258313344e+01, 1.107652405762460e+03
454, -1.999999999999424e-04, 7.300000000004963e-03, 4.151418298706236e-04, 3.150887222946183e-06, 1.502337083459945e+01, 1.243270997494621e+03, 1.506946341937736e+02, 1.264684831685411e+03
455, -1.499999999998800e-04, 7.300000000003675e-03, 4.149450928478173e-04, -1.098843494277355e-06, 1.942721353299113e+01, 9.359597420322373e+02, 1.607653439044772e+02, 9.712949392435444e+02
456, -9.999999999979085e-05, 7.300000000002383e-03, 4.147527940964126e-04, -5.347424764828991e-06, 2.263279141505258e+01, 6.293156674758766e+02, 1.605184148865125e+02, 6.863881978706710e+02
457, -4.999999999973237e-05, 7.300000000001096e-03, 4.145649121067290e-04, -9.595361716696913e-06, 2.446528976122833e+01, 3.236943866363864e+02, 1.499917077324054e+02, 4.237075665723426e+02
458, 2.949029909160572e-16, 7.299999999999806e-03, 4.143814171971029e-04, -1.384315898023221e-05, 2.474817793725514e+01, 1.945054740536760e+01, 1.292232854907305e+02, 2.585008606200910e+02
459, 5.000000000020089e-05, 7.299999999998517e-03, 4.142022715122879e-04, -1.809132069144832e-05, 2.330479916192837e+01, -2.830606233427266e+02, 9.825137434962184e+01, 3.639685458289134e+02
460, 1.000000000001404e-04, 7.299999999997227e-03, 4.140274290191623e-04, -2.234035048340447e-05, 1.995824358678711e+01, -5.834832845312957e+02, 5.711450253748551e+01, 6.141579141050814e+02
461, 1.500000000000799e-04, 7.299999999995936e-03, 4.138568354994241e-04, -2.659075147644577e-05, 1.453128210113387e+01, -8.814608873301207e+02, 5.851521930602150e+00, 8.960685961006241e+02
462, 2.000000000000302e-04, 7.299999999994650e-03, 4.136904285401340e-04, -3.084302627047644e-05, 6.846050111203297e+00, -1.176636300838962e+03, -5.549845158625951e+01, 1.188676065008638e+03
463, -1.999999999999443e-04, 7.200000000005343e-03, 4.066386072368506e-04, 3.467719080746639e-06, 1.579329719658200e+01, 1.326956095706499e+03, 1.591694420409316e+02, 1.349254434610034e+03
464, -1.499999999998843e-04, 7.200000000003976e-03, 4.064417488042863e-04, -7.710688823791125e-07, 2.023816676954780e+01, 9.985513367128881e+02, 1.687582483054671e+02, 1.034898083856138e+03
465, -9.999999999979844e-05, 7.200000000002606e-03, 4.062496298843947e-04, -5.008679750261408e-06, 2.343354219089831e+01, 6.708645953178722e+02, 1.676766439083009e+02, 7.291287926028619e+02
466, -4.999999999974257e-05, 7.200000000001237e-03, 4.060622277826421e-04, -9.245636092282134e-06, 2.520335664791382e+01, 3.442504258608398e+02, 1.559618267104317e+02, 4.461921087791406e+02
467, 2.821094052807283e-16, 7.199999999999870e-03, 4.058795116339507e-04, -1.348246000167567e-05, 2.537162554922563e+01, 1.906440984795697e+01, 1.336511431308938e+02, 2.673766878594337e+02
468, 5.000000000019069e-05, 7.199999999998501e-03, 4.057014423937597e-04, -1.771967309021308e-05, 2.376167828698178e+01, -3.043375322977881e+02, 1.007821077322335e+02, 3.850678186269988e+02
469, 1.000000000001328e-04, 7.199999999997132e-03, 4.055279728299250e-04, -2.195779648494307e-05, 2.019635626438412e+01, -6.255988996243948e+02, 5.739243818944354e+01, 6.559169767384967e+02
470, 1.500000000000756e-04, 7.199999999995762e-03, 4.053590475134679e-04, -2.619735082272104e-05, 1.449801385533858e+01, -9.443625437687448e+02, 3.520115662647623e+00, 9.588864029822728e+02
471, 2.000000000000282e-04, 7.199999999994395e-03, 4.051946028084322e-04, -3.043885624219265e-05, 6.489128983625491e+00, -1.260270098692903e+03, -6.079665100745601e+01, 1.272581577738152e+03
472, -1.999999999999461e-04, 7.100000000005715e-03, 3.981573110158582e-04, 3.779690104494442e-06, 1.659233562266751e+01, 1.413504030012681e+03, 1.678258499083224e+02, 1.436671272599749e+03
473, -1.499999999998886e-04, 7.100000000004259e-03, 3.979603563969911e-04, -4.474128063181872e-07, 2.106543407648554e+01, 1.063289069282815e+03, 1.768882481616221e+02, 1.100630689710879e+03
474, -9.999999999980600e-05, 7.100000000002804e-03, 3.977684525560073e-04, -4.673311577707121e-06, 2.424021214415238e+01, 7.138431768661796e+02, 1.749272373485205e+02, 7.732725279091145e+02
475, -4.999999999975274e-05, 7.100000000001348e-03, 3.975815756589346e-04, -8.898546231542642e-06, 2.594041834405385e+01, 3.655209846986994e+02, 1.619793272298994e+02, 4.693230985633939e+02
476, 2.692616095367750e-16, 7.099999999999895e-03, 3.973996936942151e-04, -1.312365633096708e-05, 2.598943566438234e+01, 1.867789671925763e+01, 1.380810313760796e+02, 2.762588342574289e+02
477, 5.000000000018050e-05, 7.099999999998441e-03, 3.972227664648071e-04, -1.734918097925280e-05, 2.421035083142675e+01, -3.263298079807515e+02, 1.032689991594655e+02, 4.068615829611563e+02
478, 1.000000000001252e-04, 7.099999999996985e-03, 3.970507455785316e-04, -2.157565881693719e-05, 2.042577652321373e+01, -6.691451399211297e+02, 5.758006001235801e+01, 6.991208064776778e+02
479, 1.500000000000712e-04, 7.099999999995530e-03, 3.968835744384858e-04, -2.580362801768492e-05, 1.445787483574287e+01, -1.009410349607526e+03, 1.051246684078862e+00, 1.023870383155493e+03
480, 2.000000000000263e-04, 7.099999999994075e-03, 3.967211882326564e-04, -3.003362628474234e-05, 6.128120215840170e+00, -1.346767128911337e+03, -6.627998753574437e+01, 1.359374011117559e+03
481, -1.999999999999481e-04, 7.000000000006086e-03, 3.896994404522801e-04, 4.086578577710823e-06, 1.738524549688884e+01, 1.502893609499067e+03, 1.766572873037314e+02, 1.526946720796269e+03
482, -1.499999999998929e-04, 7.000000000004546e-03, 3.895024162232293e-04, -1.280721998544971e-07, 2.188558217835504e+01, 1.130160733459642e+03, 1.851499984956774e+02, 1.168501561282379e+03
483, -9.999999999981362e-05, 7.000000000003004e-03, 3.893107641232761e-04, -4.341492391733098e-06, 2.503751444976899e+01, 7.582451545488935e+02, 1.822664033828667e+02, 8.188269723868596e+02
484, -4.999999999976293e-05, 7.000000000001462e-03, 3.891244591994766e-04, -8.554239473529599e-06, 2.666528379825547e+01, 3.875020376780227e+02, 1.680419649194271e+02, 4.931080721773022e+02
485, 2.564544713742900e-16, 6.999999999999921e-03, 3.889434683215428e-04, -1.276687048598189e-05, 2.659252701980419e+01, 1.828741112765827e+01, 1.425122597491025e+02, 2.851454921003742e+02
486, 5.000000000017032e-05, 6.999999999998381e-03, 3.887677501685411e-04, -1.697994203518533e-05, 2.464213946312331e+01, -3.490421047769037e+02, 1.057130031053424e+02, 4.293493571620210e+02
487, 1.000000000001176e-04, 6.999999999996837e-03, 3.885972552184370e-04, -2.119401028865453e-05, 2.063648825834272e+01, -7.141291352994629e+02, 5.768008870030519e+01, 7.437664230739321e+02
488, 1.500000000000668e-04, 6.999999999995296e-03, 3.884319257374422e-04, -2.540963097232930e-05, 1.439739616537429e+01, -1.076615557053830e+03, -1.550394138312591e+00, 1.091017359614423e+03
489, 2.000000000000244e-04, 6.999999999993755e-03, 3.882716957690279e-04, -2.962735936661945e-05, 5.745649903282313e+00, -1.436142814895662e+03, -7.194230619450079e+01, 1.449049732273737e+03
490, -1.999999999999499e-04, 6.900000000006458e-03, 3.812665442123778e-04, 4.388159452481571e-06, 1.818900586938014e+01, 1.595144726651672e+03, 1.856583637308124e+02, 1.620081929224818e+03
491, -1.499999999998973e-04, 6.900000000004828e-03, 3.810694784828686e-04, 1.867526889751867e-07, 2.270703844261669e+01, 1.199179041711813e+03, 1.935394904625395e+02, 1.238513831957574e+03
492, -9.999999999982122e-05, 6.900000000003202e-03, 3.808781162863707e-04, -4.013397625394136e-06, 2.582915764163641e+01, 8.040785655695001e+02, 1.896913411792792e+02, 8.657963736431594e+02
493, -4.999999999977310e-05, 6.900000000001573e-03, 3.806924315978982e-04, -8.212866417180587e-06, 2.737990629267445e+01, 4.101992700491355e+02, 1.741482155356031e+02, 5.175529626655048e+02
494, 2.436337806846489e-16, 6.899999999999946e-03, 3.805123902057620e-04, -1.241222821524988e-05, 2.718227963512955e+01, 1.789707896634540e+01, 1.469446022950599e+02, 2.940358473487083e+02
495, 5.000000000016015e-05, 6.899999999998319e-03, 3.803379497021246e-04, -1.661205713891717e-05, 2.505881885071474e+01, -3.724712121684446e+02, 1.081152072514009e+02, 4.525325598430982e+02
496, 1.000000000001100e-04, 6.899999999996692e-03, 3.801690594720764e-04, -2.081292689498747e-05, 2.083155575438549e+01, -7.605479563140063e+02, 5.769490463389596e+01, 7.898536256567386e+02
497, 1.500000000000625e-04, 6.899999999995065e-03, 3.800056606826846e-04, -2.501541077435683e-05, 1.432199467188892e+01, -1.145974675552370e+03, -4.281262443410490e+00, 1.160328263796906e+03
498, 2.000000000000225e-04, 6.899999999993437e-03, 3.798476862718956e-04, -2.922008165113979e-05, 5.351717543547906e+00, -1.528391587597834e+03, -7.777808936957705e+01, 1.541611575854935e+03
499, -1.999999999999519e-04, 6.800000000006828e-03, 3.728602211404993e-04, 4.684204570803895e-06, 1.898809412067581e+01, 1.690248164910116e+03, 1.948229620265577e+02, 1.716081050051637e+03
500, -1.499999999999017e-04, 6.800000000005111e-03, 3.726631433887221e-04, 4.968584920756583e-07, 2.351908895964641e+01, 1.270338294404222e+03, 2.020523503397780e+02, 1.310671102976165e+03
501, -9.999999999982880e-05, 6.800000000003401e-03, 3.724721106605265e-04, -3.689205807941847e-06, 2.660935843970415e+01, 8.513415995840228e+02, 1.971993168236900e+02, 9.141846376995464e+02
502, -4.999999999978328e-05, 6.800000000001686e-03, 3.722870958873780e-04, -7.874580736137110e-06, 2.808120243449916e+01, 4.336126796305020e+02, 1.802968927158643e+02, 5.426634842043047e+02
503, 2.308130899950078e-16, 6.799999999999972e-03, 3.721080638123406e-04, -1.205985831507930e-05, 2.775761033218863e+01, 1.750778359124133e+01, 1.513785598369539e+02, 3.029305736657499e+02
504, 5.000000000014997e-05, 6.799999999998255e-03, 3.719349709797499e-04, -1.624563018586382e-05, 2.546113281901179e+01, -3.966158359168365e+02, 1.104779061963003e+02, 4.764141460612987e+02
505, 1.000000000001024e-04, 6.799999999996542e-03, 3.717677657232633e-04, -2.043248760466762e-05, 2.101374970749276e+01, -8.084000320538385e+02, 5.762869994484964e+01, 8.373837170646245e+02
506, 1.500000000000582e-04, 6.799999999994830e-03, 3.716063881538458e-04, -2.462102143922809e-05, 1.423695664948872e+01, -1.217485716888161e+03, -7.135076885048669e+00, 1.231805334375265e+03
507, 2.000000000000206e-04, 6.799999999993115e-03, 3.714507701493461e-04, -2.881182216344505e-05, 4.951676145482239e+00, -1.623513051767303e+03, -8.377912553970918e+01, 1.637062349930770e+03
508, -1.999999999999538e-04, 6.700000000007203e-03, 3.644821196323487e-04, 4.974482877643012e-06, 1.979970771865041e+01, 1.788220803433307e+03, 2.041418099440590e+02, 1.814940408398461e+03
509, -1.499999999999060e-04, 6.700000000005407e-03, 3.642850608400258e-04, 8.020389725709253e-07, 2.433610606653826e+01, 1.343653172456588e+03, 2.106821263594614e+02, 1.384971247043570e+03
510, -9.999999999983645e-05, 6.700000000003612e-03, 3.640943985901446e-04, -3.369098363967299e-06, 2.738632299075650e+01, 9.000441277718523e+02, 2.047858943014133e+02, 9.639920613079132e+02
511, -4.999999999979346e-05, 6.700000000001816e-03, 3.639101048211136e-04, -7.539539007753344e-06, 2.877322875912864e+01, 4.577484883011624e+02, 1.864858348313465e+02, 5.684431718915552e+02
512, 2.179923993053667e-16, 6.700000000000018e-03, 3.637321432821755e-04, -1.170989248270722e-05, 2.831978910442834e+01, 1.712287645050544e+01, 1.558141904705420e+02, 3.118294704817698e+02
513, 5.000000000013978e-05, 6.699999999998221e-03, 3.635604695190457e-04, -1.588076796007134e-05, 2.584827380054364e+01, -4.214751595096812e+02, 1.128033535727799e+02, 5.009956489806170e+02
514, 1.000000000000948e-04, 6.699999999996424e-03, 3.633950308603714e-04, -2.005277425659938e-05, 2.118031109810396e+01, -8.576871368476918e+02, 5.748591411615367e+01, 8.863557481879583e+02
515, 1.500000000000538e-04, 6.699999999994629e-03, 3.632357664048430e-04, -2.422651983006714e-05, 1.413683731322341e+01, -1.291153717684770e+03, -1.010528267419803e+01, 1.305447011532322e+03
516, 2.000000000000187e-04, 6.699999999992831e-03, 3.630826070080305e-04, -2.840261277231547e-05, 4.538060901743890e+00, -1.721514708847876e+03, -8.993711120819523e+01, 1.735399925046165e+03
517, -1.999999999999557e-04, 6.600000000007607e-03, 3.561339388260828e-04, 5.258760535399034e-06, 2.061489390383377e+01, 1.889063401307659e+03, 2.136052661761789e+02, 1.916666028230367e+03
518, -1.499999999999103e-04, 6.600000000005753e-03, 3.559369311798285e-04, 1.102085055573025e-06, 2.514969012521334e+01, 1.419124711311294e+03, 2.194201370406333e+02, 1.461419565301647e+03
519, -9.999999999984406e-05, 6.600000000003900e-03, 3.557466816380962e-04, -3.053259552815603e-06, 2.815320569565068e+01, 9.501870045359323e+02, 2.124455524979854e+02, 1.015223511010525e+03
520, -4.999999999980367e-05, 6.600000000002050e-03, 3.555631612009173e-04, -7.207900638341384e-06, 2.945082623014764e+01, 4.826075481909983e+02, 1.927122258727503e+02, 5.948974892043364e+02
521, 2.051717086157256e-16, 6.600000000000198e-03, 3.553863326741013e-04, -1.136246523280012e-05, 2.886510528564887e+01, 1.674308930739583e+01, 1.602511348084564e+02, 3.207314267435750e+02
522, 5.000000000012958e-05, 6.599999999998345e-03, 3.552161506524265e-04, -1.551758005067357e-05, 2.621783552898243e+01, -4.470486279387826e+02, 1.150934367468926e+02, 5.262766783471685e+02
523, 1.000000000000872e-04, 6.599999999996491e-03, 3.550525615056203e-04, -1.967387148398943e-05, 2.133016679168260e+01, -9.084088435978521e+02, 5.727051818655460e+01, 9.367679949985146e+02
524, 1.500000000000495e-04, 6.599999999994639e-03, 3.548955033649909e-04, -2.383196559725454e-05, 1.402264008727968e+01, -1.366977763788448e+03, -1.318600258875276e+01, 1.381252184853297e+03
525, 2.000000000000168e-04, 6.599999999992787e-03, 3.547449061099323e-04, -2.799248812436358e-05, 4.114995142818771e+00, -1.822394722974713e+03, -9.624423435410159e+01, 1.836624501895642e+03
526, -1.999999999999576e-04, 6.500000000008018e-03, 3.478174282456597e-04, 5.536800672878546e-06, 2.140586642260291e+01, 1.992760992413594e+03, 2.232079766757678e+02, 2.021268966807168e+03
527, -1.499999999999147e-04, 6.500000000006126e-03, 3.476205049436783e-04, 1.396784748057798e-06, 2.593583267708988e+01, 1.496739633119973e+03, 2.282636590729410e+02, 1.540026302246394e+03
528, -9.999999999985163e-05, 6.500000000004228e-03, 3.474307114198707e-04, -2.741876471674131e-06, 2.889402749535213e+01, 1.001762345964452e+03, 2.201766319674704e+02, 1.067887523168545e+03
529, -4.999999999981387e-05, 6.500000000002332e-03, 3.472480177724521e-04, -6.879827803829260e-06, 3.010337988683239e+01, 5.081851668176924e+02, 1.989757894520526e+02, 6.220350907684183e+02
530, 1.923510179260846e-16, 6.500000000000438e-03, 3.470723858994263e-04, -1.101771379891498e-05, 2.938644271906509e+01, 1.636541923214007e+01, 1.646906817721732e+02, 3.296386350277831e+02
531, 5.000000000011942e-05, 6.499999999998543e-03, 3.469037694829835e-04, -1.515617872575898e-05, 2.656490849343231e+01, -4.733386656453016e+02, 1.173511556814633e+02, 5.522578730953329e+02
532, 1.000000000000796e-04, 6.499999999996646e-03, 3.467421139748262e-04, -1.929586656517531e-05, 2.145973730624260e+01, -9.605678290079821e+02, 5.698729419357728e+01, 9.886194150425433e+02
533, 1.500000000000451e-04, 6.499999999994751e-03, 3.465873565814922e-04, -2.343742100474169e-05, 1.389118926296437e+01, -1.444961766628521e+03, -1.637056252612680e+01, 1.459220315162522e+03
534, 2.000000000000149e-04, 6.499999999992855e-03, 3.464394262501674e-04, -2.758148543223244e-05, 3.679058222191685e+00, -1.926158934628857e+03, -1.026918925995906e+02, 1.940736246344183e+03
535, -1.999999999999595e-04, 6.400000000008258e-03, 3.395343863629626e-04, 5.808364022205114e-06, 2.220257268225669e+01, 2.099338018961495e+03, 2.329422276501579e+02, 2.128741409349695e+03
536, -1.499999999999190e-04, 6.400000000006336e-03, 3.393375819706202e-04, 1.685923599579445e-06, 2.671813006426217e+01, 1.576517575341855e+03, 2.372078296461110e+02, 1.620786395045445e+03
537, -9.999999999985919e-05, 6.400000000004416e-03, 3.391482890677292e-04, -2.435138683562424e-06, 2.962368545079974e+01, 1.054783148647476e+03, 2.279762241677630e+02, 1.121982424160405e+03
538, -4.999999999982406e-05, 6.400000000002495e-03, 3.389664769121533e-04, -6.555485148590768e-06, 3.074049670713069e+01, 5.344901766025588e+02, 2.052754638537177e+02, 6.498582955046293e+02
539, 1.795438797635995e-16, 6.400000000000575e-03, 3.387921065502938e-04, -1.067577787674333e-05, 2.989042964050731e+01, 1.599598911549731e+01, 1.691337484041895e+02, 3.385527357362657e+02
540, 5.000000000010922e-05, 6.399999999998654e-03, 3.386251308066531e-04, -1.479667870249736e-05, 2.689491221844565e+01, -5.003408007576226e+02, 1.195795086312425e+02, 5.789425986877634e+02
541, 1.000000000000720e-04, 6.399999999996736e-03, 3.384654942693621e-04, -1.891884920809656e-05, 2.157465982502242e+01, -1.014160473448603e+03, 5.664141442118972e+01, 1.041911831974216e+03
542, 1.500000000000408e-04, 6.399999999994814e-03, 3.383131332751326e-04, -2.304295071816134e-05, 1.374964654126916e+01, -1.525102207864375e+03, -1.965161423434122e+01, 1.539353686965978e+03
543, 2.000000000000129e-04, 6.399999999992895e-03, 3.381679758938296e-04, -2.716964429510298e-05, 3.239237354647528e+00, -2.032804000665750e+03, -1.092702579232124e+02, 2.047738270423007e+03
544, -1.999999999999615e-04, 6.300000000008254e-03, 3.312866622935556e-04, 6.073209156326609e-06, 2.300031528534498e+01, 2.208793229154036e+03, 2.427954383064534e+02, 2.239082214160140e+03
545, -1.499999999999234e-04, 6.300000000006307e-03, 3.310900124883298e-04, 1.969284996697409e-06, 2.749653326248344e+01, 1.658460598422343e+03, 2.462423718895475e+02, 1.703697451045207e+03
546, -9.999999999986685e-05, 6.300000000004357e-03, 3.309012659205644e-04, -2.133237959125544e-06, 3.034312137819313e+01, 1.109252202604199e+03, 2.358373891501441e+02, 1.177506646281272e+03
547, -4.999999999983422e-05, 6.300000000002410e-03, 3.307203910580345e-04, -6.235039554101960e-06, 3.136267980376437e+01, 5.615247467039634e+02, 2.116074957496326e+02, 6.783677072278825e+02
548, 1.667096365468024e-16, 6.300000000000461e-03, 3.305473481545267e-04, -1.033679941435607e-05, 3.037698813523730e+01, 1.563601312552143e+01, 1.735795563190686e+02, 3.474719353155530e+02
549, 5.000000000009904e-05, 6.299999999998514e-03, 3.303820892353410e-04, -1.443919695296524e-05, 2.720709815135189e+01, -5.280550815295211e+02, 1.217805664823083e+02, 6.063316861874874e+02
550, 1.000000000000644e-04, 6.299999999996569e-03, 3.302245580825448e-04, -1.854291136698461e-05, 2.167333217457363e+01, -1.069188456719110e+03, 5.623773390431786e+01, 1.096644962295044e+03
551, 1.500000000000364e-04, 6.299999999994618e-03, 3.300746902194416e-04, -2.264862163357329e-05, 1.359526273281045e+01, -1.607402853198279e+03, -2.302148205994223e+01, 1.621651888167460e+03
552, 2.000000000000111e-04, 6.299999999992672e-03, 3.299324128945981e-04, -2.675700650454917e-05, 2.791299204965355e+00, -2.142336123543490e+03, -1.159693891106707e+02, 2.157630009216186e+03
553, -1.999999999999633e-04, 6.200000000008235e-03, 3.230761559435180e-04, 6.331092359589947e-06, 2.379383955981345e+01, 2.321130343619570e+03, 2.527560849770416e+02, 2.352296232802576e+03
554, -1.499999999999277e-04, 6.200000000006244e-03, 3.228796973051481e-04, 2.246650095329327e-06, 2.826348139947163e+01, 1.742569476370186e+03, 2.553578608916135e+02, 1.788763705151995e+03
555, -9.999999999987445e-05, 6.200000000004252e-03, 3.226915437047586e-04, -1.836368265245135e-06, 3.104617636069648e+01, 1.165169904205305e+03, 2.437534500032511e+02, 1.234463287268642e+03
556, -4.999999999984441e-05, 6.200000000002263e-03, 3.225116628744730e-04, -5.918660076437189e-06, 3.196542767290160e+01, 5.892892774564709e+02, 2.179680702862547e+02, 7.075663871290335e+02
557, 1.538618408028491e-16, 6.200000000000271e-03, 3.223400143298647e-04, -1.000092251887020e-05, 3.084282774533150e+01, 1.528565266083046e+01, 1.780270802669412e+02, 3.563938705001778e+02
558, 5.000000000008886e-05, 6.199999999998280e-03, 3.221765493527574e-04, -1.408385259650453e-05, 2.749903288501886e+01, -5.564818428786891e+02, 1.239559992854559e+02, 6.344241659120270e+02
559, 1.000000000000568e-04, 6.199999999996288e-03, 3.220212109754764e-04, -1.816814713478103e-05, 2.175390805729245e+01, -1.125652874998003e+03, 5.578052537677017e+01, 1.152817502402933e+03
560, 1.500000000000321e-04, 6.199999999994299e-03, 3.218739339646633e-04, -2.225450277804393e-05, 1.342649542497301e+01, -1.691865889724327e+03, -2.647344049238108e+01, 1.706114149479514e+03
561, 2.000000000000091e-04, 6.199999999992307e-03, 3.217346448039345e-04, -2.634361598763357e-05, 2.335255774055696e+00, -2.254757854253673e+03, -1.227797984736271e+02, 2.270411597703717e+03
562, -1.999999999999653e-04, 6.100000000008216e-03, 3.149048177099824e-04, 6.581767729546335e-06, 2.456839250810964e+01, 2.436343311813724e+03, 2.628152965080045e+02, 2.468389309186451e+03
563, -1.499999999999321e-04, 6.100000000006179e-03, 3.147085876013733e-04, 2.517797895033783e-06, 2.900678936133170e+01, 1.828839711033282e+03, 2.645479239460201e+02, 1.875990661541465e+03
564, -9.999999999988203e-05, 6.100000000004146e-03, 3.145210744133853e-04, -1.544725663520409e-06, 3.172445736504031e+01, 1.222533954181335e+03, 2.517200175252341e+02, 1.292856962931125e+03
565, -4.999999999985460e-05, 6.100000000002112e-03, 3.143422451931810e-04, -5.606517817213350e-06, 3.254345956319648e+01, 6.177830387981489e+02, 2.243549249021535e+02, 7.374590798237607e+02
566, 1.410275975860520e-16, 6.100000000000079e-03, 3.141720587682883e-04, -9.668293304982628e-06, 3.128520494404950e+01, 1.494519568366127e+01, 1.824764226893013e+02, 3.653184573116554e+02
567, 5.000000000007866e-05, 6.099999999998046e-03, 3.140104657311691e-04, -1.373076672854774e-05, 2.777028610236619e+01, -5.856200963405729e+02, 1.261084455174100e+02, 6.632202661233788e+02
568, 1.000000000000492e-04, 6.099999999996011e-03, 3.138574084225817e-04, -1.779465255081244e-05, 2.181845247474951e+01, -1.183552078910076e+03, 5.527507895891392e+01, 1.210429450792813e+03
569, 1.500000000000277e-04, 6.099999999993980e-03, 3.137128209141680e-04, -2.186066509490616e-05, 1.324863047522996e+01, -1.778488661178128e+03, -2.999941601206766e+01, 1.792741582645299e+03
570, 2.000000000000072e-04, 6.099999999991945e-03, 3.135766289908583e-04, -2.592951854278019e-05, 1.878920402954293e+00, -2.370066427731237e+03, -1.296905304143990e+02, 2.386085344083925e+03
571, -1.999999999999672e-04, 6.000000000008407e-03, 3.067746477962574e-04, 6.824987614041225e-06, 2.533777208770951e+01, 2.554444739280089e+03, 2.729620760025200e+02, 2.587356804007414e+03
572, -1.499999999999365e-04, 6.000000000006308e-03, 3.065786844945548e-04, 2.782505632609166e-06, 2.973740091322648e+01, 1.917281849659183e+03, 2.738047110613037e+02, 1.965375314078492e+03
573, -9.999999999988962e-05, 6.000000000004209e-03, 3.063918600326150e-04, -1.258507990450254e-06, 3.238462252861447e+01, 1.281351920678856e+03, 2.597317035912480e+02, 1.352686786824785e+03
574, -4.999999999986476e-05, 6.000000000002106e-03, 3.062141408341401e-04, -5.298785653948135e-06, 3.310030671808539e+01, 6.470111273660493e+02, 2.307652551496505e+02, 7.680474644485128e+02
575, 1.282204594235670e-16, 6.000000000000007e-03, 3.060454851019903e-04, -9.339059657381613e-06, 3.170558749834561e+01, 1.461770079674574e+01, 1.869275114412762e+02, 3.742453393249414e+02
576, 5.000000000006848e-05, 5.999999999997906e-03, 3.058858428035280e-04, -1.338006220256603e-05, 2.802090496180631e+01, -6.154686560361549e+02, 1.282407013678577e+02, 6.927203801409549e+02
577, 1.000000000000416e-04, 5.999999999995806e-03, 3.057351556527115e-04, -1.742252539498890e-05, 2.186581561668234e+01, -1.242886864090560e+03, 5.472717992364099e+01, 1.269480050145030e+03
578, 1.500000000000234e-04, 5.999999999993707e-03, 3.055933570913821e-04, -2.146718124399501e-05, 1.305893823507293e+01, -1.867274495442875e+03, -3.359052753386226e+01, 1.881533182265759e+03
579, 2.000000000000053e-04, 5.999999999991606e-03, 3.054603722701111e-04, -2.551476166179749e-05, 1.417827836041994e+00, -2.488267850934090e+03, -1.366897031618794e+02, 2.504649891476856e+03
580, -1.999999999999690e-04, 5.900000000008779e-03, 2.986876971354131e-04, 7.060502910030686e-06, 2.610351617656210e+01, 2.675439291912611e+03, 2.831817248927030e+02, 2.709196856975838e+03
581, -1.499999999999408e-04, 5.900000000006594e-03, 2.984920396568854e-04, 3.040549061575532e-06, 3.045784684852853e+01, 2.007901673961287e+03, 2.831162389420226e+02, 2.056915970183774e+03
582, -9.999999999989724e-05, 5.900000000004408e-03, 2.983059529498086e-04, -9.779146059441081e-07, 3.302811676807070e+01, 1.341628757072160e+03, 2.677802367820392e+02, 1.413952140862077e+03
583, -4.999999999987495e-05, 5.900000000002220e-03, 2.981294028810692e-04, -4.995638015783990e-06, 3.363648999208812e+01, 6.769774474532002e+02, 2.371944016852252e+02, 7.993324241579521e+02
584, 1.153862162067698e-16, 5.900000000000033e-03, 2.979623471013538e-04, -9.013371026421476e-06, 3.210407827555520e+01, 1.430610588331936e+01, 1.913791431670087e+02, 3.831718590640869e+02
585, 5.000000000005830e-05, 5.899999999997847e-03, 2.978047350250347e-04, -1.303186344238266e-05, 2.825106065645116e+01, -6.460254084368436e+02, 1.303548809814864e+02, 7.229234653514235e+02
586, 1.000000000000340e-04, 5.899999999995659e-03, 2.976565078102756e-04, -1.705186501717403e-05, 2.189666186880504e+01, -1.303655784152770e+03, 5.414215404567651e+01, 1.329967961468472e+03
587, 1.500000000000191e-04, 5.899999999993472e-03, 2.975175983392767e-04, -2.107412545412144e-05, 1.285914519844735e+01, -1.958222272647781e+03, -3.723833800741431e+01, 1.972487954601730e+03
588, 2.000000000000034e-04, 5.899999999991286e-03, 2.973879311984462e-04, -2.509939440694220e-05, 9.558497434964011e-01, -2.609360651881780e+03, -1.437657161143580e+02, 2.626104827149274e+03
589, -1.999999999999710e-04, 5.800000000009150e-03, 2.906460677583354e-04, 7.288063006290351e-06, 2.685176358467410e+01, 2.799323965435684e+03, 2.934604968024065e+02, 2.833915729652286e+03
590, -1.499999999999452e-04, 5.800000000006880e-03, 2.904507555732339e-04, 3.291702456141450e-06, 3.115499181367716e+01, 2.100696432099588e+03, 2.924717248244592e+02, 2.150618658048856e+03
591, -9.999999999990477e-05, 5.800000000004606e-03, 2.902654561224929e-04, -7.031463296523882e-07, 3.364489690900228e+01, 1.403363096605551e+03, 2.758582647580678e+02, 1.476658076712846e+03
592, -4.999999999988512e-05, 5.800000000002332e-03, 2.900901347870610e-04, -4.697250770754463e-06, 3.414466043294442e+01, 7.076815094887098e+02, 2.436385032123997e+02, 8.313186922151352e+02
593, 1.025655255171287e-16, 5.800000000000059e-03, 2.899247487358818e-04, -8.691378280656526e-06, 3.247546682459841e+01, 1.401030089589682e+01, 1.958308569135153e+02, 3.920967488142452e+02
594, 5.000000000004811e-05, 5.799999999997786e-03, 2.897692469004765e-04, -1.268629626931153e-05, 2.845724294996589e+01, -6.772904882954895e+02, 1.324538436959008e+02, 7.538275286810505e+02
595, 1.000000000000264e-04, 5.799999999995513e-03, 2.896235699532039e-04, -1.668277214429097e-05, 2.190888064116220e+01, -1.365859307065229e+03, 5.352612229888550e+01, 1.391891061068826e+03
596, 1.500000000000147e-04, 5.799999999993240e-03, 2.894876502866128e-04, -2.068157331092463e-05, 1.264830525139976e+01, -2.051333075549333e+03, -4.093347516847698e+01, 2.065604351721204e+03
597, 2.000000000000015e-04, 5.799999999990969e-03, 2.893614119934594e-04, -2.468346717200510e-05, 4.925219440285673e-01, -2.733347180454185e+03, -1.509059248523290e+02, 2.750449038071948e+03
598, -1.999999999999729e-04, 5.700000000009518e-03, 2.826519121553244e-04, 7.507415939972807e-06, 2.757187618836699e+01, 2.926097038471565e+03, 3.037874274221996e+02, 2.961519090032686e+03
599, -1.499999999999495e-04, 5.700000000007160e-03, 2.824569850930545e-04, 3.535738740533736e-06, 3.181840098535193e+01, 2.195664353684464e+03, 3.018636577953998e+02, 2.246489701423713e+03
600, -9.999999999991239e-05, 5.700000000004800e-03, 2.822725227728374e-04, -4.344052862511969e-07, 3.422655191614643e+01, 1.466553889043317e+03, 2.839611358898305e+02, 1.540810600776482e+03
601, -4.999999999989533e-05, 5.700000000002444e-03, 2.820984901667190e-04, -4.403801048540790e-06, 3.461860797246709e+01, 7.391229618135042e+02, 2.500957430288178e+02, 8.640126777458321e+02
602, 8.974483482748763e-17, 5.700000000000083e-03, 2.819348440313510e-04, -8.373233512794769e-06, 3.281544963277909e+01, 1.373030233714047e+01, 2.002837814547592e+02, 4.010219636161680e+02
603, 5.000000000003792e-05, 5.699999999997726e-03, 2.817815328844216e-04, -1.234348769679938e-05, 2.863681003462213e+01, -7.092638008601875e+02, 1.345417625029333e+02, 7.854318907381570e+02
604, 1.000000000000188e-04, 5.699999999995369e-03, 2.816384969823876e-04, -1.631534866739467e-05, 2.190135063560967e+01, -1.429497482546321e+03, 5.288637668994173e+01, 1.455247899266456e+03
605, 1.500000000000104e-04, 5.699999999993010e-03, 2.815056682989555e-04, -2.028960153917135e-05, 1.242670811896676e+01, -2.146607291412869e+03, -4.466549076214248e+01, 2.160881263603932e+03
606, 1.999999999999996e-04, 5.699999999990651e-03, 2.813829705040957e-04, -2.426703147297849e-05, 2.954332745088095e-02, -2.860228184164626e+03, -1.580967227279539e+02, 2.877681803575132e+03
607, -1.999999999999748e-04, 5.600000000009672e-03, 2.747074327843065e-04, 7.718308821223952e-06, 2.826579727639955e+01, 3.055761805563896e+03, 3.141510085511421e+02, 3.092005094577227e+03
608, -1.499999999999538e-04, 5.600000000007281e-03, 2.745129310719739e-04, 3.772429897899319e-06, 3.245042864722333e+01, 2.292809108920270e+03, 3.112843475140516e+02, 2.344528341375873e+03
609, -9.999999999991998e-05, 5.600000000004890e-03, 2.743293561370034e-04, -1.718945431485820e-07, 3.477455627662980e+01, 1.531204364689593e+03, 2.920841756758893e+02, 1.606410543487534e+03
610, -4.999999999990553e-05, 5.600000000002499e-03, 2.741566726205240e-04, -4.115466915282751e-06, 3.505901423770209e+01, 7.713043687946212e+02, 2.565644212166879e+02, 8.974176458281059e+02
611, 7.692414413784654e-17, 5.600000000000110e-03, 2.739948369426857e-04, -8.059089742257308e-06, 3.312431361665301e+01, 1.346799441220793e+01, 2.047392923863448e+02, 4.099500972949169e+02
612, 5.000000000002774e-05, 5.599999999997718e-03, 2.738437972825433e-04, -1.200356565268286e-05, 2.878999130554763e+01, -7.419441841786823e+02, 1.366232011908616e+02, 8.177375897400771e+02
613, 1.000000000000112e-04, 5.599999999995330e-03, 2.737034935559914e-04, -1.594969737740536e-05, 2.187449827705495e+01, -1.494569946277156e+03, 5.223075256046665e+01, 1.520038144084371e+03
614, 1.500000000000060e-04, 5.599999999992939e-03, 2.735738573932902e-04, -1.989828774770133e-05, 1.219518209107349e+01, -2.244045434888550e+03, -4.842323622796394e+01, 2.258318170881983e+03
615, 1.999999999999977e-04, 5.599999999990549e-03, 2.734548121166108e-04, -2.385013969315276e-05, -4.317246447063212e-01, -2.990005171795667e+03, -1.653236969467903e+02, 3.007802702139668e+03
616, -1.999999999999767e-04, 5.500000000009695e-03, 2.668148823861046e-04, 7.920488269485652e-06, 2.894567192397557e+01, 3.188329013368783e+03, 3.245355737804682e+02, 3.225367646144394e+03
617, -1.499999999999582e-04, 5.500000000007305e-03, 2.666208466090636e-04, 4.001547395342105e-06, 3.306125726239659e+01, 2.392139844541922e+03, 3.207219365106150e+02, 2.444729437626429e+03
618, -9.999999999992762e-05, 5.500000000004914e-03, 2.664382096332139e-04, 8.418227347791772e-08, 3.529581894389014e+01, 1.597321342808090e+03, 3.002195793258114e+02, 1.673454785898172e+03
619, -4.999999999991570e-05, 5.500000000002524e-03, 2.662669358518136e-04, -3.832427029949457e-06, 3.547028685158034e+01, 8.042306621397438e+02, 2.630406850256310e+02, 9.315332106415802e+02
620, 6.410345344820545e-17, 5.500000000000133e-03, 2.661069814343679e-04, -7.749100603147798e-06, 3.340483743983256e+01, 1.322680565586938e+01, 2.091973817590288e+02, 4.188810464869542e+02
621, 5.000000000001756e-05, 5.499999999997745e-03, 2.659582943063068e-04, -1.166665869093106e-05, 2.891866546688897e+01, -7.753294516235434e+02, 1.387019201361433e+02, 8.507455109733569e+02
622, 1.000000000000036e-04, 5.499999999995354e-03, 2.658208141266632e-04, -1.558592169454086e-05, 2.182987295147640e+01, -1.561075601997647e+03, 5.156672416840013e+01, 1.586261722033836e+03
623, 1.500000000000017e-04, 5.499999999992964e-03, 2.656944722649269e-04, -1.950771017076501e-05, 1.195541610579755e+01, -2.343647424139459e+03, -5.219557430799753e+01, 2.357914810352758e+03
624, 1.999999999999958e-04, 5.499999999990576e-03, 2.655791917773643e-04, -2.343284483053366e-05, -8.889214529025935e-01, -3.122678980947579e+03, -1.725721009550535e+02, 3.140811630084163e+03
625, -1.999999999999786e-04, 5.400000000009719e-03, 2.589765648255998e-04, 8.113700524783853e-06, 2.960347828985823e+01, 3.323797080754017e+03, 3.349239041705547e+02, 3.361607885648649e+03
626, -1.499999999999625e-04, 5.400000000007331e-03, 2.587830356360371e-04, 4.222862337981166e-06, 3.364460136869340e+01, 2.493655878707777e+03, 3.301628111278217e+02, 2.547093522437442e+03
627, -9.999999999993521e-05, 5.400000000004939e-03, 2.586013872672717e-04, 3.336211705539979e-07, 3.578604719946802e+01, 1.664905125859273e+03, 3.083580363307603e+02, 1.741943651996936e+03
628, -4.999999999992589e-05, 5.400000000002551e-03, 2.584315839444155e-04, -3.554860427695994e-06, 3.584949788886675e+01, 8.379025871291124e+02, 2.695195401361540e+02, 9.663603303223064e+02
629, 5.128276275856436e-17, 5.400000000000158e-03, 2.582735816708558e-04, -7.443420112823700e-06, 3.365506367255205e+01, 1.300750799567211e+01, 2.136572623386038e+02, 4.278130719783322e+02
630, 5.000000000000737e-05, 5.399999999997771e-03, 2.581273282042219e-04, -1.133289575163735e-05, 2.902165644295400e+01, -8.094191100763430e+02, 1.407812253031443e+02, 8.844548222226420e+02
631, 9.999999999999598e-05, 5.399999999995381e-03, 2.579927630326382e-04, -1.522412542331433e-05, 2.176702954539434e+01, -1.629014464536845e+03, 5.090160075680700e+01, 1.653917601648525e+03
632, 1.499999999999973e-04, 5.399999999992991e-03, 2.578698173506628e-04, -1.911794741967947e-05, 1.170776514787775e+01, -2.445413946606792e+03, -5.597125021233772e+01, 2.459670349818757e+03
633, 1.999999999999938e-04, 5.399999999990601e-03, 2.577584140348895e-04, -2.301520024516838e-05, -1.340778355311784e+00, -3.258251167972550e+03, -1.798267480352216e+02, 3.276708092466035e+03
634, -1.999999999999805e-04, 5.300000000009745e-03, 2.511948348564069e-04, 8.297691554284175e-06, 3.023171425144670e+01, 3.462166401147893e+03, 3.453001357700554e+02, 3.500729128363731e+03
635, -1.499999999999669e-04, 5.300000000007331e-03, 2.510018527977856e-04, 4.436145585140090e-06, 3.419272685965240e+01, 2.597357056164745e+03, 3.395949545151500e+02, 2.651624089412112e+03
636, -9.999999999994280e-05, 5.300000000004915e-03, 2.508212435814545e-04, 5.762179404286904e-07, 3.623899815335773e+01, 1.733955923952528e+03, 3.164913304249362e+02, 1.811880186182732e+03
637, -4.999999999993605e-05, 5.300000000002501e-03, 2.506529713488784e-04, -3.282946333898516e-06, 3.619197108772590e+01, 8.723206315860739e+02, 2.759967076527321e+02, 1.001902124684518e+03
638, 3.846207206892327e-17, 5.300000000000087e-03, 2.504969920218550e-04, -7.142202460253974e-06, 3.387166942359488e+01, 1.281060044408312e+01, 2.181186548991248e+02, 4.367454167894309e+02
639, 4.999999999999720e-05, 5.299999999997673e-03, 2.503532532761403e-04, -1.100240593094947e-05, 2.909680925236626e+01, -8.442129110044832e+02, 1.428648509166785e+02, 9.188641520947892e+02
640, 9.999999999998842e-05, 5.299999999995259e-03, 2.502216945158691e-04, -1.486441250971203e-05, 2.168485685188895e+01, -1.698386776402246e+03, 5.024312062085764e+01, 1.723004326229170e+03
641, 1.499999999999930e-04, 5.299999999992844e-03, 2.501022468481992e-04, -1.872907823236143e-05, 1.145205118768703e+01, -2.549345989452799e+03, -5.973852593043995e+01, 2.563583696872314e+03
642, 1.999999999999920e-04, 5.299999999990430e-03, 2.499948330581057e-04, -2.259725940682851e-05, -1.786552085891145e+00, -3.396723631962393e+03, -1.870718760940563e+02, 3.415491373671114e+03
643, -1.999999999999824e-04, 5.200000000009989e-03, 2.434720978199623e-04, 8.472207396004670e-06, 3.082833577970075e+01, 3.603440040645810e+03, 3.556483340133539e+02, 3.642732126260758e+03
644, -1.499999999999712e-04, 5.200000000007502e-03, 2.432797032413607e-04, 4.641168054549614e-06, 3.470360045558567e+01, 2.703246576991936e+03, 3.490066873753606e+02, 2.758322731108957e+03
645, -9.999999999995044e-05, 5.200000000005017e-03, 2.431001835160089e-04, 8.117684442399925e-07, 3.665238754045248e+01, 1.804476434629085e+03, 3.246117256617932e+02, 1.883266564035304e+03
646, -4.999999999994625e-05, 5.200000000002529e-03, 2.429335027942451e-04, -3.016863889182402e-06, 3.649560902766228e+01, 9.074869956332332e+02, 2.824684043800827e+02, 1.038161641283868e+03
647, 2.564138137928218e-17, 5.200000000000042e-03, 2.427796170069898e-04, -6.845601732420023e-06, 3.405308364339936e+01, 1.263779535148302e+01, 2.225817965659708e+02, 4.456784033613999e+02
648, 4.999999999998700e-05, 5.199999999997556e-03, 2.426384738387786e-04, -1.067531820538802e-05, 2.914333040524804e+01, -8.797096490027336e+02, 1.449571055208300e+02, 9.539727396224031e+02
649, 9.999999999998081e-05, 5.199999999995069e-03, 2.425100127008056e-04, -1.450688676194421e-05, 2.158354804200337e+01, -1.769191878497944e+03, 4.959969408433138e+01, 1.793520879976692e+03
650, 1.499999999999887e-04, 5.199999999992581e-03, 2.423941647043303e-04, -1.834118119011425e-05, 1.118964263614708e+01, -2.655443483531016e+03, -6.348488210703292e+01, 2.669654200565427e+03
651, 1.999999999999900e-04, 5.199999999990096e-03, 2.422908526343902e-04, -2.217907561186693e-05, -2.223715318564928e+00, -3.538097076140997e+03, -1.942908254852235e+02, 3.557161245044233e+03
652, -1.999999999999843e-04, 5.100000000010360e-03, 2.358108097140246e-04, 8.636994521716721e-06, 3.139308652857738e+01, 3.747621771227836e+03, 3.659512053755970e+02, 3.787616239251937e+03
653, -1.499999999999755e-04, 5.100000000007788e-03, 2.356190426483103e-04, 4.837701081639970e-06, 3.517704715638780e+01, 2.811328375392102e+03, 3.583851368518519e+02, 2.867189533764764e+03
654, -9.999999999995803e-05, 5.100000000005215e-03, 2.354406624198810e-04, 1.040068949342396e-06, 3.702550145016642e+01, 1.876470017370434e+03, 3.327107789786049e+02, 1.956103774584402e+03
655, -4.999999999995644e-05, 5.100000000002642e-03, 2.352756332859512e-04, -2.756791829003807e-06, 3.675939842115463e+01, 9.434043298113826e+02, 2.889305554048681e+02, 1.075141151199159e+03
656, 1.282069068964109e-17, 5.100000000000066e-03, 2.351239112840001e-04, -6.553771605013060e-06, 3.419836760267475e+01, 1.249105240958514e+01, 2.270469524952171e+02, 4.546124526256992e+02
657, 4.999999999997683e-05, 5.099999999997495e-03, 2.349854442036319e-04, -1.035176112924745e-05, 2.916065074342725e+01, -9.159080709542438e+02, 1.470625965022200e+02, 9.897800351043505e+02
658, 9.999999999997324e-05, 5.099999999994921e-03, 2.348601715589977e-04, -1.415165155127463e-05, 2.146313887342987e+01, -1.841429269805397e+03, 4.898028402917123e+01, 1.865466268579390e+03
659, 1.499999999999843e-04, 5.099999999992348e-03, 2.347480245613077e-04, -1.795433441971935e-05, 1.092137626981946e+01, -2.763706745617383e+03, -6.719698706617946e+01, 2.777881018879389e+03
660, 1.999999999999881e-04, 5.099999999989774e-03, 2.346489260913432e-04, -2.176070168160380e-05, -2.650468351530719e+00, -3.682372692530613e+03, -2.014659787941408e+02, 3.701717143375946e+03
661, -1.999999999999862e-04, 5.000000000010596e-03, 2.282134773879317e-04, 8.791800119841900e-06, 3.192336637700299e+01, 3.894714549154872e+03, 3.761903787393227e+02, 3.935382132140485e+03
662, -1.499999999999799e-04, 5.000000000007969e-03, 2.280223773685317e-04, 5.025516715094853e-06, 3.561006407654389e+01, 2.921604729264336e+03, 3.677165476740961e+02, 2.978225485960695e+03
663, -9.999999999996564e-05, 5.000000000005344e-03, 2.278451861378495e-04, 1.260916433685478e-06, 3.735558959196391e+01, 1.949938617825222e+03, 3.407794338799099e+02, 2.030393146685623e+03
664, -4.999999999996662e-05, 5.000000000002718e-03, 2.276818681612514e-04, -2.502908177488128e-06, 3.698102223836764e+01, 9.800743043778411e+02, 2.953787242782510e+02, 1.112842891805305e+03
665, 0.000000000000000e+00, 5.000000000000093e-03, 2.275323796821170e-04, -6.266865038381102e-06, 3.430563688530646e+01, 1.237161035742756e+01, 2.315142477936831e+02, 4.635477205699810e+02
666, 4.999999999996663e-05, 4.999999999997467e-03, 2.273966686941369e-04, -1.003186253444930e-05, 2.914733784631932e+01, -9.528075461608673e+02, 1.491859831840661e+02, 1.026285157517126e+03
667, 9.999999999996559e-05, 4.999999999994841e-03, 2.272746749133327e-04, -1.379880951708278e-05, 2.132266756374514e+01, -1.915099118237344e+03, 4.839407102803127e+01, 1.938839157064800e+03
668, 1.499999999999799e-04, 4.999999999992216e-03, 2.271663297497352e-04, -1.756861530396674e-05, 1.064678401637113e+01, -2.874136934947190e+03, -7.086115752804214e+01, 2.888262855036239e+03
669, 1.999999999999863e-04, 4.999999999989590e-03, 2.270715562787502e-04, -2.134218967945166e-05, -3.066591070679181e+00, -3.829552731072809e+03, -2.085791485604558e+02, 3.849157989026330e+03
670, -1.999999999999881e-04, 4.900000000010410e-03, 2.206826585593647e-04, 8.936372353522722e-06, 3.241103779708584e+01, 4.044716315356546e+03, 3.863479474440197e+02, 4.086031398106031e+03
671, -1.499999999999843e-04, 4.900000000007836e-03, 2.204922644383073e-04, 5.204387996473770e-06, 3.599610288057062e+01, 3.034074393287774e+03, 3.769875774825603e+02, 3.091432025731062e+03
672, -9.999999999997321e-05, 4.900000000005265e-03, 2.203163110329106e-04, 1.474108885015034e-06, 3.763814793634282e+01, 2.024882272060124e+03, 3.488087959787886e+02, 2.106136157391820e+03
673, -4.999999999997681e-05, 4.900000000002690e-03, 2.201547631129110e-04, -2.255389938884695e-06, 3.715736135376744e+01, 1.017497601967836e+03, 3.018085204869710e+02, 1.151269090839056e+03
674, -1.282069068964109e-17, 4.900000000000120e-03, 2.200075772263436e-04, -5.985033965093161e-06, 3.437282686841780e+01, 1.228033260408216e+01, 2.359838708996437e+02, 4.724845263095274e+02
675, 4.999999999995644e-05, 4.899999999997547e-03, 2.198747016718467e-04, -9.715749217043165e-06, 2.910227574100105e+01, -9.904073498657224e+02, 1.513320732296749e+02, 1.063487405781906e+03
676, 9.999999999995801e-05, 4.899999999994974e-03, 2.197560764694640e-04, -1.344846225337824e-05, 2.116200364351573e+01, -1.990201055394723e+03, 4.785049716920915e+01, 2.013638506679146e+03
677, 1.499999999999756e-04, 4.899999999992402e-03, 2.196516333309521e-04, -1.718410016907606e-05, 1.036686689127089e+01, -2.986734177148370e+03, -7.446330405069519e+01, 3.000798860767594e+03
678, 1.999999999999843e-04, 4.899999999989829e-03, 2.195612956300730e-04, -2.092359059593161e-05, -3.469685166312559e+00, -3.979637862383966e+03, -2.156115708913084e+02, 3.999483313070231e+03
679, -1.999999999999901e-04, 4.800000000010084e-03, 2.132209615752291e-04, 9.070460781190093e-06, 3.286126880253028e+01, 4.197633837249025e+03, 3.964044233533926e+02, 4.239560875173390e+03
680, -1.499999999999886e-04, 4.800000000007600e-03, 2.130313114581039e-04, 5.374089363278368e-06, 3.633938161900585e+01, 3.148743694243334e+03, 3.861835783584299e+02, 3.206807077143463e+03
681, -9.999999999998080e-05, 4.800000000005114e-03, 2.128566439276737e-04, 1.679445676267898e-06, 3.787543485988112e+01, 2.101305937462419e+03, 3.567889338640468e+02, 2.183332043547644e+03
682, -4.999999999998701e-05, 4.800000000002629e-03, 2.126969241630864e-04, -2.014412739384170e-06, 3.728939163957835e+01, 1.055677967064605e+03, 3.082148742894819e+02, 1.190420482640205e+03
683, -2.564138137928218e-17, 4.800000000000143e-03, 2.125521091254595e-04, -5.708428942009008e-06, 3.440030976599132e+01, 1.221994305308812e+01, 2.404556652682743e+02, 4.814225550448924e+02
684, 4.999999999994627e-05, 4.799999999997659e-03, 2.124221475273966e-04, -9.403546594645743e-06, 2.902574412566895e+01, -1.028705689169426e+03, 1.535056410730139e+02, 1.101386268456914e+03
685, 9.999999999995042e-05, 4.799999999995174e-03, 2.123069798020117e-04, -1.310070996805578e-05, 2.098172190806110e+01, -2.066734208537990e+03, 4.735926952597892e+01, 2.089863490249628e+03
686, 1.499999999999713e-04, 4.799999999992687e-03, 2.122065380718391e-04, -1.680086394250061e-05, 1.008272403522597e+01, -3.101498629287894e+03, -7.798879974461182e+01, 3.115488329281714e+03
687, 1.999999999999824e-04, 4.799999999990203e-03, 2.121207461175494e-04, -2.050495400833331e-05, -3.858226938577047e+00, -4.132629619658267e+03, -2.225436747940927e+02, 4.152692615894407e+03
688, -1.999999999999919e-04, 4.700000000009747e-03, 2.058310458964547e-04, 9.193816748833540e-06, 3.327634280236799e+01, 4.353473826370673e+03, 4.063374837899105e+02, 4.395969392518648e+03
689, -1.499999999999929e-04, 4.700000000007334e-03, 2.056421769205373e-04, 5.534397003321104e-06, 3.664058200830402e+01, 3.265618345598178e+03, 3.952872919156022e+02, 3.324350398251927e+03
690, -9.999999999998839e-05, 4.700000000004922e-03, 2.054688423217044e-04, 1.876727906361496e-06, 3.806673962680566e+01, 2.179213840185681e+03, 3.647082661443371e+02, 2.261981296078222e+03
691, -4.999999999999717e-05, 4.700000000002511e-03, 2.053110078060557e-04, -1.780150491955063e-06, 3.737590884738847e+01, 1.094618580489154e+03, 3.145917549790445e+02, 1.230298319897820e+03
692, -3.846207206892327e-17, 4.700000000000096e-03, 2.051686308640845e-04, -5.437198816489448e-06, 3.438692376174106e+01, 1.219278404271239e+01, 2.449290203073995e+02, 4.903605610087722e+02
693, 4.999999999993608e-05, 4.699999999997685e-03, 2.050416607373583e-04, -9.095378372446571e-06, 2.891700167556121e+01, -1.067700965167628e+03, 1.557114009733087e+02, 1.139980318591322e+03
694, 9.999999999994281e-05, 4.699999999995272e-03, 2.049300383862238e-04, -1.275565114839560e-05, 2.078179517350867e+01, -2.144697696879147e+03, 4.693036947570882e+01, 2.167512691731500e+03
695, 1.499999999999669e-04, 4.699999999992859e-03, 2.048336964577483e-04, -1.641897981814647e-05, 9.795416109303517e+00, -3.218430034347025e+03, -8.142243040343105e+01, 3.232330120464983e+03
696, 1.999999999999805e-04, 4.699999999990447e-03, 2.047525592537361e-04, -2.008632774264004e-05, -4.229766077587840e+00, -4.288528363147996e+03, -2.293551347069799e+02, 4.308785162911385e+03
697, -1.999999999999939e-04, 4.600000000009572e-03, 1.985156223698668e-04, 9.306193522976778e-06, 3.363753684691454e+01, 4.512228381201950e+03, 4.161262956778236e+02, 4.555262926216107e+03
698, -1.499999999999973e-04, 4.600000000007185e-03, 1.983275703699114e-04, 5.685089046327561e-06, 3.688389289250983e+01, 3.384692252593893e+03, 4.042831630805703e+02, 3.444067408905957e+03
699, -9.999999999999598e-05, 4.600000000004799e-03, 1.981556144862422e-04, 2.065758643427903e-06, 3.820077407906064e+01, 2.258602661743208e+03, 3.725564522618696e+02, 2.342088338050107e+03
700, -5.000000000000737e-05, 4.600000000002412e-03, 1.979997210633512e-04, -1.552775116243427e-06, 3.740888616585795e+01, 1.134317764026760e+03, 3.209340302596016e+02, 1.270906642300979e+03
701, -5.126921023140829e-17, 4.600000000000025e-03, 1.978598482320210e-04, -5.171490422254108e-06, 3.432694371111967e+01, 1.219794242969243e+01, 2.494040215230509e+02, 4.992986646338994e+02
702, 4.999999999992590e-05, 4.599999999997638e-03, 1.977359458746819e-04, -8.791366224231140e-06, 2.877194353435578e+01, -1.107394007631702e+03, 1.579546649431952e+02, 1.179267473179152e+03
703, 9.999999999993524e-05, 4.599999999995251e-03, 1.976279555918452e-04, -1.241338223382864e-05, 2.055923578839059e+01, -2.224092833988638e+03, 4.657433265068329e+01, 2.246583982005063e+03
704, 1.499999999999625e-04, 4.599999999992864e-03, 1.975358106687260e-04, -1.603851892679127e-05, 9.502529640763214e+00, -3.337530825151171e+03, -8.474843097747778e+01, 3.351322345627516e+03
705, 1.999999999999786e-04, 4.599999999990477e-03, 1.974594360418665e-04, -1.966775754375388e-05, -4.585941684269301e+00, -4.447337653668237e+03, -2.360249282094850e+02, 4.467759375937971e+03
706, -1.999999999999958e-04, 4.500000000009600e-03, 1.912774524091364e-04, 9.407346708648136e-06, 3.394607110227241e+01, 4.673902412874753e+03, 4.257508979257092e+02, 4.717441060775732e+03
707, -1.500000000000016e-04, 4.500000000007212e-03, 1.910902518799317e-04, 5.825945969200981e-06, 3.706971293134808e+01, 3.505969691297271e+03, 4.131568321735230e+02, 3.565958683410920e+03
708, -1.000000000000036e-04, 4.500000000004825e-03, 1.909197191370389e-04, 2.246343319586793e-06, 3.827700224594383e+01, 2.339475828164576e+03, 3.803240308712180e+02, 2.423654577336015e+03
709, -5.000000000001756e-05, 4.500000000002437e-03, 1.907658212826920e-04, -1.332456151456750e-06, 3.738757114044222e+01, 1.174778392177681e+03, 3.272372471068456e+02, 1.312247973271832e+03
710, -6.409667718462742e-17, 4.500000000000053e-03, 1.906285172055573e-04, -4.911448197261473e-06, 3.421993210486880e+01, 1.223788498961773e+01, 2.538813641448452e+02, 5.082383285778109e+02
711, 4.999999999991571e-05, 4.499999999997665e-03, 1.905077575471691e-04, -8.491629412898038e-06, 2.859094088230512e+01, -1.147782637603782e+03, 1.602413889279358e+02, 1.219247311689625e+03
712, 9.999999999992765e-05, 4.499999999995279e-03, 1.904034846675707e-04, -1.207399723709207e-05, 2.031575856323781e+01, -2.304917575292830e+03, 4.630246105047227e+01, 2.327076648602862e+03
713, 1.499999999999582e-04, 4.499999999992891e-03, 1.903156326108103e-04, -1.565954995418138e-05, 9.207853909835990e+00, -3.458798768555408e+03, -8.795012317694832e+01, 3.472464662185945e+03
714, 1.999999999999767e-04, 4.499999999990504e-03, 1.902441270703438e-04, -1.924928669669543e-05, -4.920971519475188e+00, -4.609055491954085e+03, -2.425308008560589e+02, 4.629615474282196e+03
715, -1.999999999999977e-04, 4.400000000009622e-03, 1.841193482260342e-04, 9.497034835604581e-06, 3.420852976560212e+01, 4.838503406307416e+03, 4.351882191689940e+02, 4.882499811078322e+03
716, -1.500000000000059e-04, 4.400000000007235e-03, 1.839330321952343e-04, 5.956751136062324e-06, 3.720354678014678e+01, 3.629457636302320e+03, 4.218908682918986e+02, 3.690021282144745e+03
717, -1.000000000000112e-04, 4.400000000004850e-03, 1.837639655172938e-04, 2.418290223674737e-06, 3.829852361929653e+01, 2.421838626784508e+03, 3.879994677229938e+02, 2.506678633413173e+03
718, -5.000000000002772e-05, 4.400000000002464e-03, 1.836121161787874e-04, -1.119360299785292e-06, 3.731332747325297e+01, 1.216004306044144e+03, 3.334956660541827e+02, 1.354322657298510e+03
719, -7.691736787426851e-17, 4.400000000000076e-03, 1.834774439533138e-04, -4.657213752193660e-06, 3.406617037573028e+01, 1.231519097924547e+01, 2.583610660318582e+02, 5.171797239540419e+02
720, 4.999999999990552e-05, 4.399999999997690e-03, 1.833599003678229e-04, -8.196284375705365e-06, 2.837362905235670e+01, -1.188865515616157e+03, 1.625773420087062e+02, 1.259919324342553e+03
721, 9.999999999991999e-05, 4.399999999995304e-03, 1.832594286676122e-04, -1.173758733988985e-05, 2.005056684168255e+01, -2.387171951512437e+03, 4.612628534382137e+01, 2.408989578572233e+03
722, 1.499999999999539e-04, 4.399999999992917e-03, 1.831759637807963e-04, -1.528213874458160e-05, 8.910115569872801e+00, -3.582235592107034e+03, -9.101015119771056e+01, 3.595755676384366e+03
723, 1.999999999999748e-04, 4.399999999990530e-03, 1.831094322827101e-04, -1.883095562130748e-05, -5.236515567363369e+00, -4.773685384685999e+03, -2.488498613060022e+02, 4.794351846838826e+03
724, -1.999999999999997e-04, 4.300000000009517e-03, 1.770441734040088e-04, 9.575019660043051e-06, 3.441798983382051e+01, 5.006030106128029e+03, 4.444136906845289e+02, 5.050439698556429e+03
725, -1.500000000000103e-04, 4.300000000007164e-03, 1.768587731267901e-04, 6.077291145947762e-06, 3.727949686473858e+01, 3.755155467477489e+03, 4.304664611722188e+02, 3.816255655696593e+03
726, -1.000000000000188e-04, 4.300000000004808e-03, 1.766912136667733e-04, 2.581410870065484e-06, 3.826117801188292e+01, 2.505691588950165e+03, 3.955700589569173e+02, 2.591161036870494e+03
727, -5.000000000003792e-05, 4.300000000002456e-03, 1.765414640190525e-04, -9.136510470553632e-07, 3.718312324495179e+01, 1.257996531617040e+03, 3.397027014075745e+02, 1.397131733028596e+03
728, -8.973805856390960e-17, 4.300000000000101e-03, 1.764094849700599e-04, -4.408925487349531e-06, 3.386347077576664e+01, 1.243093224549193e+01, 2.628425908206574e+02, 5.261219097368155e+02
729, 4.999999999989533e-05, 4.299999999997747e-03, 1.762952290611959e-04, -7.905444341969523e-06, 2.811856754082021e+01, -1.230641843142737e+03, 1.649679637361661e+02, 1.301282247531743e+03
730, 9.999999999991241e-05, 4.299999999995395e-03, 1.761986405522305e-04, -1.140424051600537e-05, 1.976296429582447e+01, -2.470855686476609e+03, 4.605715210479752e+01, 2.492321469757767e+03
731, 1.499999999999495e-04, 4.299999999993039e-03, 1.761196553844833e-04, -1.490634793193586e-05, 8.609380869720724e+00, -3.707841763790795e+03, -9.391137414587560e+01, 3.721194229736513e+03
732, 1.999999999999729e-04, 4.299999999990687e-03, 1.760582011436129e-04, -1.841280153305904e-05, -5.531114552062661e+00, -4.941228349271127e+03, -2.549589611346796e+02, 4.961967702460881e+03
733, -2.000000000000014e-04, 4.200000000009198e-03, 1.700548427072655e-04, 9.641066497576652e-06, 3.457014857801482e+01, 5.176483723656992e+03, 4.534030185260677e+02, 5.221261571920685e+03
734, -1.500000000000147e-04, 4.200000000006931e-03, 1.698703874571766e-04, 6.187356166820627e-06, 3.729325328435971e+01, 3.883064541986858e+03, 4.388653126483657e+02, 3.944663211934862e+03
735, -1.000000000000264e-04, 4.200000000004664e-03, 1.697043743787856e-04, 2.735520354450096e-06, 3.816127838136038e+01, 2.591036294635726e+03, 4.030234524237579e+02, 2.677103371450193e+03
736, -5.000000000004811e-05, 4.200000000002396e-03, 1.695567736064971e-04, -7.154882880780598e-07, 3.699415906964697e+01, 1.300756803642004e+03, 3.458520680730402e+02, 1.440677144185370e+03
737, -1.025587492535507e-16, 4.200000000000129e-03, 1.694275470716354e-04, -4.166718202369888e-06, 3.361005879455877e+01, 1.258686575960729e+01, 2.673257772596279e+02, 5.350647244915718e+02
738, 4.999999999988515e-05, 4.199999999997860e-03, 1.693166484632879e-04, -7.619218929279805e-06, 2.782520847495715e+01, -1.273109920956845e+03, 1.674192363814710e+02, 1.343335034096841e+03
739, 9.999999999990481e-05, 4.199999999995591e-03, 1.692240231898628e-04, -1.107404111360081e-05, 1.945394690303959e+01, -2.555967137356175e+03, 4.610719173311364e+01, 2.577071449099727e+03
740, 1.499999999999452e-04, 4.199999999993324e-03, 1.691496083408988e-04, -1.453223650794853e-05, 8.308756662121482e+00, -3.835615514477638e+03, -9.663547642028674e+01, 3.848779996761211e+03
741, 1.999999999999710e-04, 4.199999999991056e-03, 1.690933326492226e-04, -1.799485797581898e-05, -5.799821582763173e+00, -5.111683017072228e+03, -2.608336979876904e+02, 5.132463353790794e+03
742, -2.000000000000034e-04, 4.100000000008875e-03, 1.631543219913461e-04, 9.694944702783905e-06, 3.466533660710627e+01, 5.349868844413848e+03, 4.621307471181913e+02, 5.394965026682672e+03
743, -1.500000000000190e-04, 4.100000000006694e-03, 1.629708388728062e-04, 6.286740381178389e-06, 3.724410670619022e+01, 4.013189039321621e+03, 4.470683990739317e+02, 4.075244621000368e+03
744, -1.000000000000340e-04, 4.100000000004513e-03, 1.628064091488264e-04, 2.880437781119810e-06, 3.799704627812963e+01, 2.677875928595820e+03, 4.103470130627547e+02, 2.764507044271184e+03
745, -5.000000000005830e-05, 4.100000000002334e-03, 1.626610042349506e-04, -5.250279057641427e-07, 3.674427045348460e+01, 1.344287507454874e+03, 3.519374824413472e+02, 1.484961037474279e+03
746, -1.153726636796137e-16, 4.100000000000152e-03, 1.625345873465933e-04, -3.930722677289832e-06, 3.330376087325016e+01, 1.278460785236359e+01, 2.718106898597671e+02, 5.440084926992083e+02
747, 4.999999999987496e-05, 4.099999999997971e-03, 1.624271134587647e-04, -7.337713724660196e-06, 2.749152891378202e+01, -1.316269018543665e+03, 1.699375829130954e+02, 1.386076310037986e+03
748, 9.999999999989721e-05, 4.099999999995790e-03, 1.623385292663853e-04, -1.074706943647564e-05, 1.912164047105739e+01, -2.642506696244930e+03, 4.628920603410747e+01, 2.663237909986748e+03
749, 1.499999999999408e-04, 4.099999999993610e-03, 1.622687731449429e-04, -1.415985940232059e-05, 8.006222094715326e+00, -3.965558827775242e+03, -9.916326049735440e+01, 3.978511356585262e+03
750, 1.999999999999691e-04, 4.099999999991429e-03, 1.622177751112797e-04, -1.757715441572911e-05, -6.044537207859150e+00, -5.285052884909357e+03, -2.664484819050570e+02, 5.305837192106457e+03
751, -2.000000000000054e-04, 4.000000000008551e-03, 1.563456283805337e-04, 9.736428080051773e-06, 3.469715423225301e+01, 5.526185102777268e+03, 4.705708300847481e+02, 5.571551625312445e+03
752, -1.500000000000234e-04, 4.000000000006458e-03, 1.561631420641403e-04, 6.375242411563832e-06, 3.712643229082454e+01, 4.145529182388625e+03, 4.550563080384583e+02, 4.208001679057833e+03
753, -1.000000000000416e-04, 4.000000000004365e-03, 1.560003302327355e-04, 3.015986693848851e-06, 3.776410591102325e+01, 2.766211474422536e+03, 4.175279325387934e+02, 2.853374027452040e+03
754, -5.000000000006849e-05, 4.000000000002271e-03, 1.558571657256603e-04, -3.424213394885491e-07, 3.643006478782257e+01, 1.388589947847433e+03, 3.579526524770400e+02, 1.529985867587401e+03
755, -1.282069068964109e-16, 4.000000000000177e-03, 1.557336131841612e-04, -3.701065241671659e-06, 3.294209728047463e+01, 1.302549174257723e+01, 2.762975260037821e+02, 5.529538522149879e+02
756, 4.999999999986478e-05, 3.999999999998083e-03, 1.556296290107020e-04, -7.061029856123923e-06, 2.711600283608874e+01, -1.360117977733715e+03, 1.725296793446064e+02, 1.429504836601315e+03
757, 9.999999999988963e-05, 3.999999999995989e-03, 1.555451613284029e-04, -1.042340131994904e-05, 1.876559386626479e+01, -2.730473514575903e+03, 4.661633606366109e+01, 2.750819515442605e+03
758, 1.499999999999365e-04, 3.999999999993896e-03, 1.554801499405613e-04, -1.378926706740900e-05, 7.702689359180226e+00, -4.097671148560960e+03, -1.014751497563863e+02, 4.110387229100375e+03
759, 1.999999999999672e-04, 3.999999999991804e-03, 1.554345262902629e-04, -1.715971583322592e-05, -6.262824227247791e+00, -5.461337837623393e+03, -2.717772450630791e+02, 5.482088551411338e+03
760, -2.000000000000072e-04, 3.900000000008219e-03, 1.496318301033321e-04, 9.765295320865129e-06, 3.466233600760245e+01, 5.705433631177873e+03, 4.786970815258437e+02, 5.751021706233820e+03
761, -1.500000000000277e-04, 3.900000000006203e-03, 1.494503626269993e-04, 6.452665778933040e-06, 3.693755460130626e+01, 4.280086606480906e+03, 4.628096302227903e+02, 4.342935054980050e+03
762, -1.000000000000492e-04, 3.900000000004186e-03, 1.492892005850966e-04, 3.141995539671661e-06, 3.746013259251293e+01, 2.856044826216411e+03, 4.245533374526764e+02, 2.943705457497361e+03
763, -5.000000000007867e-05, 3.900000000002170e-03, 1.491483183854401e-04, -1.678151204844148e-07, 3.604954208003068e+01, 1.433666020787472e+03, 3.638913051880787e+02, 1.575753581471583e+03
764, -1.410275975860520e-16, 3.900000000000153e-03, 1.490276822405875e-04, -3.477867310412709e-06, 3.252346699745084e+01, 1.331119306657195e+01, 2.807866587995350e+02, 5.619018619908827e+02
765, 4.999999999985460e-05, 3.899999999998138e-03, 1.489272501266435e-04, -6.789263527913400e-06, 2.669756488468346e+01, -1.404655527112626e+03, 1.752025798255557e+02, 1.473619845781258e+03
766, 9.999999999988204e-05, 3.899999999996121e-03, 1.488469717415171e-04, -1.010310766365944e-05, 1.838544350225544e+01, -2.819866882929165e+03, 4.710234021236364e+01, 2.839815273975984e+03
767, 1.499999999999321e-04, 3.899999999994104e-03, 1.487867884631548e-04, -1.342050500466207e-05, 7.398668710089737e+00, -4.231952480995454e+03, -1.035506570195456e+02, 4.244406804818128e+03
768, 1.999999999999652e-04, 3.899999999992088e-03, 1.487466333080556e-04, -1.674256223732726e-05, -6.453314310550525e+00, -5.640538868539694e+03, -2.767928367986486e+02, 5.661216930164898e+03
769, -2.000000000000091e-04, 3.800000000007874e-03, 1.430160465171291e-04, 9.781330556612830e-06, 3.456467397916134e+01, 5.887620486962524e+03, 4.864815181048685e+02, 5.933373359205435e+03
770, -1.500000000000321e-04, 3.800000000005924e-03, 1.428356170942098e-04, 6.518819427778934e-06, 3.667980819643878e+01, 4.416866568126163e+03, 4.703072441551421e+02, 4.480043712675454e+03
771, -1.000000000000568e-04, 3.800000000003971e-03, 1.426761338884318e-04, 3.258298176467402e-06, 3.708589577582785e+01, 2.947380125066962e+03, 4.314091578932994e+02, 3.035501267847223e+03
772, -5.000000000008884e-05, 3.800000000002021e-03, 1.425375730285307e-04, -1.350377651019901e-09, 3.560253586413444e+01, 1.479518974447768e+03, 3.697464137543295e+02, 1.622265182868940e+03
773, -1.538415120121150e-16, 3.800000000000070e-03, 1.424199024516891e-04, -3.261244898943599e-06, 3.204727888695021e+01, 1.364416851698638e+01, 2.852780962995192e+02, 5.708529087115174e+02
774, 4.999999999984441e-05, 3.799999999998119e-03, 1.423230818608890e-04, -6.522505542372178e-06, 2.623558393085733e+01, -1.449880005788810e+03, 1.779633114067885e+02, 1.518420559344781e+03
775, 9.999999999987444e-05, 3.799999999996168e-03, 1.422470626817951e-04, -9.786253958142190e-06, 1.798078707876954e+01, -2.910686034783449e+03, 4.776124403285880e+01, 2.930224206302789e+03
776, 1.499999999999278e-04, 3.799999999994218e-03, 1.421917880194973e-04, -1.305361329536761e-05, 7.094110833979016e+00, -4.368403157984872e+03, -1.053687890194444e+02, 4.380569218291035e+03
777, 1.999999999999633e-04, 3.799999999992265e-03, 1.421571926154325e-04, -1.632570820454701e-05, -6.615258342208904e+00, -5.822657304994230e+03, -2.814673046027887e+02, 5.843221753678845e+03
778, -2.000000000000110e-04, 3.700000000007529e-03, 1.365014484673973e-04, 9.784323802577055e-06, 3.439891998665377e+01, 6.072745403665138e+03, 4.938947527490825e+02, 6.118607387643419e+03
779, -1.500000000000364e-04, 3.700000000005644e-03, 1.363220731783184e-04, 6.573518183917516e-06, 3.634862576693837e+01, 4.555869610967591e+03, 4.775269319513184e+02, 4.619328719481266e+03
780, -1.000000000000644e-04, 3.700000000003758e-03, 1.361642947163456e-04, 3.364734337208335e-06, 3.663771097062909e+01, 3.040218592619088e+03, 4.380805117790693e+02, 3.128762734981126e+03
781, -5.000000000009902e-05, 3.700000000001873e-03, 1.360280910861101e-04, 1.568376325062872e-07, 3.508607311987618e+01, 1.526150313010716e+03, 3.755104473872933e+02, 1.669522372377582e+03
782, -1.666825314924902e-16, 3.699999999999988e-03, 1.359134321059132e-04, -3.051308149395106e-06, 3.151124564086211e+01, 1.402593012409994e+01, 2.897716352306589e+02, 5.798069839142341e+02
783, 4.999999999983423e-05, 3.699999999998102e-03, 1.358202793628180e-04, -6.260840823522137e-06, 2.572853085490038e+01, -1.495790110749823e+03, 1.808189777177098e+02, 1.563905683716954e+03
784, 9.999999999986681e-05, 3.699999999996217e-03, 1.357485861680021e-04, -9.472899806091675e-06, 1.755102097641850e+01, -3.002930042492967e+03, 4.860743478727571e+01, 3.022045099869218e+03
785, 1.499999999999234e-04, 3.699999999994331e-03, 1.356982975119003e-04, -1.268862611893597e-05, 6.789572776162174e+00, -4.507022772423140e+03, -1.069079204918355e+02, 4.518873654078988e+03
786, 1.999999999999614e-04, 3.699999999992445e-03, 1.356693500188942e-04, -1.590916239236209e-05, -6.747108915881995e+00, -6.007693781643634e+03, -2.857718100992215e+02, 6.028102776057473e+03
787, -2.000000000000130e-04, 3.600000000007325e-03, 1.300912581796633e-04, 9.774071412121781e-06, 3.416235577953296e+01, 6.260810484597932e+03, 5.009071004897766e+02, 6.306724872182232e+03
788, -1.500000000000407e-04, 3.600000000005489e-03, 1.299129497175312e-04, 6.616583208732686e-06, 3.594052737457815e+01, 4.697097501988082e+03, 4.844464109200850e+02, 4.760791703299097e+03
789, -1.000000000000720e-04, 3.600000000003653e-03, 1.297568985094959e-04, 3.461150096026962e-06, 3.611216571991685e+01, 3.134561979461772e+03, 4.445524808141388e+02, 3.223491721886216e+03
790, -5.000000000010923e-05, 3.600000000001818e-03, 1.296230845967318e-04, 3.066200007055475e-07, 3.449707638188289e+01, 1.573561760834575e+03, 3.811758857427133e+02, 1.717527387384677e+03
791, -1.794761171278192e-16, 3.599999999999982e-03, 1.295114798388461e-04, -2.848160849614435e-06, 3.091273146438817e+01, 1.445803548500612e+01, 2.942671973691440e+02, 5.887643763083300e+02
792, 4.999999999982404e-05, 3.599999999998146e-03, 1.294220478679683e-04, -6.004347932079091e-06, 2.517433229332443e+01, -1.542384596230793e+03, 1.837769855358703e+02, 1.610073574730759e+03
793, 9.999999999985923e-05, 3.599999999996311e-03, 1.293547440428056e-04, -9.163098434466370e-06, 1.709481021537664e+01, -3.096598098779817e+03, 4.965585404094725e+01, 3.115276287408405e+03
794, 1.499999999999191e-04, 3.599999999994474e-03, 1.293095154024215e-04, -1.232557126066766e-05, 6.484805225605669e+00, -4.647810984467428e+03, -1.081455201804967e+02, 4.659318739053463e+03
795, 1.999999999999595e-04, 3.599999999992638e-03, 1.292863006194354e-04, -1.549292703609757e-05, -6.847601487408383e+00, -6.195648482163881e+03, -2.896763285858879e+02, 6.215859219933625e+03
796, -2.000000000000149e-04, 3.500000000007369e-03, 1.237887492404104e-04, 9.750376609103144e-06, 3.385221415284161e+01, 6.451816919031200e+03, 5.074880533109541e+02, 6.497726329269164e+03
797, -1.500000000000451e-04, 3.500000000005565e-03, 1.236115166634766e-04, 6.647842527510505e-06, 3.545288977070447e+01, 4.840551916043210e+03, 4.910428427949378e+02, 4.904433600949810e+03
798, -1.000000000000796e-04, 3.500000000003764e-03, 1.234572115724513e-04, 3.547398389592644e-06, 3.550655784529420e+01, 3.230412071362888e+03, 4.508097387776433e+02, 3.319689582267021e+03
799, -5.000000000011939e-05, 3.500000000001962e-03, 1.233258162090463e-04, 4.478746812685413e-07, 3.383276748966597e+01, 1.621754947433787e+03, 3.867349256324347e+02, 1.766282101017328e+03
800, -1.923239128717724e-16, 3.500000000000160e-03, 1.232173046384599e-04, -2.651899921384000e-06, 3.024891428277215e+01, 1.494170951728410e+01, 2.987645358132007e+02, 5.977251056768837e+02
801, 4.999999999981385e-05, 3.499999999998358e-03, 1.231316427027465e-04, -5.753098558877252e-06, 2.457009049053067e+01, -1.589662941904142e+03, 1.868446723165688e+02, 1.656922451162529e+03
802, 9.999999999985163e-05, 3.499999999996555e-03, 1.230687879735625e-04, -8.856896195035979e-06, 1.660905027687727e+01, -3.191690766502285e+03, 5.092144482613253e+01, 3.209915838229708e+03
803, 1.499999999999148e-04, 3.499999999994753e-03, 1.230286897045866e-04, -1.196446962362941e-05, 6.176190491968725e+00, -4.790769971313603e+03, -1.090589932493553e+02, 4.801902532881676e+03
804, 1.999999999999576e-04, 3.499999999992950e-03, 1.230112887836517e-04, -1.507699747484084e-05, -6.920397394585564e+00, -6.386525122503530e+03, -2.931504801974531e+02, 6.406489308879893e+03
805, -2.000000000000167e-04, 3.400000000007423e-03, 1.175972466316242e-04, 9.713050052973678e-06, 3.346838222826000e+01, 6.645767162214619e+03, 5.136060099633246e+02, 6.691611143042523e+03
806, -1.500000000000494e-04, 3.400000000005649e-03, 1.174210951183218e-04, 6.667131594531346e-06, 3.488548323260932e+01, 4.986235758670116e+03, 4.972923270930149e+02, 5.050254269283619e+03
807, -1.000000000000872e-04, 3.400000000003875e-03, 1.172685511106567e-04, 3.623339575380009e-06, 3.482023745225968e+01, 3.327771764034528e+03, 4.568361877395247e+02, 3.417356722107603e+03
808, -5.000000000012958e-05, 3.400000000002102e-03, 1.171395992203134e-04, 5.804870447464548e-07, 3.309236198356814e+01, 1.670732673262627e+03, 3.921793019988309e+02, 1.815787489986461e+03
809, -2.051242747706794e-16, 3.400000000000329e-03, 1.170342158892312e-04, -2.462614870632226e-06, 2.951926207681595e+01, 1.547963364399692e+01, 3.032632310193540e+02, 6.066889320893566e+02
810, 4.999999999980369e-05, 3.399999999998554e-03, 1.169523693414593e-04, -5.507156975435642e-06, 2.391596251004802e+01, -1.637622570778411e+03, 1.900294664672154e+02, 1.704451551117140e+03
811, 9.999999999984403e-05, 3.399999999996781e-03, 1.168940195345339e-04, -8.554332013595598e-06, 1.609508299137616e+01, -3.288205510916355e+03, 5.241947981522047e+01, 3.305963342560740e+03
812, 1.499999999999104e-04, 3.399999999995008e-03, 1.168591181106733e-04, -1.160533467549268e-05, 5.866846577207355e+00, -4.935897084947833e+03, -1.096252387510114e+02, 4.946625266462650e+03
813, 1.999999999999557e-04, 3.399999999993234e-03, 1.168476083481251e-04, -1.466136160523646e-05, -6.960745619673901e+00, -6.580321385831920e+03, -2.961631032669635e+02, 6.599993972818342e+03
814, -2.000000000000187e-04, 3.300000000007353e-03, 1.115201268738054e-04, 9.661910398054052e-06, 3.301029502164806e+01, 6.842663317803641e+03, 5.192279954785721e+02, 6.888378991884718e+03
815, -1.500000000000538e-04, 3.300000000005614e-03, 1.113450574337397e-04, 6.674293849051745e-06, 3.423695610498226e+01, 5.134151164007471e+03, 5.031698895685028e+02, 5.198254002935908e+03
816, -1.000000000000948e-04, 3.300000000003875e-03, 1.111942852911900e-04, 3.688841987952665e-06, 3.405158664282385e+01, 3.426643288838478e+03, 4.626150484047451e+02, 3.516493877408137e+03
817, -5.000000000013977e-05, 3.300000000002137e-03, 1.110677976035551e-04, 7.043504358323882e-07, 3.227424016706925e+01, 1.720497162713250e+03, 3.975004702385293e+02, 1.866044782841444e+03
818, -2.179652942510546e-16, 3.300000000000398e-03, 1.109655733666338e-04, -2.280387226341540e-06, 2.872239644926856e+01, 1.607390152135844e+01, 3.077629954905653e+02, 6.156559347535311e+02
819, 4.999999999979350e-05, 3.299999999998659e-03, 1.108875833645079e-04, -5.266579467472258e-06, 2.321105592606142e+01, -1.686261648886478e+03, 1.933393689986669e+02, 1.752660085389722e+03
820, 9.999999999983644e-05, 3.299999999996922e-03, 1.108337901195229e-04, -8.255436814849542e-06, 1.555275227125151e+01, -3.386140882727735e+03, 5.416629185916669e+01, 3.403418213368393e+03
821, 1.499999999999061e-04, 3.299999999995182e-03, 1.108041478422243e-04, -1.124817186196680e-05, 5.557553487304403e+00, -5.083191418047147e+03, -1.098195239230525e+02, 5.093486763174287e+03
822, 1.999999999999538e-04, 3.299999999993444e-03, 1.107986023814172e-04, -1.424599927468127e-05, -6.967071432941225e+00, -6.777037197879216e+03, -2.986812955631607e+02, 6.796373413981712e+03
823, -2.000000000000206e-04, 3.200000000007042e-03, 1.055608180918428e-04, 9.596784829156926e-06, 3.247470067226766e+01, 7.042505582218349e+03, 5.243201433917785e+02, 7.088030714612855e+03
824, -1.500000000000580e-04, 3.200000000005365e-03, 1.053868272557869e-04, 6.669181251719995e-06, 3.350374118845014e+01, 5.284298760393316e+03, 5.086500723628682e+02, 5.348434155728724e+03
825, -1.000000000001024e-04, 3.200000000003689e-03, 1.052378332699188e-04, 3.743782480643301e-06, 3.319719035655930e+01, 3.527027723263849e+03, 4.681292462941766e+02, 3.617102674464612e+03
826, -5.000000000014997e-05, 3.200000000002012e-03, 1.051138260179421e-04, 8.193667184496083e-07, 3.137518534112417e+01, 1.771049694810589e+03, 4.026897728782278e+02, 1.917055975088025e+03
827, -2.307656561499616e-16, 3.200000000000335e-03, 1.050147872304028e-04, -2.105289995167032e-06, 2.785527207165330e+01, 1.672569653354009e+01, 3.122636223109569e+02, 6.246264057232117e+02
828, 4.999999999978330e-05, 3.199999999998658e-03, 1.049406904330865e-04, -5.031413792662631e-06, 2.245244826242197e+01, -1.735579399474793e+03, 1.967826543935345e+02, 1.801546455115434e+03
829, 9.999999999982882e-05, 3.199999999996980e-03, 1.048915008954088e-04, -7.960232987652896e-06, 1.497916285182907e+01, -3.485496852227808e+03, 5.617866557703351e+01, 3.502278758467389e+03
830, 1.499999999999017e-04, 3.199999999995303e-03, 1.048671755787811e-04, -1.089297808308258e-05, 5.245293707704946e+00, -5.232654051163858e+03, -1.096165635572286e+02, 5.242485356300991e+03
831, 1.999999999999519e-04, 3.199999999993626e-03, 1.048676630847426e-04, -1.383088177904362e-05, -6.941891074313389e+00, -6.976674515909046e+03, -3.006712288095441e+02, 6.995626177335451e+03
832, -2.000000000000225e-04, 3.100000000006703e-03, 9.972279995229458e-05, 9.517509638970682e-06, 3.185964887115369e+01, 7.245294650522930e+03, 5.288479607895467e+02, 7.290566863117025e+03
833, -1.500000000000624e-04, 3.100000000005093e-03, 9.954987948847223e-05, 6.651654860825342e-06, 3.268371827065471e+01, 5.436679917566667e+03, 5.137069782014340e+02, 5.500795793320921e+03
834, -1.000000000001100e-04, 3.100000000003483e-03, 9.940266517367521e-05, 3.788047000236669e-06, 3.225473506218555e+01, 3.628926807212235e+03, 4.733614161140337e+02, 3.719184603598761e+03
835, -5.000000000016015e-05, 3.100000000001875e-03, 9.928114980352860e-05, 9.254468486045924e-07, 3.039283441140537e+01, 1.822392180902430e+03, 4.077384075836474e+02, 1.968823022493300e+03
836, -2.436134518939148e-16, 3.100000000000265e-03, 9.918531802960732e-05, -1.937387090725480e-06, 2.691566224527492e+01, 1.743694407296221e+01, 3.167649104446583e+02, 6.336007260524879e+02
837, 4.999999999977311e-05, 3.099999999998656e-03, 9.911514630641324e-05, -4.801698612799497e-06, 2.163825123618142e+01, -1.785574020781283e+03, 2.003677461686928e+02, 1.851109162353590e+03
838, 9.999999999982122e-05, 3.099999999997047e-03, 9.907060283810457e-05, -7.668733820538900e-06, 1.437299581332036e+01, -3.586271853423472e+03, 5.847364956443533e+01, 3.602543546039240e+03
839, 1.499999999998973e-04, 3.099999999995438e-03, 9.905164752514543e-05, -1.053974113357135e-05, 4.929659739493275e+00, -5.384283686631408e+03, -1.089906809197625e+02, 5.393619968704845e+03
840, 1.999999999999499e-04, 3.099999999993829e-03, 9.905823191105317e-05, -1.341597129623380e-05, -6.884556513466862e+00, -7.179232574726750e+03, -3.020985468606008e+02, 7.197751747763265e+03
841, -2.000000000000244e-04, 3.000000000006373e-03, 9.400960368381667e-05, 9.423930853035575e-06, 3.116514422300622e+01, 7.451032067793796e+03, 5.327757872653974e+02, 7.495987281304906e+03
842, -1.500000000000668e-04, 3.000000000004845e-03, 9.383774030980465e-05, 6.621585453735100e-06, 3.177635195625191e+01, 5.591296776349668e+03, 5.183137317184633e+02, 5.655339410433226e+03
843, -1.000000000001176e-04, 3.000000000003318e-03, 9.369230211002822e-05, 3.821531200754379e-06, 3.122298684242503e+01, 3.732342824107543e+03, 4.782935376986099e+02, 3.822740755350064e+03
844, -5.000000000017031e-05, 3.000000000001789e-03, 9.357328498417166e-05, 1.022511483188229e-06, 2.932553933188558e+01, 1.874526927182221e+03, 4.126372420842810e+02, 2.021347603937653e+03
845, -2.564273663199779e-16, 3.000000000000262e-03, 9.348067669783335e-05, -1.776732727152087e-06, 2.590181231414749e+01, 1.820988061101326e+01, 3.212666377230643e+02, 6.425793148467013e+02
846, 4.999999999976296e-05, 2.999999999998735e-03, 9.341445682772201e-05, -4.577462886892228e-06, 2.076689167145958e+01, -1.836243455752313e+03, 2.041033545889419e+02, 1.901346929904377e+03
847, 9.999999999981362e-05, 2.999999999997206e-03, 9.337459670687239e-05, -7.380942891209302e-06, 1.373314855492652e+01, -3.688464129219478e+03, 6.106890972785642e+01, 3.704211431668232e+03
848, 1.499999999998930e-04, 2.999999999995678e-03, 9.336105936975021e-05, -1.018843908328224e-05, 4.610226421365383e+00, -5.538079077808550e+03, -1.079152424121970e+02, 5.546889896275591e+03
849, 1.999999999999481e-04, 2.999999999994151e-03, 9.337379949719467e-05, -1.300122026280030e-05, -6.794936323175477e+00, -7.384711087260624e+03, -3.029276342369155e+02, 7.402749984742233e+03
850, -2.000000000000263e-04, 2.900000000006043e-03, 8.842481218789331e-05, 9.315904850031120e-06, 3.039084878070014e+01, 7.659719174229721e+03, 5.360666112904538e+02, 7.704292332489758e+03
851, -1.500000000000711e-04, 2.900000000004594e-03, 8.825398724661884e-05, 6.578854143284994e-06, 3.078019365929299e+01, 5.748150806283348e+03, 5.224424247673720e+02, 5.812065989894162e+03
852, -1.000000000001252e-04, 2.900000000003146e-03, 8.811031621430735e-05, 3.844141060145503e-06, 3.009998978765248e+01, 3.837277511827984e+03, 4.829069138563571e+02, 3.927772528307902e+03
853, -5.000000000018052e-05, 2.900000000001698e-03, 8.799379829298357e-05, 1.110491596278611e-06, 2.817111506934657e+01, 1.927455883044575e+03, 4.173767885733686e+02, 2.074631573176788e+03
854, -2.692480570096190e-16, 2.900000000000249e-03, 8.790442456054355e-05, -1.623370803516865e-06, 2.481150815060528e+01, 1.904653349341021e+01, 3.257685384779729e+02, 6.515625814770951e+02
855, 4.999999999975274e-05, 2.899999999998802e-03, 8.784217791482978e-05, -4.358725256349225e-06, 1.983634086315408e+01, -1.887585734976652e+03, 2.079984653781028e+02, 1.952258287675997e+03
856, 9.999999999980604e-05, 2.899999999997354e-03, 8.780703301758692e-05, -7.096853452135480e-06, 1.305801084171674e+01, -3.792071904141471e+03, 6.398272537642113e+01, 3.807281028041710e+03
857, 1.499999999998886e-04, 2.899999999995905e-03, 8.779895623816432e-05, -9.839039663955529e-06, 4.286130211278874e+00, -5.694038710309666e+03, -1.063626238047935e+02, 5.702294101418183e+03
858, 1.999999999999462e-04, 2.899999999994458e-03, 8.781790559695493e-05, -1.258657075778296e-05, -6.672604738987616e+00, -7.593108710014811e+03, -3.031215728033316e+02, 7.610620443237704e+03
859, -2.000000000000283e-04, 2.800000000005697e-03, 8.297206008185500e-05, 9.193298964257545e-06, 2.953348920307280e+01, 7.871354723513625e+03, 5.386827014772380e+02, 7.915483338518698e+03
860, -1.500000000000755e-04, 2.800000000004316e-03, 8.280224920370398e-05, 6.523352991173844e-06, 2.969186250540656e+01, 5.907241618609362e+03, 5.260647282818591e+02, 5.970977100010243e+03
861, -1.000000000001328e-04, 2.800000000002934e-03, 8.266033066907177e-05, 3.855793501197813e-06, 2.888255581548640e+01, 3.943731396606550e+03, 4.871825129582226e+02, 4.034281677073664e+03
862, -5.000000000019071e-05, 2.800000000001552e-03, 8.254630718254064e-05, 1.189329103508535e-06, 2.692639686437064e+01, 1.981180102538306e+03, 4.219473444609555e+02, 2.128677005121002e+03
863, -2.820416426449479e-16, 2.800000000000171e-03, 8.246017333565554e-05, -1.477334279106156e-06, 2.364151827131207e+01, 1.994813363992370e+01, 3.302702837739421e+02, 6.605508931691156e+02
864, 4.999999999974258e-05, 2.799999999998790e-03, 8.240191554994873e-05, -4.145493422487559e-06, 1.884322832999442e+01, -1.939599805046421e+03, 2.120621628888471e+02, 2.003841450488786e+03
865, 9.999999999979847e-05, 2.799999999997408e-03, 8.237151201946254e-05, -6.816447813037413e-06, 1.234397862974765e+01, -3.897094684327027e+03, 6.723362757730155e+01, 3.911750516345599e+03
866, 1.499999999998843e-04, 2.799999999996027e-03, 8.236893265291895e-05, -9.491499659357878e-06, 3.953327207160100e+00, -5.852163139804010e+03, -1.043048162683339e+02, 5.859830889538236e+03
867, 1.999999999999443e-04, 2.799999999994645e-03, 8.239413901540839e-05, -1.217195390319449e-05, -6.522004992944630e+00, -7.804427369343978e+03, -3.026427787669037e+02, 7.821361689471575e+03
868, -2.000000000000301e-04, 2.700000000005420e-03, 7.765503360997972e-05, 9.055992159579809e-06, 2.859389816670875e+01, 8.085939456943599e+03, 5.405855253568809e+02, 8.129560153811718e+03
869, -1.500000000000799e-04, 2.700000000004097e-03, 7.748620641864128e-05, 6.454985680705419e-06, 2.851182302001041e+01, 6.068570978128588e+03, 5.291515718862720e+02, 6.132073070449323e+03
870, -1.000000000001404e-04, 2.700000000002773e-03, 7.734601968453331e-05, 3.856417058654769e-06, 2.757025490412627e+01, 4.051706591939959e+03, 4.911007363852269e+02, 4.142269063226653e+03
871, -5.000000000020087e-05, 2.700000000001450e-03, 7.723447982106135e-05, 1.258977525061178e-06, 2.559037921856566e+01, 2.035701978089215e+03, 4.263388681775655e+02, 2.183485278629107e+03
872, -2.948962146524792e-16, 2.700000000000125e-03, 7.715158514154884e-05, -1.338644513163032e-06, 2.239062785921874e+01, 2.091730916439303e+01, 3.347714501985135e+02, 6.695445214024530e+02
873, 4.999999999973239e-05, 2.699999999998801e-03, 7.709732580073238e-05, -3.937763487848812e-06, 1.778652790086198e+01, -1.992282823643975e+03, 2.163036887060619e+02, 2.056095314184456e+03
874, 9.999999999979085e-05, 2.699999999997478e-03, 7.707168373580458e-05, -6.539696682823246e-06, 1.159067982551096e+01, -4.003529383866543e+03, 7.084056282512947e+01, 4.017619029627872e+03
875, 1.499999999998800e-04, 2.699999999996155e-03, 7.707463260718495e-05, -9.145764246574360e-06, 3.612749315682777e+00, -6.012448857643132e+03, -1.017131340612406e+02, 6.019499938141550e+03
876, 1.999999999999424e-04, 2.699999999994831e-03, 7.710613773918833e-05, -1.175728920509904e-05, -6.340580628752036e+00, -8.018663268237016e+03, -3.014527270898071e+02, 8.034974165300200e+03
877, -2.000000000000321e-04, 2.600000000005380e-03, 7.247747076688560e-05, 8.903875743699554e-06, 2.757485575150906e+01, 8.303475178670973e+03, 5.417348453010217e+02, 8.346522193425943e+03
878, -1.500000000000841e-04, 2.600000000004088e-03, 7.230959054456601e-05, 6.373668214995289e-06, 2.724105725235165e+01, 6.232140798346936e+03, 5.316724076786123e+02, 6.295354080064340e+03
879, -1.000000000001480e-04, 2.600000000002797e-03, 7.217110854801293e-05, 3.845952568403351e-06, 2.616274500988709e+01, 4.161205121591167e+03, 4.946410026421292e+02, 4.251735450625098e+03
880, -5.000000000021105e-05, 2.600000000001504e-03, 7.206203511341379e-05, 1.319402669382510e-06, 2.416179967780897e+01, 2.091023630139393e+03, 4.305407715720421e+02, 2.239057670128755e+03
881, -3.077169053421203e-16, 2.600000000000212e-03, 7.198237249090688e-05, -1.207310583776826e-06, 2.105694728204548e+01, 2.195616879105569e+01, 3.392714667279298e+02, 6.785435292906457e+02
882, 4.999999999972220e-05, 2.599999999998920e-03, 7.193211478434960e-05, -3.735519275476648e-06, 1.666393275220798e+01, -2.045632871355465e+03, 2.207325181415437e+02, 2.109018607431701e+03
883, 9.999999999978321e-05, 2.599999999997628e-03, 7.191124789077871e-05, -6.266558487221271e-06, 1.079549964321689e+01, -4.111374531286991e+03, 7.482308794453323e+01, 4.124885421664142e+03
884, 1.499999999998756e-04, 2.599999999996335e-03, 7.191974943970653e-05, -8.801766311287784e-06, 3.261390164457680e+00, -6.174895249846512e+03, -9.855787411705745e+01, 6.181300355646337e+03
885, 1.999999999999405e-04, 2.599999999995043e-03, 7.195758873248800e-05, -1.134248386311271e-05, -6.131668524799352e+00, -8.235816847577069e+03, -2.995116133143481e+02, 8.251457263559769e+03
886, -2.000000000000340e-04, 2.500000000005436e-03, 6.744316144868349e-05, 8.736854017875982e-06, 2.647350730960443e+01, 8.523959233046542e+03, 5.420893475836715e+02, 8.566370707724349e+03
887, -1.500000000000885e-04, 2.500000000004174e-03, 6.727618474842839e-05, 6.279329577220860e-06, 2.587637294096385e+01, 6.397949684211414e+03, 5.335960931832079e+02, 6.460821731548293e+03
888, -1.000000000001556e-04, 2.500000000002911e-03, 6.713937368629456e-05, 3.824353836086832e-06, 2.465710302634102e+01, 4.272227020768840e+03, 4.977823212482946e+02, 4.362682565062508e+03
889, -5.000000000022121e-05, 2.500000000001650e-03, 6.703274273856854e-05, 1.370583307329105e-06, 2.263785739876710e+01, 2.147146083393643e+03, 4.345422696252769e+02, 2.295396074468248e+03
890, -3.205375960317614e-16, 2.500000000000388e-03, 6.695629831138358e-05, -1.083328610829647e-06, 1.963778910067401e+01, 2.306640208852627e+01, 3.437697964885809e+02, 6.875481418040645e+02
891, 4.999999999971200e-05, 2.499999999999127e-03, 6.691003867838804e-05, -3.538731651165876e-06, 1.547294823481502e+01, -2.099647855933566e+03, 2.253583971079367e+02, 2.162609915082729e+03
892, 9.999999999977564e-05, 2.499999999997865e-03, 6.689395391850174e-05, -5.996978692722522e-06, 9.956288112281982e+00, -4.220627843714748e+03, 7.920125843739385e+01, 4.233548565189602e+03
893, 1.499999999998713e-04, 2.499999999996604e-03, 6.690802585349860e-05, -8.459425775278954e-06, 2.897645313545581e+00, -6.339500011495428e+03, -9.480868830744942e+01, 6.345231499843823e+03
894, 1.999999999999386e-04, 2.499999999995341e-03, 6.695222798535560e-05, -1.092743211308754e-05, -5.896165794182707e+00, -8.455885992658097e+03, -2.967786832325612e+02, 8.470810965981278e+03
895, -2.000000000000358e-04, 2.400000000005491e-03, 6.255594730086576e-05, 8.554844985302611e-06, 2.529130907783701e+01, 8.747391578124607e+03, 5.416070118834159e+02, 8.789106082224225e+03
896, -1.500000000000929e-04, 2.400000000004260e-03, 6.238982361596700e-05, 6.171912435387674e-06, 2.441822440601618e+01, 6.565998625266364e+03, 5.348910057373386e+02, 6.628477026662689e+03
897, -1.000000000001632e-04, 2.400000000003029e-03, 6.225464260229484e-05, 3.791588340669941e-06, 2.305253800530500e+01, 4.384773722127770e+03, 5.005034096268104e+02, 4.475111880189692e+03
898, -5.000000000023145e-05, 2.400000000001797e-03, 6.215042310165781e-05, 1.412511875618340e-06, 2.101696338541763e+01, 2.204071236508961e+03, 4.383324972597581e+02, 2.352502385125012e+03
899, -3.333650629849805e-16, 2.400000000000566e-03, 6.207717590194424e-05, -9.666810523776103e-07, 1.813107743991281e+01, 2.425029050708315e+01, 3.482660669550280e+02, 6.965590128179073e+02
900, 4.999999999970184e-05, 2.399999999999334e-03, 6.203490367361831e-05, -3.347357819173837e-06, 1.421130566351428e+01, -2.154325213427468e+03, 2.301915203629260e+02, 2.216867875814708e+03
901, 9.999999999976805e-05, 2.399999999998102e-03, 6.202360090592371e-05, -5.730889100174119e-06, 9.070897628240118e+00, -4.331286569169133e+03, 8.399590488937912e+01, 4.343607278258068e+03
902, 1.499999999998670e-04, 2.399999999996872e-03, 6.204325384285054e-05, -8.118648886051261e-06, 2.519906122951625e+00, -6.506260236918022e+03, -9.043403329850855e+01, 6.511292667969933e+03
903, 1.999999999999366e-04, 2.399999999995640e-03, 6.209384041877357e-05, -1.051201449740873e-05, -5.634956495121514e+00, -8.678867906570738e+03, -2.932117893992132e+02, 8.693035282342304e+03
904, -2.000000000000378e-04, 2.300000000005451e-03, 5.781972180066713e-05, 8.357781106803219e-06, 2.402975554393231e+01, 8.973771432227744e+03, 5.402445488661725e+02, 9.014728657574204e+03
905, -1.500000000000972e-04, 2.300000000004251e-03, 5.765439319632880e-05, 6.051373887546245e-06, 2.286668771551342e+01, 6.736287670049807e+03, 5.355243913990934e+02, 6.798320879539287e+03
906, -1.000000000001708e-04, 2.300000000003051e-03, 5.752079389565002e-05, 3.747637971958920e-06, 2.134806693812902e+01, 4.498846094426000e+03, 5.027822341824128e+02, 4.589024785964401e+03
907, -5.000000000024163e-05, 2.300000000001851e-03, 5.741894733629006e-05, 1.445195207185913e-06, 1.929718399694161e+01, 2.261800537914992e+03, 4.419001544129163e+02, 2.410378451242531e+03
908, -3.461857536746216e-16, 2.300000000000652e-03, 5.734886891941084e-05, -8.573359804640072e-07, 1.653408491104574e+01, 2.550965611682977e+01, 3.527597592350760e+02, 7.055766094626615e+02
909, 4.999999999969163e-05, 2.299999999999453e-03, 5.731056594479926e-05, -3.161340604036428e-06, 1.287559699905114e+01, -2.209662990601282e+03, 2.352422022314819e+02, 2.271790780026927e+03
910, 9.999999999976044e-05, 2.299999999998253e-03, 5.730403754563167e-05, -5.468207133306337e-06, 8.135302499630598e+00, -4.443348908088879e+03, 8.922823511666022e+01, 4.455059863670403e+03
911, 1.499999999998626e-04, 2.299999999997052e-03, 5.732927462291055e-05, -7.779327511747177e-06, 2.123510634330955e+00, -6.675174640012750e+03, -8.540174820952356e+01, 6.679482347234994e+03
912, 1.999999999999347e-04, 2.299999999995853e-03, 5.738625977953681e-05, -1.009609717338599e-05, -5.352785349271585e+00, -8.904761743615347e+03, -2.887676861091302e+02, 8.918129115045918e+03
913, -2.000000000000396e-04, 2.200000000005174e-03, 5.323843030585384e-05, 8.145610032113050e-06, 2.268940046117484e+01, 9.203096606159603e+03, 5.379574143313345e+02, 9.243239106556523e+03
914, -1.500000000001016e-04, 2.200000000004032e-03, 5.307383103817383e-05, 5.917686206609137e-06, 2.122141907920422e+01, 6.908815984962619e+03, 5.354626901021926e+02, 6.970354372193186e+03
915, -1.000000000001784e-04, 2.200000000002889e-03, 5.294175728680186e-05, 3.692499776409668e-06, 1.954258393595194e+01, 4.614444518470471e+03, 5.045961277602170e+02, 4.704422684728859e+03
916, -5.000000000025179e-05, 2.200000000001748e-03, 5.284223732025972e-05, 1.468655276703393e-06, 1.747672279220797e+01, 2.320335323081569e+03, 4.452335463751568e+02, 2.469025997473067e+03
917, -3.590132206278407e-16, 2.200000000000606e-03, 5.277529138973508e-05, -7.552463372143852e-07, 1.484444948943224e+01, 2.684655278758453e+01, 3.572501967230539e+02, 7.146011913775560e+02
918, 4.999999999968146e-05, 2.199999999999464e-03, 5.274093166264412e-05, -2.980607708967440e-06, 1.146306901476123e+01, -2.265658623276778e+03, 2.405208259723735e+02, 2.327377122945573e+03
919, 9.999999999975283e-05, 2.199999999998322e-03, 5.273916215579150e-05, -5.208835100031457e-06, 7.146555716356829e+00, -4.556811982948945e+03, 9.491972306614389e+01, 4.567905051329737e+03
920, 1.499999999998582e-04, 2.199999999997180e-03, 5.276997866822447e-05, -7.441338408079668e-06, 1.705534752989024e+00, -6.846240215937754e+03, -7.967923099425263e+01, 6.849799714138417e+03
921, 1.999999999999328e-04, 2.199999999996038e-03, 5.283336871390956e-05, -9.679531184647708e-06, -5.052620347220454e+00, -9.133564799191865e+03, -2.834025205909576e+02, 9.146092201264113e+03
922, -2.000000000000416e-04, 2.100000000004828e-03, 4.881607003812623e-05, 7.918295386628151e-06, 2.127327195592591e+01, 9.435365997108423e+03, 5.347000611800456e+02, 9.474637642647498e+03
923, -1.500000000001059e-04, 2.100000000003754e-03, 4.865212618100652e-05, 5.770837613972152e-06, 1.948395062729867e+01, 7.083583648797314e+03, 5.346713862632631e+02, 7.144578259830346e+03
924, -1.000000000001860e-04, 2.100000000002678e-03, 4.852151360866046e-05, 3.626186730135463e-06, 1.763619051307660e+01, 4.731569950693244e+03, 5.059217991855848e+02, 4.821306769220462e+03
925, -5.000000000026199e-05, 2.100000000001603e-03, 4.842426566245324e-05, 1.482929972644420e-06, 1.555461600219019e+01, 2.379677384509405e+03, 4.483206624408360e+02, 2.528446584379385e+03
926, -3.718339113174818e-16, 2.100000000000528e-03, 4.836040768727447e-05, -6.603491622682645e-07, 1.306047599921578e+01, 2.826352417225598e+01, 3.617367204768898e+02, 7.236331615115865e+02
927, 4.999999999967128e-05, 2.099999999999452e-03, 4.832995696349426e-05, -2.805070941168956e-06, 9.971634879877797e+00, -2.322308911872168e+03, 2.460381485869656e+02, 2.383625732156462e+03
928, 9.999999999974523e-05, 2.099999999998377e-03, 4.833292263855790e-05, -4.952659413606849e-06, 6.102550378152046e+00, -4.671672022374280e+03, 1.010926086333857e+02, 4.682142011469794e+03
929, 1.499999999998539e-04, 2.099999999997302e-03, 4.836930565828655e-05, -7.104542431645141e-06, 1.264264274714265e+00, -7.019452676949396e+03, -7.323270038746500e+01, 7.022244547323554e+03
930, 1.999999999999309e-04, 2.099999999996226e-03, 4.843909869806475e-05, -9.262151668837368e-06, -4.735679801421611e+00, -9.365272545388267e+03, -2.770709623377949e+02, 9.376925065536867e+03
931, -2.000000000000435e-04, 2.000000000004496e-03, 4.455669015907741e-05, 7.675817554925843e-06, 1.978308045455594e+01, 9.670576711855590e+03, 5.304256072642225e+02, 9.708924915522688e+03
932, -1.500000000001103e-04, 2.000000000003499e-03, 4.439331919751062e-05, 5.610833068119804e-06, 1.765458347570552e+01, 7.260589222747762e+03, 5.331150494802343e+02, 7.320993703910439e+03
933, -1.000000000001936e-04, 2.000000000002501e-03, 4.426409482286743e-05, 3.548728523924929e-06, 1.562807386445115e+01, 4.850222315260326e+03, 5.067353164152740e+02, 4.939678552552595e+03
934, -5.000000000027220e-05, 2.000000000001505e-03, 4.416905569671039e-05, 1.488073880805418e-06, 1.352902616854715e+01, 2.439827739340970e+03, 4.511491608735922e+02, 2.588642058487411e+03
935, -3.846512138753339e-16, 2.000000000000507e-03, 4.410823250678119e-05, -5.725648111843082e-07, 1.117941614478525e+01, 2.976242803216678e+01, 3.662186519431777e+02, 7.326730051360702e+02
936, 4.999999999966107e-05, 1.999999999999510e-03, 4.408164789732651e-05, -2.634625432458530e-06, 8.397745323421645e+00, -2.379611424693893e+03, 2.518052337061498e+02, 2.440535043586553e+03
937, 9.999999999973761e-05, 1.999999999998513e-03, 4.408931639906096e-05, -4.699549815726194e-06, 4.999021768708076e+00, -4.787926315758038e+03, 1.077697739002362e+02, 4.797769334573298e+03
938, 1.499999999998495e-04, 1.999999999997515e-03, 4.413124435873253e-05, -6.768783767060832e-06, 7.947316269973044e-01, -7.194809394305643e+03, -6.602737658651964e+01, 7.196815767752738e+03
939, 1.999999999999290e-04, 1.999999999996517e-03, 4.420742986830644e-05, -8.843777085513213e-06, -4.407179444233520e+00, -9.599882407950352e+03, -2.697263511227306e+02, 9.610627142847363e+03
940, -2.000000000000454e-04, 1.900000000004165e-03, 4.046439175102779e-05, 7.418174492590913e-06, 1.822209691990884e+01, 9.908726286645717e+03, 5.250860570452063e+02, 9.946101477272234e+03
941, -1.500000000001146e-04, 1.900000000003247e-03, 4.030150218053759e-05, 5.437695067472856e-06, 1.573467154310651e+01, 7.439831524262589e+03, 5.307573656359303e+02, 7.499601829648457e+03
942, -1.000000000002012e-04, 1.900000000002328e-03, 4.017358400769213e-05, 3.460172365649475e-06, 1.351804588117864e+01, 4.970401678867534e+03, 5.070121336313058e+02, 5.059539560628565e+03
943, -5.000000000028235e-05, 1.900000000001409e-03, 4.008068146776842e-05, 1.484159083834963e-06, 1.139846186229681e+01, 2.500787569036574e+03, 4.537063263427928e+02, 2.649614283093265e+03
944, -3.974685164331859e-16, 1.900000000000491e-03, 4.002283084652724e-05, -4.917961593243966e-07, 9.198678957677998e+00, 3.134538377220895e+01, 3.706951864132978e+02, 7.417210806321340e+02
945, 4.999999999965091e-05, 1.899999999999572e-03, 4.000006040907629e-05, -2.469148847662299e-06, 6.737910250255140e+00, -2.437563293206346e+03, 2.578332587878181e+02, 2.498103346654812e+03
946, 9.999999999973007e-05, 1.899999999998654e-03, 4.001239032817583e-05, -4.449358590941033e-06, 3.831783123319155e+00, -4.905571446172351e+03, 1.149744440466386e+02, 4.914785504877511e+03
947, 1.499999999998452e-04, 1.899999999997735e-03, 4.005983261203826e-05, -6.433889147654950e-06, 2.922985514308039e-01, -7.372306587590894e+03, -5.802795200532535e+01, 7.373512277660000e+03
948, 1.999999999999271e-04, 1.899999999996817e-03, 4.014239103148260e-05, -8.424208447471567e-06, -4.072162461940138e+00, -9.837390675762721e+03, -2.613211381921872e+02, 9.847197973692219e+03
949, -2.000000000000473e-04, 1.800000000003828e-03, 3.654332784393832e-05, 7.145382555130451e-06, 1.659309704296982e+01, 1.014981083208186e+04, 5.186321790954212e+02, 1.018616802406478e+04
950, -1.500000000001189e-04, 1.800000000002982e-03, 3.638081875492011e-05, 5.251464483818313e-06, 1.372567983919214e+01, 7.621308679640477e+03, 5.275611169374904e+02, 7.680403767204094e+03
951, -1.000000000002088e-04, 1.800000000002135e-03, 3.625411535793080e-05, 3.360583809612413e-06, 1.130611527189421e+01, 5.092107762447413e+03, 5.067270530033186e+02, 5.180891294258467e+03
952, -5.000000000029254e-05, 1.800000000001289e-03, 3.616326772104101e-05, 1.471275988289773e-06, 9.161623189775810e+00, 2.562557962351752e+03, 4.559790785214784e+02, 2.711365070410654e+03
953, -4.102858189910380e-16, 1.800000000000442e-03, 3.610831798931455e-05, -4.179277768953148e-07, 7.115874146707711e+00, 3.301467561005654e+01, 3.751654435503077e+02, 7.507777221351432e+02
954, 4.999999999964072e-05, 1.799999999999596e-03, 3.608930031205804e-05, -2.308500561055771e-06, 4.988905457394708e+00, -2.496161189126939e+03, 2.641336303952305e+02, 2.556329027035111e+03
955, 9.999999999972246e-05, 1.799999999998750e-03, 3.610624076958907e-05, -4.201919743117777e-06, 2.597088531440590e+00, -5.024603163615141e+03, 1.227304006626579e+02, 5.033189185811510e+03
956, 1.499999999998409e-04, 1.799999999997903e-03, 3.615915729946054e-05, -6.099667030725122e-06, -2.468960596334000e-01, -7.551939162327012e+03, -4.919815405007375e+01, 7.552333276402087e+03
957, 1.999999999999252e-04, 1.799999999997057e-03, 3.624805962221296e-05, -8.003228484331271e-06, -3.734179914039487e+00, -1.007779150125762e+04, -2.518065761026259e+02, 1.008663755276209e+04
958, -2.000000000000492e-04, 1.700000000003484e-03, 3.279770341244582e-05, 6.857477359583988e-06, 1.490053328611907e+01, 1.039382672221105e+04, 5.110136738510145e+02, 1.042912502248403e+04
959, -1.500000000001233e-04, 1.700000000002704e-03, 3.263546406953560e-05, 5.052201415310840e-06, 1.162993464998431e+01, 7.805018739208346e+03, 5.234881092873460e+02, 7.863400553276971e+03
960, -1.000000000002164e-04, 1.700000000001925e-03, 3.250987416871807e-05, 3.250047607725769e-06, 8.992705923697827e+00, 5.215340093258528e+03, 5.058542074454505e+02, 5.303735196478920e+03
961, -5.000000000030273e-05, 1.700000000001145e-03, 3.242098987655381e-05, 1.449534172988860e-06, 6.817265766371975e+00, 2.625139765860330e+03, 4.579539508799803e+02, 2.773896176680845e+03
962, -4.231031215488901e-16, 1.700000000000365e-03, 3.236885946484949e-05, -3.508250832172001e-07, 4.928271024576020e+00, 3.477226897286948e+01, 3.796284389404593e+02, 7.598431883112580e+02
963, 4.999999999963053e-05, 1.699999999999585e-03, 3.235352323636119e-05, -2.152520813594913e-06, 3.146664159446459e+00, -2.555402253820147e+03, 2.707179293619828e+02, 2.615210384425449e+03
964, 9.999999999971485e-05, 1.699999999998805e-03, 3.237501345012270e-05, -3.957048156452320e-06, 1.289635809660467e+00, -5.145017989772959e+03, 1.310618837962444e+02, 5.152978851758147e+03
965, 1.499999999998365e-04, 1.699999999998025e-03, 3.243335424632835e-05, -5.765906762645553e-06, -8.294212800196874e-01, -7.733703417589458e+03, -3.950099031038650e+01, 7.733277542914175e+03
966, 1.999999999999232e-04, 1.699999999997246e-03, 3.252856157053337e-05, -7.580600822198068e-06, -3.400864471081263e+00, -1.032108117611278e+04, -2.411327022027047e+02, 1.032894510264843e+04
967, -2.000000000000511e-04, 1.600000000003144e-03, 2.923177540238619e-05, 6.554514655261467e-06, 1.314878110074869e+01, 1.064076920697950e+04, 5.021788787275200e+02, 1.067497308762487e+04
968, -1.500000000001277e-04, 1.600000000002436e-03, 2.906968480513084e-05, 4.839986058859672e-06, 9.449641921154125e+00, 7.990958832545191e+03, 5.184992793666837e+02, 8.048593353551356e+03
969, -1.000000000002240e-04, 1.600000000001727e-03, 2.894509682953234e-05, 3.128668580077689e-06, 6.578371099292440e+00, 5.340097731397145e+03, 5.043671381878530e+02, 5.428072734130157e+03
970, -5.000000000031292e-05, 1.600000000001018e-03, 2.885807401264671e-05, 1.419063258948137e-06, 4.364446739406844e+00, 2.688533725428249e+03, 4.596171713782553e+02, 2.837209279126228e+03
971, -4.359339766338982e-16, 1.600000000000309e-03, 2.880867102674037e-05, -2.903334778921304e-07, 2.633632116885678e+00, 3.662040738233748e+01, 3.840831586901958e+02, 7.689178057833600e+02
972, 4.999999999962034e-05, 1.599999999999600e-03, 2.879693460342470e-05, -2.001029845855927e-06, 1.207913178034232e+00, -2.615282867333645e+03, 2.775979790912093e+02, 2.674746073272136e+03
973, 9.999999999970728e-05, 1.599999999998891e-03, 2.882290345786145e-05, -3.714538731141317e-06, -9.455167569763034e-02, -5.266810979005098e+03, 1.399936457800401e+02, 5.274153468504356e+03
974, 1.499999999998322e-04, 1.599999999998182e-03, 2.888660821274853e-05, -5.432377719559524e-06, -1.459484165981166e+00, -7.917593027451229e+03, -2.889866605659000e+01, 7.916344535625345e+03
975, 1.999999999999214e-04, 1.599999999997473e-03, 2.898807132195545e-05, -7.156069125580238e-06, -3.076555850121849e+00, -1.056725230303971e+04, -2.292485762884346e+02, 1.057412071315765e+04
976, -2.000000000000531e-04, 1.500000000002802e-03, 2.584985269619126e-05, 6.236571224080012e-06, 1.134321843075281e+01, 1.089063313914721e+04, 4.920749873924629e+02, 1.092371275491405e+04
977, -1.500000000001320e-04, 1.500000000002160e-03, 2.568777913908618e-05, 4.614919604664524e-06, 7.188138005327119e+00, 8.179126135763372e+03, 5.125546876628005e+02, 8.235983236419450e+03
978, -1.000000000002316e-04, 1.500000000001518e-03, 2.556407078305342e-05, 2.996572508500821e-06, 4.064336566490169e+00, 5.466379704280454e+03, 5.022388399570480e+02, 5.553905345413238e+03
979, -5.000000000032311e-05, 1.500000000000877e-03, 2.547879681521579e-05, 1.380013802282711e-06, 1.802488070546360e+00, 2.752740467858499e+03, 4.609547350540455e+02, 2.901306057573865e+03
980, -4.487512791917503e-16, 1.500000000000236e-03, 2.543201858896571e-05, -2.362774478545209e-07, 2.295518356930870e-01, 3.856107818653004e+01, 3.885286583600541e+02, 7.780021718354259e+02
981, 4.999999999961016e-05, 1.499999999999595e-03, 2.542378954622740e-05, -1.853827005546995e-06, -8.313034252846592e-01, -2.675799845658593e+03, 2.847859610166670e+02, 2.734934894345117e+03
982, 9.999999999969963e-05, 1.499999999998952e-03, 2.545415514043551e-05, -3.474165492776552e-06, -1.560796612371519e+00, -5.389977846464006e+03, 1.495510926048030e+02, 5.396712000869506e+03
983, 1.499999999998278e-04, 1.499999999998311e-03, 2.552315276083597e-05, -5.098828419353228e-06, -2.143641328631816e+00, -8.103602739792463e+03, -1.735239996459063e+01, 8.101533431839958e+03
984, 1.999999999999195e-04, 1.499999999997670e-03, 2.563081165674954e-05, -6.729356214109905e-06, -2.768651236785104e+00, -1.081629862102634e+04, -2.161019090416239e+02, 1.082216385700673e+04
985, -2.000000000000549e-04, 1.400000000002461e-03, 2.265629612482196e-05, 5.903745798421336e-06, 9.489929594495379e+00, 1.114341280422198e+04, 4.806478864213674e+02, 1.117534465423946e+04
986, -1.500000000001364e-04, 1.400000000001890e-03, 2.249409673954686e-05, 4.377125151960572e-06, 4.849111336751321e+00, 8.369517326874655e+03, 5.056133609072606e+02, 8.425571425069151e+03
987, -1.000000000002392e-04, 1.400000000001320e-03, 2.237113450352346e-05, 2.853907047811537e-06, 1.452080017921730e+00, 5.594184793512808e+03, 4.994416374986995e+02, 5.681234637089496e+03
988, -5.000000000033329e-05, 1.400000000000748e-03, 2.228748554162839e-05, 1.332558204115007e-06, -8.691240805773077e-01, 2.817760567424586e+03, 4.619523313300890e+02, 2.966188322328794e+03
989, -4.615719698813914e-16, 1.400000000000178e-03, 2.224321817760751e-05, -1.884596574204948e-07, -2.286252377276128e+00, 4.059640081350744e+01, 3.929640083332487e+02, 7.870970520374315e+02
990, 4.999999999959998e-05, 1.399999999999606e-03, 2.223839285146776e-05, -1.710689838649961e-06, -2.974857860715474e+00, -2.736949679165228e+03, 2.922943303179676e+02, 2.795775782438777e+03
991, 9.999999999969204e-05, 1.399999999999035e-03, 2.227306204138002e-05, -3.235680688561247e-06, -3.114402167553976e+00, -5.514513731905519e+03, 1.597601148203584e+02, 5.520653561761121e+03
992, 1.499999999998235e-04, 1.399999999998463e-03, 2.234727018938850e-05, -4.764985628710712e-06, -2.888402921512807e+00, -8.291726264801389e+03, -4.822738991260991e+00, 8.288843473958164e+03
993, 1.999999999999176e-04, 1.399999999997893e-03, 2.246105363049678e-05, -6.300163185841297e-06, -2.484519961089745e+00, -1.106821231051524e+04, -2.016393843863147e+02, 1.107307388668500e+04
994, -2.000000000000568e-04, 1.300000000002126e-03, 1.965551847213305e-05, 5.556159995093630e-06, 7.595180830862887e+00, 1.139910136887161e+04, 4.678421903858272e+02, 1.142986957460979e+04
995, -1.500000000001407e-04, 1.300000000001629e-03, 1.949303875707280e-05, 4.126748636996749e-06, 2.435810909938709e+00, 8.562127703023423e+03, 4.976333320854847e+02, 8.617359283488377e+03
996, -1.000000000002468e-04, 1.300000000001133e-03, 1.937067747537012e-05, 2.700842651034921e-06, -1.257635897468504e+00, 5.723510496606234e+03, 4.959471236139919e+02, 5.810062337756274e+03
997, -5.000000000034346e-05, 1.300000000000637e-03, 1.928851798598841e-05, 1.276891634513959e-06, -3.651478436744242e+00, 2.883593955637054e+03, 4.625952215465318e+02, 3.031858102314608e+03
998, -4.743892724392434e-16, 1.300000000000140e-03, 1.924663587913908e-05, -1.466600235225424e-07, -4.916168836139377e+00, 4.272888605998367e+01, 3.973882072410627e+02, 7.962032405567800e+02
999, 4.999999999958981e-05, 1.299999999999644e-03, 1.924509888859304e-05, -1.571373162892005e-06, -5.226310921369418e+00, -2.798727590967478e+03, 3.001358753196957e+02, 2.857267151708942e+03
1000, 9.999999999968445e-05, 1.299999999999148e-03, 1.928396680866172e-05, -2.998813860155171e-06, -4.760375276106629e+00, -5.640412271392423e+03, 1.706473172551319e+02, 5.645976826178525e+03
1001, 1.499999999998191e-04, 1.299999999998652e-03, 1.936329142499421e-05, -4.430553439193771e-06, -3.700466989779216e+00, -8.481956152633325e+03, 8.730821609087911e+00, 8.478273667447344e+03
1002, 1.999999999999157e-04, 1.299999999998155e-03, 1.948311644958392e-05, -5.868168499478494e-06, -2.232558129539143e+00, -1.132298488494706e+04, -1.858064525048693e+02, 1.132684993262973e+04
1003, -2.000000000000587e-04, 1.200000000001781e-03, 1.685198443104370e-05, 5.193959282059739e-06, 5.666886331662681e+00, 1.165769158165004e+04, 4.536015811894061e+02, 1.168728784098943e+04
1004, -1.500000000001450e-04, 1.200000000001350e-03, 1.668905779028488e-05, 3.863959805427946e-06, -4.923855517279208e-02, 8.756948986752333e+03, 4.885717344466801e+02, 8.811346507591208e+03
1005, -1.000000000002543e-04, 1.200000000000919e-03, 1.656714017815886e-05, 2.537573538854263e-06, -4.066404219742367e+00, 5.854349262766472e+03, 4.917256244485221e+02, 5.940388075382507e+03
1006, -5.000000000035367e-05, 1.200000000000488e-03, 1.648632247295754e-05, 1.213232983246713e-06, -6.547685739391909e+00, 2.950237619636913e+03, 4.628670996302874e+02, 3.098316179761172e+03
1007, -4.872353741173022e-16, 1.200000000000057e-03, 1.644668782062377e-05, -1.106347941783152e-07, -7.662992081964262e+00, 4.496248401989726e+01, 4.017990049628636e+02, 8.053193169740415e+02
1008, 4.999999999957962e-05, 1.199999999999626e-03, 1.644831154429913e-05, -1.435608167940476e-06, -7.588026101925720e+00, -2.861123459676918e+03, 3.083231301830751e+02, 2.919403548859180e+03
1009, 9.999999999967686e-05, 1.199999999999196e-03, 1.649126107029588e-05, -2.763270944262353e-06, -6.502279057425653e+00, -5.767660943090284e+03, 1.822403686227442e+02, 5.772676620077023e+03
1010, 1.499999999998148e-04, 1.199999999998765e-03, 1.657559584330466e-05, -4.095212350733927e-06, -4.587046068959808e+00, -8.674281963297874e+03, 2.335076046728318e+01, 8.669820701138084e+03
1011, 1.999999999999137e-04, 1.199999999998334e-03, 1.670136726169992e-05, -5.433027046968805e-06, -2.024438940225423e+00, -1.158060924875248e+04, -1.685463951188796e+02, 1.158349074101781e+04
1012, -2.000000000000607e-04, 1.100000000001707e-03, 1.425021052425302e-05, 4.817313985896023e-06, 3.717683159303874e+00, 1.191917822542179e+04, 4.378704368044843e+02, 1.194759900615699e+04
1013, -1.500000000001494e-04, 1.100000000001301e-03, 1.408665785225278e-05, 3.588953316582397e-06, -2.606160541261829e+00, 8.953961158281123e+03, 4.783856592588522e+02, 9.007525159139735e+03
1014, -1.000000000002619e-04, 1.100000000000895e-03, 1.396501414890544e-05, 2.364318835558304e-06, -6.981802208784188e+00, 5.986676772718436e+03, 4.867444550692547e+02, 6.072200900082378e+03
1015, -5.000000000036384e-05, 1.100000000000489e-03, 1.388537801070961e-05, 1.141825906269195e-06, -9.566260148719948e+00, 3.017677885263248e+03, 4.627459313655290e+02, 3.165555607458577e+03
1016, -5.000628410705213e-16, 1.100000000000083e-03, 1.384784031643072e-05, -8.011566737753219e-08, -1.053077452194691e+01, 4.730487264281112e+01, 4.061881085480636e+02, 8.144323668582803e+02
1017, 4.999999999956943e-05, 1.099999999999677e-03, 1.385248426524924e-05, -1.303101675936433e-06, -1.005923857057576e+01, -2.924110140293142e+03, 3.168656079242398e+02, 2.982164970582763e+03
1018, 9.999999999966927e-05, 1.099999999999272e-03, 1.389938529927522e-05, -2.528733558982879e-06, -8.339547245581343e+00, -5.896227162887701e+03, 1.945685426025466e+02, 5.900732856647026e+03
1019, 1.499999999998105e-04, 1.099999999998866e-03, 1.398861099039573e-05, -3.758618449156213e-06, -5.554469573326060e+00, -8.868682483262412e+03, 3.908472274564622e+01, 8.863472719495934e+03
1020, 1.999999999999118e-04, 1.099999999998460e-03, 1.412022082598749e-05, -4.994369176009128e-06, -1.879377443874318e+00, -1.184108562150210e+04, -1.497973997427944e+02, 1.184299630723688e+04
1021, -2.000000000000626e-04, 1.000000000002109e-03, 1.185476498945535e-05, 4.426420293757795e-06, 1.769571037854234e+00, 1.218356399989090e+04, 4.205988074227118e+02, 1.221080377919721e+04
1022, -1.500000000001537e-04, 1.000000000001674e-03, 1.169039435838278e-05, 3.301950208739456e-06, -5.235101180272750e+00, 9.153120863767699e+03, 4.670350414796958e+02, 9.205866113548353e+03
1023, -1.000000000002696e-04, 1.000000000001239e-03, 1.156884226790499e-05, 2.181324190896436e-06, -1.001797762641172e+01, 6.120431791203170e+03, 4.809642837573298e+02, 6.205458962650826e+03
1024, -5.000000000037402e-05, 1.000000000000804e-03, 1.149021481098259e-05, 1.062940174885428e-06, -1.272175778059727e+01, 3.085878608455052e+03, 4.621934984207480e+02, 3.233545352947031e+03
1025, -5.128852258260569e-16, 1.000000000000369e-03, 1.145461045010636e-05, -5.480901841969319e-08, -1.352704435309158e+01, 4.977110874572963e+01, 4.105291343922854e+02, 8.234945882792663e+02
1026, 4.999999999955924e-05, 9.999999999999337e-04, 1.146212038043216e-05, -1.173535888914705e-06, -1.263951445246119e+01, -2.987625479288529e+03, 3.257618887521932e+02, 3.045492525622937e+03
1027, 9.999999999966167e-05, 9.999999999994987e-04, 1.151282874889808e-05, -2.294858873429928e-06, -1.026994638941915e+01, -6.026035116553579e+03, 2.076633847074387e+02, 6.030085149311975e+03
1028, 1.499999999998061e-04, 9.999999999990637e-04, 1.160681214455019e-05, -3.420402915667387e-06, -6.613106266904424e+00, -9.065116047284711e+03, 5.599295590937714e+01, 9.059195128535102e+03
1029, 1.999999999999099e-04, 9.999999999986283e-04, 1.174413898623925e-05, -4.551799558553767e-06, -1.831201208922266e+00, -1.210443503304575e+04, -1.294847025280010e+02, 1.210537420582885e+04
1030, -2.000000000000644e-04, 9.000000000025380e-04, 9.670268092238575e-06, 4.021501121146678e-06, -1.451791208198756e-01, 1.245087063160670e+04, 4.017486901353280e+02, 1.247691479329279e+04
1031, -1.500000000001581e-04, 9.000000000020734e-04, 9.504874569265944e-06, 3.003199974512625e-06, -7.920116453779656e+00, 9.354367277933945e+03, 4.544859975158835e+02, 9.406309336975013e+03
1032, -1.000000000002772e-04, 9.000000000016087e-04, 9.383219461927313e-06, 1.988864328801840e-06, -1.315588064633539e+01, 6.255542147476965e+03, 4.743332184970021e+02, 6.340074366793803e+03
1033, -5.000000000038420e-05, 9.000000000011442e-04, 9.305415355243751e-06, 9.768735816882411e-07, -1.600789844756514e+01, 3.154802068828779e+03, 4.611432541135727e+02, 3.302218686252749e+03
1034, -5.256991402521199e-16, 9.000000000006796e-04, 9.271567075424766e-06, -3.439531068466252e-08, -1.666563243538963e+01, 5.238815761869489e+01, 4.147623992818696e+02, 8.323940277014520e+02
1035, 4.999999999954906e-05, 9.000000000002148e-04, 9.281773896353600e-06, -1.046569020945187e-06, -1.536094380281406e+01, -3.051585703794067e+03, 3.349902714328612e+02, 3.109265945685990e+03
1036, 9.999999999965402e-05, 8.999999999997502e-04, 9.336129679838025e-06, -2.061280600072388e-06, -1.233441756706600e+01, -6.156988906532495e+03, 2.215578908807933e+02, 6.160611202211123e+03
1037, 1.499999999998018e-04, 8.999999999992857e-04, 9.434722201745352e-06, -3.080172145597506e-06, -7.797020484429822e+00, -9.263530099279922e+03, 7.415772800796395e+01, 9.256921318689183e+03
1038, 1.999999999999080e-04, 8.999999999988212e-04, 9.577630494968875e-06, -4.104895678466642e-06, -1.931877706917248e+00, -1.237072280925078e+04, -1.075099418244830e+02, 1.237065975033693e+04
1039, -2.000000000000664e-04, 8.000000000027327e-04, 7.701395493207815e-06, 3.602806348408499e-06, -2.085590759059187e+00, 1.272106413475258e+04, 3.812711988069142e+02, 1.274598014457678e+04
1040, -1.500000000001624e-04, 8.000000000022627e-04, 7.534760083768013e-06, 2.692982523433379e-06, -1.053128566625855e+01, 9.557811748404631e+03, 4.406847865773100e+02, 9.608850125906620e+03
1041, -1.000000000002848e-04, 8.000000000017928e-04, 7.412794145040554e-06, 1.787245169889678e-06, -1.616233842542749e+01, 6.392243689095721e+03, 4.667894052687823e+02, 6.476051050528717e+03
1042, -5.000000000039436e-05, 8.000000000013229e-04, 7.335614069486909e-06, 8.839534662083148e-07, -1.923772391917635e+01, 3.224673678490893e+03, 4.595323492511457e+02, 3.371593259383340e+03
1043, -5.385198309417610e-16, 8.000000000008525e-04, 7.303330161535097e-06, -1.852867873932689e-08, -1.996354858062512e+01, 5.519804094391645e+01, 4.188459536697180e+02, 8.410570706924934e+02
1044, 4.999999999953886e-05, 8.000000000003829e-04, 7.316049010352786e-06, -9.218358485173342e-07, -1.844652640870925e+01, -3.116147563327456e+03, 3.445391417813232e+02, 3.173417809713231e+03
1045, 9.999999999964645e-05, 7.999999999999128e-04, 7.373876534028217e-06, -1.827609768872688e-06, -1.480173264292421e+01, -6.289294211296727e+03, 2.362880243038367e+02, 6.292263820470401e+03
1046, 1.499999999997974e-04, 7.999999999994429e-04, 7.476913889568553e-06, -2.737507737774344e-06, -9.267253707810823e+00, -9.464057776017886e+03, 9.365925715193220e+01, 9.456645919487810e+03
1047, 1.999999999999061e-04, 7.999999999989728e-04, 7.625254268131096e-06, -3.653205337408805e-06, -2.148887403205208e+00, -1.263999577202445e+04, -8.376923292338648e+01, 1.263895735480855e+04
1048, -2.000000000000683e-04, 7.000000000024487e-04, 5.952892737182674e-06, 3.170613071235756e-06, -4.536116223644967e+00, 1.299374569277821e+04, 3.589169843566797e+02, 1.301808801602091e+04
1049, -1.500000000001667e-04, 7.000000000020254e-04, 5.784777832283727e-06, 2.371602660873652e-06, -1.271697862096244e+01, 9.764399996996526e+03, 4.253932273815162e+02, 9.814064089179159e+03
1050, -1.000000000002923e-04, 7.000000000016023e-04, 5.662267776066496e-06, 1.576794552157415e-06, -1.799386910206090e+01, 6.532550903758674e+03, 4.582926257743605e+02, 6.614360539357508e+03
1051, -5.000000000040459e-05, 7.000000000011791e-04, 5.585487192605224e-06, 7.845293591882709e-07, -2.153244917414190e+01, 3.297142525111391e+03, 4.576064673924445e+02, 3.442559847111834e+03
1052, -5.513337453678241e-16, 7.000000000007558e-04, 5.554554750846755e-06, -6.836344698540128e-09, -2.341665777748892e+01, 5.825132657154086e+01, 4.231511806327350e+02, 8.502337010205745e+02
1053, 4.999999999952868e-05, 7.000000000003326e-04, 5.569590540209154e-06, -7.989391203627462e-07, -2.278413713161456e+01, -3.182886173448802e+03, 3.546932990994543e+02, 3.238745779717860e+03
1054, 9.999999999963887e-05, 6.999999999999092e-04, 5.630708499778210e-06, -1.593423865202937e-06, -1.876346315740295e+01, -6.424956941451801e+03, 2.518975981478496e+02, 6.425972648646451e+03
1055, 1.499999999997930e-04, 6.999999999994860e-04, 5.738022051169299e-06, -2.391958854147933e-06, -1.143014252503917e+01, -9.667697447623956e+03, 1.143914450307672e+02, 9.658977165223405e+03
1056, 1.999999999999042e-04, 6.999999999990628e-04, 5.891635296043829e-06, -3.196243746825672e-06, -2.025815500003318e+00, -1.291197186742097e+04, -5.834482993414815e+01, 1.291047340496196e+04
1057, -2.000000000000702e-04, 6.000000000020976e-04, 4.429618544834274e-06, 2.725228680600071e-06, -9.838357854277319e+00, 1.326650582929838e+04, 3.334937142748279e+02, 1.329308794846350e+04
1058, -1.500000000001711e-04, 6.000000000017323e-04, 4.259746048813638e-06, 2.039352574325957e-06, -1.341831395352870e+01, 9.978337711043432e+03, 4.074934351890412e+02, 1.002493850664191e+04
1059, -1.000000000003000e-04, 6.000000000013669e-04, 4.136386332946524e-06, 1.357796127796844e-06, -1.577173008863133e+01, 6.684395727354249e+03, 4.490154881111378e+02, 6.760081626136723e+03
1060, -5.000000000041474e-05, 6.000000000010013e-04, 4.059696546601328e-06, 6.789225839226232e-07, -2.047962301789357e+01, 3.378408166498825e+03, 4.570369164160251e+02, 3.519654695789648e+03
1061, -5.641662945187267e-16, 6.000000000006360e-04, 4.029862358500319e-06, 1.083014045793714e-09, -2.692479844452191e+01, 6.157209534580340e+01, 4.300706299248606e+02, 8.646818415500591e+02
1062, 4.999999999951849e-05, 6.000000000002706e-04, 4.047030411421779e-06, -6.773957343658781e-07, -3.066371986640411e+01, -3.258002084297234e+03, 3.671000269801426e+02, 3.309797975369848e+03
1063, 9.999999999963128e-05, 5.999999999999052e-04, 4.111311807012901e-06, -1.358197461041480e-06, -2.710668753656387e+01, -6.571986566282194e+03, 2.685470049685639e+02, 6.566880736142522e+03
1064, 1.499999999997888e-04, 5.999999999995398e-04, 4.222775386883464e-06, -2.043001443168017e-06, -1.544678114650492e+01, -9.878786159434299e+03, 1.352899756827011e+02, 9.867050075952971e+03
1065, 1.999999999999023e-04, 5.999999999991742e-04, 4.381513678022465e-06, -2.733492962765569e-06, 7.503877826031840e-01, -1.318436878917291e+04, -3.227774860890815e+01, 1.318527721069000e+04
1066, -2.000000000000721e-04, 5.000000000017480e-04, 3.136615442763347e-06, 2.267026194385059e-06, -2.188575182679574e+01, 1.353460004738475e+04, 3.008710809850805e+02, 1.356983422351640e+04
1067, -1.500000000001754e-04, 5.000000000014432e-04, 2.964625084159632e-06, 1.696367071744197e-06, -1.084332246183726e+01, 1.021203977077829e+04, 3.836410925103805e+02, 1.025163697608850e+04
1068, -1.000000000003076e-04, 5.000000000011384e-04, 2.839870122815087e-06, 1.130251080349993e-06, -6.802143320880532e+00, 6.866345789138853e+03, 4.398932831367755e+02, 6.929227006215840e+03
1069, -5.000000000042491e-05, 5.000000000008338e-04, 2.762736096166471e-06, 5.672478716091631e-07, -1.398207557033220e+01, 3.481993815977676e+03, 4.639636048093490e+02, 3.617028661848788e+03
1070, -5.769852911424733e-16, 5.000000000005289e-04, 2.733627763015183e-06, 5.663875502916995e-09, -3.026200069530455e+01, 6.495622626432657e+01, 4.477173105280998e+02, 9.004830211233278e+02
1071, 4.999999999950832e-05, 5.000000000002242e-04, 2.752841537106599e-06, -5.564494716061893e-07, -4.369140472362710e+01, -3.355274058833485e+03, 3.877441734211088e+02, 3.401170658918686e+03
1072, 9.999999999962365e-05, 4.999999999999196e-04, 2.820362381283775e-06, -1.121055089251939e-06, -4.225696692599377e+01, -6.749142977282949e+03, 2.869362793510043e+02, 6.731392847661844e+03
1073, 1.499999999997844e-04, 4.999999999996149e-04, 2.936062920113507e-06, -1.689886452817608e-06, -2.314254200325502e+01, -1.010997318907015e+04, 1.528158904409063e+02, 1.009145991856941e+04
1074, 1.999999999999003e-04, 4.999999999993100e-04, 3.099830249232122e-06, -2.264431367123026e-06, 1.002301635012145e+01, -1.345257200321183e+04, -9.689202447874550e+00, 1.346260896644148e+04
1075, -2.000000000000740e-04, 4.000000000013997e-04, 2.079092458672738e-06, 1.796492625445147e-06, -4.666136982092166e+01, 1.378908028925208e+04, 2.508749799360619e+02, 1.384483659270993e+04
1076, -1.500000000001797e-04, 4.000000000011572e-04, 1.904341726741444e-06, 1.342248033475822e-06, 2.177318808677228e+00, 1.049851236498757e+04, 3.472744091559931e+02, 1.051928930406716e+04
1077, -1.000000000003152e-04, 4.000000000009148e-04, 1.777203713121180e-06, 8.933696680671610e-07, 1.384784659099296e+00, 7.100907863186513e+03, 4.361980344079591e+02, 7.152922678418161e+03
1078, -5.000000000043512e-05, 4.000000000006724e-04, 1.698596104350470e-06, 4.490615005436045e-07, -3.159604366200756e+01, 3.592737191607764e+03, 4.915865816816474e+02, 3.755319010342375e+03
1079, -5.898025937003254e-16, 4.000000000004300e-04, 1.669708653181340e-06, 7.385234490468088e-09, -3.325648805575497e+01, 6.746105328397255e+01, 4.925021305722437e+02, 9.901400999890456e+02
1080, 4.999999999949812e-05, 4.000000000001875e-04, 1.691016836485599e-06, -4.346982678308458e-07, -3.170720479888928e+01, -3.460885067162748e+03, 4.296210315852554e+02, 3.535188500610382e+03
1081, 9.999999999961606e-05, 3.999999999999452e-04, 1.762339989902308e-06, -8.802450567399951e-07, -5.533960388767468e+01, -6.978966141077176e+03, 3.118338212808787e+02, 6.951659208768310e+03
1082, 1.499999999997800e-04, 3.999999999997027e-04, 1.882788910589289e-06, -1.331245084688227e-06, -4.098400719198548e+01, -1.039427814109592e+04, 1.597377511037306e+02, 1.035822204915691e+04
1083, 1.999999999998984e-04, 3.999999999994603e-04, 2.051742292950059e-06, -1.788568921094054e-06, 3.169978518666710e+01, -1.370788363792852e+04, -1.231386838968945e+00, 1.373958364383710e+04
1084, -2.000000000000760e-04, 3.000000000010516e-04, 1.261291708515730e-06, 1.314374935012754e-06, -1.515096645964240e+01, 1.410201505593189e+04, 1.733380784773708e+02, 1.412142205521692e+04
1085, -1.500000000001842e-04, 3.000000000008717e-04, 1.082980912423996e-06, 9.753243086405660e-07, 1.946675593799682e+00, 1.083949390879275e+04, 3.095352934648996e+02, 1.085521434258300e+04
1086, -1.000000000003227e-04, 3.000000000006917e-04, 9.517011165705091e-07, 6.452260876067572e-07, -1.591736066299009e+02, 7.195170883695253e+03, 4.549707503052754e+02, 7.410423497810994e+03
1087, -5.000000000044532e-05, 3.000000000005118e-04, 8.709772344015780e-07, 3.239005944477098e-07, -1.240680355754134e+02, 3.626386451086095e+03, 5.483619432421445e+02, 3.907519947448079e+03
1088, -6.026207432911247e-16, 3.000000000003319e-04, 8.420315804119238e-07, 6.798479733385564e-09, -3.612673929090943e+01, 6.695833744415347e+01, 5.628091283156023e+02, 1.130328710025073e+03
1089, 4.999999999948792e-05, 3.000000000001520e-04, 8.652973378546019e-07, -3.105841418148624e-07, 5.569576893616954e+01, -3.494985571801226e+03, 5.010978226289070e+02, 3.689408366504640e+03
1090, 9.999999999960845e-05, 2.999999999999720e-04, 9.406359694388909e-07, -6.327624407283254e-07, 1.024109862712180e+02, -7.071297726883403e+03, 3.599047576043252e+02, 7.209731093416414e+03
1091, 1.499999999997756e-04, 2.999999999997920e-04, 1.067119058717903e-06, -9.643265009816926e-07, -4.091957177642928e+01, -1.073123154956020e+04, 1.658698130185582e+02, 1.069545797812466e+04
1092, 1.999999999998966e-04, 2.999999999996122e-04, 1.241544953778882e-06, -1.305555663289065e-06, -1.996514134464405e+00, -1.402183135527213e+04, -1.901850716006751e+01, 1.401988643988374e+04
1093, -2.000000000000778e-04, 2.000000000007014e-04, 6.809945837051438e-07, 8.201799096550171e-07, 1.744269664119707e+02, 1.453330405568172e+04, 1.379396434523488e+02, 1.436152710005795e+04
1094, -1.500000000001885e-04, 2.000000000005817e-04, 4.973400724445559e-07, 5.938083612189852e-07, -7.125374079531541e+02, 1.020928425152432e+04, 3.460700457391648e+02, 1.094373091169839e+04
1095, -1.000000000003304e-04, 2.000000000004620e-04, 3.658927810229649e-07, 3.889365556145077e-07, -5.157223842848873e+02, 6.764529124249739e+03, 4.924674871161710e+02, 7.346574639312307e+03
1096, -5.000000000045550e-05, 2.000000000003424e-04, 2.866237359050811e-07, 1.943468903798162e-07, -2.724519093739494e+02, 3.402415800323211e+03, 5.304435530806675e+02, 3.824935834206140e+03
1097, -6.154388928819240e-16, 2.000000000002227e-04, 2.589022223507318e-07, 4.595125805368880e-09, -3.914389140112826e+01, 5.927026289136836e+01, 5.290690469971950e+02, 1.062704837538245e+03
1098, 4.999999999947777e-05, 2.000000000001030e-04, 2.825384883396341e-07, -1.853197101544840e-07, 1.984688566941604e+02, -3.285812549394186e+03, 4.976943762437100e+02, 3.623674334897032e+03
1099, 9.999999999960084e-05, 1.999999999999833e-04, 3.579855082130966e-07, -3.804077270560774e-07, 4.549664957509985e+02, -6.653437688145146e+03, 4.263182907199513e+02, 7.159357455920311e+03
1100, 1.499999999997714e-04, 1.999999999998636e-04, 4.861480578930313e-07, -5.861240402391322e-07, 6.754633577620017e+02, -1.010458697859907e+04, 2.452650033099050e+02, 1.079120498099600e+04
1101, 1.999999999998946e-04, 1.999999999997439e-04, 6.673176213657120e-07, -8.136801636995241e-07, -1.846073128761082e+02, -1.444685619826864e+04, 1.275091688777906e+00, 1.426224911338726e+04
1102, -2.000000000000798e-04, 1.000000000003506e-04, 2.993718552020620e-07, 3.163808022903950e-07, -4.543341918693405e+03, 8.096993263617737e+03, 7.969622072871359e+02, 1.274043439449962e+04
1103, -1.500000000001928e-04, 1.000000000002906e-04, 1.394166747721374e-07, 2.274675351253924e-07, -2.102476158000924e+03, 6.834105722370028e+03, 6.444273863204190e+02, 9.029044375211226e+03
1104, -1.000000000003380e-04, 1.000000000002307e-04, 3.250973775626452e-08, 1.478010536366314e-07, -8.562043399902307e+02, 4.904715856417040e+03, 2.362359901050122e+02, 5.780262215631465e+03
1105, -5.000000000046567e-05, 1.000000000001708e-04, -2.954891105558431e-08, 7.369991069732007e-08, -3.065694594461496e+02, 2.551313235910417e+03, -1.947431626076423e+01, 2.858148088604544e+03
1106, -6.282434899455673e-16, 1.000000000001108e-04, -5.066765703587122e-08, 1.773196219508034e-09, -3.544473192521957e+01, 3.787630026240868e+01, -1.147666827790154e+02, 2.409596224794848e+02
1107, 4.999999999946757e-05, 1.000000000000509e-04, -3.203266914004071e-08, -7.022777386370247e-08, 2.370237288478443e+02, -2.478629289257287e+03, -4.213086901581363e+01, 2.716959947301325e+03
1108, 9.999999999959325e-05, 9.999999999999091e-05, 2.770065236447675e-08, -1.445613299029326e-07, 7.922871093432864e+02, -4.840286086787657e+03, 1.901937923092000e+02, 5.645403043566027e+03
1109, 1.499999999997670e-04, 9.999999999993101e-05, 1.326234394482167e-07, -2.246504944144287e-07, 2.055230244179395e+03, -6.778523945620017e+03, 5.737773564405383e+02, 8.907979282915639e+03
1110, 1.999999999998927e-04, 9.999999999987105e-05, 2.911894636502355e-07, -3.141514882797707e-07, 4.530496568570449e+03, -8.039025686892905e+03, 6.978415573267885e+02, 1.264677117240277e+04
