"PointID","x","y","Displacement_x","Displacement_y","Sxx","Syy","Sxy","Von_Mises_Stress"
0, -2.500000000000000e-04, 0.000000000000000e+00, 0.000000000000000e+00, 0.000000000000000e+00, 2.673637437634596e+04, 3.267498483758923e+04, 3.338677716009704e+03, 8.936116034156410e+03
1, 2.500000000000000e-04, 0.000000000000000e+00, 0.000000000000000e+00, 0.000000000000000e+00, -2.684288890483115e+04, -3.281037859193913e+04, 3.287264409273669e+03, 8.878927995633792e+03
2, 2.500000000000000e-04, 1.000000000000000e-02, 5.216444319493319e-04, -3.312507339832622e-05, 1.322651225719625e+01, 1.018583794022537e+01, 2.460255913122694e+00, 5.784214461282284e+00
3, -2.500000000000000e-04, 1.000000000000000e-02, 5.228853252664813e-04, 2.049451532576850e-06, 3.994359072669988e+00, 2.410759950900422e+01, 2.102845755752905e+00, 2.054824279445185e+01
4, -2.000000000000817e-04, 0.000000000000000e+00, 0.000000000000000e+00, 0.000000000000000e+00, 1.803494095055265e+04, 2.204140817271796e+04, 1.895145766304863e+03, 5.515259695105759e+03
5, -1.500000000001972e-04, 0.000000000000000e+00, 0.000000000000000e+00, 0.000000000000000e+00, 1.297003889307116e+04, 1.585350787950751e+04, 8.796384928145244e+02, 3.377787575899989e+03
6, -1.000000000003456e-04, 0.000000000000000e+00, 0.000000000000000e+00, 0.000000000000000e+00, 8.428804973147133e+03, 1.030271127809311e+04, 2.013749841572349e+02, 1.916698300905382e+03
7, -5.000000000047588e-05, 0.000000000000000e+00, 0.000000000000000e+00, 0.000000000000000e+00, 4.200579633730466e+03, 5.133979416796072e+03, -1.918282236470280e+02, 1.009171652682146e+03
8, -6.410887445906788e-16, 0.000000000000000e+00, 0.000000000000000e+00, 0.000000000000000e+00, 9.179338429322331e+01, 1.117134964033497e+02, -3.248902125461302e+02, 6.500856956583174e+02
9, 4.999999999945738e-05, 0.000000000000000e+00, 0.000000000000000e+00, 0.000000000000000e+00, -4.025876605531244e+03, -4.920610041599611e+03, -2.054519779318151e+02, 9.845760420419978e+02
10, 9.999999999958566e-05, 0.000000000000000e+00, 0.000000000000000e+00, 0.000000000000000e+00, -8.281110576878058e+03, -1.012054539365688e+04, 1.748921394171371e+02, 1.872396722625239e+03
11, 1.499999999997626e-04, 0.000000000000000e+00, 0.000000000000000e+00, 0.000000000000000e+00, -1.286891248033220e+04, -1.572738602344060e+04, 8.419407976765848e+02, 3.317578668821563e+03
12, 1.999999999998909e-04, 0.000000000000000e+00, 0.000000000000000e+00, 0.000000000000000e+00, -1.799660363501066e+04, -2.199695005602167e+04, 1.849085700712974e+03, 5.447865931024779e+03
13, 2.500000000000000e-04, 9.999999999981111e-05, 4.144824945616568e-07, -3.745256210936615e-07, 1.432137501169441e+03, -1.104073474047210e+04, 8.531102322147217e+02, 1.258903214030173e+04
14, 2.500000000000000e-04, 1.999999999996242e-04, 7.118201242182627e-07, -8.459846313150089e-07, -2.868055392915596e+03, -1.603326866411506e+04, -1.069404055640364e+02, 1.316695050030702e+04
15, 2.500000000000000e-04, 2.999999999994322e-04, 1.171599775934315e-06, -1.323102760643578e-06, -3.059337516708810e+03, -1.629038453761635e+04, -5.716783892635533e+01, 1.323154102577233e+04
16, 2.500000000000000e-04, 3.999999999992179e-04, 1.817440497164087e-06, -1.803073444471499e-06, -3.337973657828499e+03, -1.645048650704990e+04, -5.956503088737213e+01, 1.311305399945470e+04
17, 2.500000000000000e-04, 4.999999999990053e-04, 2.653195703893056e-06, -2.277927679496349e-06, -3.348703801435699e+03, -1.623758330014015e+04, -7.190809193851186e+01, 1.288968183575021e+04
18, 2.500000000000000e-04, 5.999999999988090e-04, 3.675866144072361e-06, -2.745759176160961e-06, -3.302797221727833e+03, -1.593666835762071e+04, -9.121554172459122e+01, 1.263518820511019e+04
19, 2.500000000000000e-04, 6.999999999986395e-04, 4.881620766342455e-06, -3.206256450234183e-06, -3.237220433010040e+03, -1.561049211109316e+04, -1.109963532248348e+02, 1.237526293786805e+04
20, 2.500000000000000e-04, 7.999999999985029e-04, 6.266597818956930e-06, -3.659695593399225e-06, -3.169237374751842e+03, -1.528372019249628e+04, -1.298414408845996e+02, 1.211726574522938e+04
21, 2.500000000000000e-04, 8.999999999983563e-04, 7.827050896614587e-06, -4.106447433840351e-06, -3.101926624621653e+03, -1.496066990588318e+04, -1.473551327347391e+02, 1.186240474572666e+04
22, 2.500000000000000e-04, 9.999999999981935e-04, 9.559313549539166e-06, -4.546872323274811e-06, -3.035766903423978e+03, -1.464171645574351e+04, -1.635588583240047e+02, 1.161055860032285e+04
23, 2.500000000000000e-04, 1.099999999998054e-03, 1.145977223154164e-05, -4.981302410872902e-06, -2.970563666643342e+03, -1.432647898620041e+04, -1.785191766225455e+02, 1.136152670773778e+04
24, 2.500000000000000e-04, 1.199999999997903e-03, 1.352485399690678e-05, -5.410046426665726e-06, -2.906180049578372e+03, -1.401473955870329e+04, -1.922973764515531e+02, 1.111521513474797e+04
25, 2.500000000000000e-04, 1.299999999997659e-03, 1.575102323165355e-05, -5.833394057041427e-06, -2.842555712475647e+03, -1.370642147905818e+04, -2.049433208224793e+02, 1.087159539595376e+04
26, 2.500000000000000e-04, 1.399999999997322e-03, 1.813478126709150e-05, -6.251618235566384e-06, -2.779671062745751e+03, -1.340151150832703e+04, -2.165016202317375e+02, 1.063066255026648e+04
27, 2.500000000000000e-04, 1.499999999997028e-03, 2.067266659384524e-05, -6.664976211577642e-06, -2.717518222871003e+03, -1.310001255306670e+04, -2.270146466423379e+02, 1.039241700066478e+04
28, 2.500000000000000e-04, 1.599999999996764e-03, 2.336125504241091e-05, -7.073710209311724e-06, -2.656092909653788e+03, -1.280193045372879e+04, -2.365234456975853e+02, 1.015685939807284e+04
29, 2.500000000000000e-04, 1.699999999996466e-03, 2.619715993356731e-05, -7.478048018005423e-06, -2.595390625275344e+03, -1.250726957791262e+04, -2.450682787028616e+02, 9.923990035093715e+03
30, 2.500000000000000e-04, 1.799999999996210e-03, 2.917703215493581e-05, -7.878203534785747e-06, -2.535406204192681e+03, -1.221603243518708e+04, -2.526885676077827e+02, 9.693808863032918e+03
31, 2.500000000000000e-04, 1.899999999995898e-03, 3.229756017577350e-05, -8.274377321620716e-06, -2.476137894185108e+03, -1.192822377330953e+04, -2.594226276907967e+02, 9.466315432383144e+03
32, 2.500000000000000e-04, 1.999999999995521e-03, 3.555547022738597e-05, -8.666757173258764e-06, -2.417579196228630e+03, -1.164384343969244e+04, -2.653082311680988e+02, 9.241509926430910e+03
33, 2.500000000000000e-04, 2.099999999995151e-03, 3.894752621023460e-05, -9.055518615926007e-06, -2.359728166805713e+03, -1.136289431981811e+04, -2.703820291676828e+02, 9.019391694872518e+03
34, 2.500000000000000e-04, 2.199999999994897e-03, 4.247052983873175e-05, -9.440825464353995e-06, -2.302580765857923e+03, -1.108537712952428e+04, -2.746798805868242e+02, 8.799960688141036e+03
35, 2.500000000000000e-04, 2.299999999994653e-03, 4.612132064802123e-05, -9.822830315479004e-06, -2.246132343462461e+03, -1.081129130362062e+04, -2.782369597555992e+02, 8.583216834956098e+03
36, 2.500000000000000e-04, 2.399999999994409e-03, 4.989677594345463e-05, -1.020167505024081e-05, -2.190383125681630e+03, -1.054063990596605e+04, -2.810874252352799e+02, 8.369159387846999e+03
37, 2.500000000000000e-04, 2.499999999994080e-03, 5.379381098360662e-05, -1.057749133291700e-05, -2.135331241509331e+03, -1.027342417433965e+04, -2.832642466915844e+02, 8.157788371684922e+03
38, 2.500000000000000e-04, 2.599999999993751e-03, 5.780937903373701e-05, -1.095040110662918e-05, -2.080971599122475e+03, -1.000964197444293e+04, -2.848001747639058e+02, 7.949104256371688e+03
39, 2.500000000000000e-04, 2.699999999993507e-03, 6.194047124227888e-05, -1.132051702149764e-05, -2.027303948952971e+03, -9.749294659264624e+03, -2.857269561985023e+02, 7.743106618414428e+03
40, 2.500000000000000e-04, 2.799999999993264e-03, 6.618411676482039e-05, -1.168794291760226e-05, -1.974327785421870e+03, -9.492383132524110e+03, -2.860753694599732e+02, 7.539795267123587e+03
41, 2.500000000000000e-04, 2.899999999993009e-03, 7.053738285135705e-05, -1.205277425313588e-05, -1.922039845239522e+03, -9.238905710787785e+03, -2.858754405733845e+02, 7.339170604674444e+03
42, 2.500000000000000e-04, 2.999999999992623e-03, 7.499737475143896e-05, -1.241509854970350e-05, -1.870443457086786e+03, -8.988865994576008e+03, -2.851562865901233e+02, 7.141232096309571e+03
43, 2.500000000000000e-04, 3.099999999992220e-03, 7.956123597788066e-05, -1.277499581738446e-05, -1.819533448422186e+03, -8.742260289235543e+03, -2.839462850257861e+02, 6.945980771902371e+03
44, 2.500000000000000e-04, 3.199999999991949e-03, 8.422614810940762e-05, -1.313253895767304e-05, -1.769309998568209e+03, -8.499088903905806e+03, -2.822734197977775e+02, 6.753416709253489e+03
45, 2.500000000000000e-04, 3.299999999991705e-03, 8.898933087816047e-05, -1.348779415847418e-05, -1.719773251036613e+03, -8.259351855364470e+03, -2.801646355111288e+02, 6.563539991052618e+03
46, 2.500000000000000e-04, 3.399999999991461e-03, 9.384804223282970e-05, -1.384082128586465e-05, -1.670923753803106e+03, -8.023049581001389e+03, -2.776458621014153e+02, 6.376350948899191e+03
47, 2.500000000000000e-04, 3.499999999991149e-03, 9.879957842310019e-05, -1.419167428077530e-05, -1.622757786692793e+03, -7.790178576506563e+03, -2.747428008805201e+02, 6.191850581624995e+03
48, 2.500000000000000e-04, 3.599999999990803e-03, 1.038412738429268e-04, -1.454040148987470e-05, -1.575277184782399e+03, -7.560739740682299e+03, -2.714803752969947e+02, 6.010038966992257e+03
49, 2.500000000000000e-04, 3.699999999990560e-03, 1.089705011326799e-04, -1.488704605539547e-05, -1.528487388713922e+03, -7.334736897819957e+03, -2.678823175189098e+02, 5.830915631884180e+03
50, 2.500000000000000e-04, 3.799999999990315e-03, 1.141846714731837e-04, -1.523164624970858e-05, -1.482383159241846e+03, -7.112164784503699e+03, -2.639716314337171e+02, 5.654481871661019e+03
51, 2.500000000000000e-04, 3.899999999990071e-03, 1.194812343265615e-04, -1.557423580880336e-05, -1.436964870447795e+03, -6.893022652097472e+03, -2.597711569289017e+02, 5.480738155813386e+03
52, 2.500000000000000e-04, 3.999999999989709e-03, 1.248576774923779e-04, -1.591484425969157e-05, -1.392233609839560e+03, -6.677310212663884e+03, -2.553028165695794e+02, 5.309684812709183e+03
53, 2.500000000000000e-04, 4.099999999989249e-03, 1.303115271803038e-04, -1.625349723704313e-05, -1.348189230378343e+03, -6.465026045671832e+03, -2.505878496834890e+02, 5.141322405371870e+03
54, 2.500000000000000e-04, 4.199999999988788e-03, 1.358403479882482e-04, -1.659021678910744e-05, -1.304832673068242e+03, -6.256169814750388e+03, -2.456468665573717e+02, 4.975651617908850e+03
55, 2.500000000000000e-04, 4.299999999988333e-03, 1.414417429385766e-04, -1.692502169483978e-05, -1.262166136233105e+03, -6.050742458700417e+03, -2.404997000522891e+02, 4.812673230024611e+03
56, 2.500000000000000e-04, 4.399999999988144e-03, 1.471133535941127e-04, -1.725792775923072e-05, -1.220186588211725e+03, -5.848740310743089e+03, -2.351659395675384e+02, 4.652388809943735e+03
57, 2.500000000000000e-04, 4.499999999988117e-03, 1.528528598758060e-04, -1.758894806658103e-05, -1.178899187085773e+03, -5.650166424706052e+03, -2.296642395144023e+02, 4.494798478448550e+03
58, 2.500000000000000e-04, 4.599999999988090e-03, 1.586579803284405e-04, -1.791809327980181e-05, -1.138304301934789e+03, -5.455019642836069e+03, -2.240123389684842e+02, 4.339902930528857e+03
59, 2.500000000000000e-04, 4.699999999988035e-03, 1.645264721293677e-04, -1.824537186396880e-05, -1.098399178475177e+03, -5.263296751565248e+03, -2.182275160797582e+02, 4.187703999738869e+03
60, 2.500000000000000e-04, 4.799999999987717e-03, 1.704561308811684e-04, -1.857079040114294e-05, -1.059189919004058e+03, -5.075001774002558e+03, -2.123270721379814e+02, 4.038202074809685e+03
61, 2.500000000000000e-04, 4.899999999987257e-03, 1.764447909129698e-04, -1.889435378547345e-05, -1.020673763373425e+03, -4.890130944089587e+03, -2.063270374939360e+02, 3.891398496556214e+03
62, 2.500000000000000e-04, 4.999999999986965e-03, 1.824903251479158e-04, -1.921606546821691e-05, -9.828524398906918e+02, -4.708684532960607e+03, -2.002429976118082e+02, 3.747294199568535e+03
63, 2.500000000000000e-04, 5.099999999987202e-03, 1.885906451787154e-04, -1.953592769714889e-05, -9.457269713529986e+02, -4.530662164201188e+03, -1.940900537195164e+02, 3.605890199761060e+03
64, 2.500000000000000e-04, 5.199999999987608e-03, 1.947437012738649e-04, -1.985394172184385e-05, -9.092991627579290e+02, -4.356064024957571e+03, -1.878826220293253e+02, 3.467187265484312e+03
65, 2.500000000000000e-04, 5.299999999988015e-03, 2.009474824518399e-04, -2.017010801286141e-05, -8.735682676372380e+02, -4.184888246595898e+03, -1.816346967691074e+02, 3.331186673744418e+03
66, 2.500000000000000e-04, 5.399999999988211e-03, 2.072000164178026e-04, -2.048442645755631e-05, -8.385355013940550e+02, -4.017134612642319e+03, -1.753598506773075e+02, 3.197889400674532e+03
67, 2.500000000000000e-04, 5.499999999988184e-03, 2.134993695975608e-04, -2.079689656187552e-05, -8.042030949358152e+02, -3.852803813720117e+03, -1.690709710687184e+02, 3.067296254945817e+03
68, 2.500000000000000e-04, 5.599999999988157e-03, 2.198436472328092e-04, -2.110751763804994e-05, -7.705713650943990e+02, -3.691895040362772e+03, -1.627802548599785e+02, 2.939408386252689e+03
69, 2.500000000000000e-04, 5.699999999988293e-03, 2.262309933835291e-04, -2.141628898789506e-05, -7.376408577659993e+02, -3.534407529474762e+03, -1.564995429313444e+02, 2.814226757695938e+03
70, 2.500000000000000e-04, 5.799999999988694e-03, 2.326595909285421e-04, -2.172321006056523e-05, -7.054127623220070e+02, -3.380340884963274e+03, -1.502402538307180e+02, 2.691752031072255e+03
71, 2.500000000000000e-04, 5.899999999989099e-03, 2.391276615640190e-04, -2.202828061835388e-05, -6.738877438168996e+02, -3.229694582641439e+03, -1.440134644257599e+02, 2.571985246677345e+03
72, 2.500000000000000e-04, 5.999999999989505e-03, 2.456334657956648e-04, -2.233150091225907e-05, -6.430675547603453e+02, -3.082469545620263e+03, -1.378296695878665e+02, 2.454927726896686e+03
73, 2.500000000000000e-04, 6.099999999989911e-03, 2.521753030389401e-04, -2.263287185401754e-05, -6.129519128292596e+02, -2.938665179428068e+03, -1.316988171500666e+02, 2.340581233836717e+03
74, 2.500000000000000e-04, 6.199999999990317e-03, 2.587515116199267e-04, -2.293239515038518e-05, -5.835440075834169e+02, -2.798283548744400e+03, -1.256300166615446e+02, 2.228946576194118e+03
75, 2.500000000000000e-04, 6.299999999990723e-03, 2.653604689348704e-04, -2.323007343857200e-05, -5.548386443951622e+02, -2.661319666739104e+03, -1.196325997038438e+02, 2.120025974638702e+03
76, 2.500000000000000e-04, 6.399999999990975e-03, 2.720005910938210e-04, -2.352591039947165e-05, -5.268442328235083e+02, -2.527779182885522e+03, -1.137154715373530e+02, 2.013818638370279e+03
77, 2.500000000000000e-04, 6.499999999990961e-03, 2.786703333695060e-04, -2.381991086955945e-05, -4.995589220997178e+02, -2.397658435061970e+03, -1.078861573951635e+02, 1.910324436565034e+03
78, 2.500000000000000e-04, 6.599999999990934e-03, 2.853681901182655e-04, -2.411208091283592e-05, -4.729772710788794e+02, -2.270951852271955e+03, -1.021521611355678e+02, 1.809544929178351e+03
79, 2.500000000000000e-04, 6.699999999991035e-03, 2.920926944159381e-04, -2.440242802340155e-05, -4.471088790540026e+02, -2.147665903549944e+03, -9.652166629374321e+01, 1.711478869813756e+03
80, 2.500000000000000e-04, 6.799999999991401e-03, 2.988424184897242e-04, -2.469096114387640e-05, -4.219491541758180e+02, -2.027795048813611e+03, -9.100125532382347e+01, 1.616126836361274e+03
81, 2.500000000000000e-04, 6.899999999991809e-03, 3.056159735090742e-04, -2.497769081642798e-05, -3.975009458011501e+02, -1.911340727295345e+03, -8.559706319944517e+01, 1.523488862101680e+03
82, 2.500000000000000e-04, 6.999999999992214e-03, 3.124120098162832e-04, -2.526262928659089e-05, -3.737558637872228e+02, -1.798295923551856e+03, -8.031535420680414e+01, 1.433567789244611e+03
83, 2.500000000000000e-04, 7.099999999992620e-03, 3.192292164161810e-04, -2.554579062041352e-05, -3.507216203633743e+02, -1.688667026937048e+03, -7.516305486972698e+01, 1.346363936772294e+03
84, 2.500000000000000e-04, 7.199999999993026e-03, 3.260663213301112e-04, -2.582719078245960e-05, -3.284073965880415e+02, -1.582459942111519e+03, -7.014498969945848e+01, 1.261875217782512e+03
85, 2.500000000000000e-04, 7.299999999993359e-03, 3.329220921303829e-04, -2.610684763317772e-05, -3.067937663885475e+02, -1.479658068733070e+03, -6.526555914000726e+01, 1.180105522634961e+03
86, 2.500000000000000e-04, 7.399999999993427e-03, 3.397953349130366e-04, -2.638478110633160e-05, -2.858962109372502e+02, -1.380273371098463e+03, -6.053062727914583e+01, 1.101052767145040e+03
87, 2.500000000000000e-04, 7.499999999993399e-03, 3.466848950813112e-04, -2.666101319072046e-05, -2.657098801140481e+02, -1.284298347603359e+03, -5.594436656629041e+01, 1.024715353014795e+03
88, 2.500000000000000e-04, 7.599999999993372e-03, 3.535896570888997e-04, -2.693556789575408e-05, -2.462375438082627e+02, -1.191730730246030e+03, -5.150949627617770e+01, 9.510889960601714e+02
89, 2.500000000000000e-04, 7.699999999993440e-03, 3.605085447150998e-04, -2.720847132203173e-05, -2.274679138500470e+02, -1.102557843447491e+03, -4.722867999081020e+01, 8.801730385200162e+02
90, 2.500000000000000e-04, 7.799999999993771e-03, 3.674405203954837e-04, -2.747975175569660e-05, -2.093979656932646e+02, -1.016777154476335e+03, -4.310646049644880e+01, 8.119691017681251e+02
91, 2.500000000000000e-04, 7.899999999994177e-03, 3.743845849630454e-04, -2.774943988692011e-05, -1.920444178744243e+02, -9.344009701761404e+02, -3.914792062087565e+01, 7.464740380623052e+02
92, 2.500000000000000e-04, 7.999999999994584e-03, 3.813397785202087e-04, -2.801756865753518e-05, -1.753973598774222e+02, -8.554184804005070e+02, -3.535514991898739e+01, 6.836875535364441e+02
93, 2.500000000000000e-04, 8.099999999994990e-03, 3.883051799519918e-04, -2.828417338821758e-05, -1.594552813343176e+02, -7.798278985378813e+02, -3.173067454651004e+01, 6.236100760929905e+02
94, 2.500000000000000e-04, 8.199999999995398e-03, 3.952799070066488e-04, -2.854929186684236e-05, -1.442201998143709e+02, -7.076294461746073e+02, -2.827703605754539e+01, 5.662405336577456e+02
95, 2.500000000000000e-04, 8.299999999995804e-03, 4.022631163190575e-04, -2.881296428745500e-05, -1.296930258574866e+02, -6.388202534759005e+02, -2.499617917451830e+01, 5.115757713141923e+02
96, 2.500000000000000e-04, 8.399999999996209e-03, 4.092540034573068e-04, -2.907523322804107e-05, -1.158715120237332e+02, -5.733929089613957e+02, -2.188905038795066e+01, 4.596110864234404e+02
97, 2.500000000000000e-04, 8.499999999996616e-03, 4.162518029666604e-04, -2.933614359271358e-05, -1.027436877075689e+02, -5.113319202814532e+02, -1.895612934535274e+01, 4.103433722589919e+02
98, 2.500000000000000e-04, 8.599999999997021e-03, 4.232557877691679e-04, -2.959574267263335e-05, -9.030844303013416e+01, -4.526329183726425e+02, -1.619903737267691e+01, 3.637700656725748e+02
99, 2.500000000000000e-04, 8.699999999997429e-03, 4.302652690490622e-04, -2.985408026434410e-05, -7.857250687108314e+01, -3.972968304460436e+02, -1.362008318583157e+01, 3.198862627595502e+02
100, 2.500000000000000e-04, 8.799999999997834e-03, 4.372795965385037e-04, -3.011120854783807e-05, -6.753203207228145e+01, -3.453156463924074e+02, -1.121937394131973e+01, 2.786884170382636e+02
101, 2.500000000000000e-04, 8.899999999997930e-03, 4.442981584029126e-04, -3.036718220388251e-05, -5.717661853939754e+01, -2.966806572082178e+02, -8.997140375663891e+00, 2.401790554532876e+02
102, 2.500000000000000e-04, 8.999999999997496e-03, 4.513203808414954e-04, -3.062205862120992e-05, -4.750122729486411e+01, -2.513897936761815e+02, -6.955524841661700e+00, 2.043625817127997e+02
103, 2.500000000000000e-04, 9.099999999997034e-03, 4.583457279975947e-04, -3.087589787780304e-05, -3.851031731108334e+01, -2.094460849235945e+02, -5.095366486527640e+00, 1.712392702851963e+02
104, 2.500000000000000e-04, 9.199999999996832e-03, 4.653737024979798e-04, -3.112876261403826e-05, -3.019159511679577e+01, -1.708306986022274e+02, -3.414970266539495e+00, 1.408048490531180e+02
105, 2.500000000000000e-04, 9.299999999997156e-03, 4.724038454024886e-04, -3.138071761021165e-05, -2.251160390623565e+01, -1.354989979962536e+02, -1.910008371651574e+00, 1.130519515584412e+02
106, 2.500000000000000e-04, 9.399999999997563e-03, 4.794357350293951e-04, -3.163182950977500e-05, -1.545775303284207e+01, -1.034186236879094e+02, -5.755965721288856e-01, 8.796840348700698e+01
107, 2.500000000000000e-04, 9.499999999997968e-03, 4.864689862625763e-04, -3.188216664401046e-05, -8.984681140623444e+00, -7.452684485313964e+01, 5.882554353384308e-01, 6.555272230767457e+01
108, 2.500000000000000e-04, 9.599999999998375e-03, 4.935032478918744e-04, -3.213179882301998e-05, -3.114413988961417e+00, -4.882676825041827e+01, 1.575296808044637e+00, 4.582079846814845e+01
109, 2.500000000000000e-04, 9.699999999998783e-03, 5.005382009116467e-04, -3.238079810424683e-05, 2.076461437209092e+00, -2.658878113718566e+01, 2.370215483833525e+00, 2.905456620925720e+01
110, 2.500000000000000e-04, 9.799999999999188e-03, 5.075735508903282e-04, -3.262925288020333e-05, 6.165094996855724e+00, -8.749971425167711e+00, 2.799321312556892e+00, 1.593122737321616e+01
111, 2.500000000000000e-04, 9.899999999999593e-03, 5.146090307393167e-04, -3.287728271753958e-05, 8.777055352596555e+00, 3.118967521545184e+00, 2.626866394687323e+00, 7.721118191430688e+00
112, 2.000000000000817e-04, 1.000000000000000e-02, 5.217682425916780e-04, -2.960753425531963e-05, 1.169544851196283e+01, 8.620703071482954e+00, 3.475755422847688e+00, 7.601155343865312e+00
113, 1.500000000001972e-04, 1.000000000000000e-02, 5.218920634767876e-04, -2.609010121458900e-05, 1.073387081167590e+01, 9.794723083906856e+00, 5.261500598470507e+00, 1.056482620043490e+01
114, 1.000000000003456e-04, 1.000000000000000e-02, 5.220159418671895e-04, -2.257276394569680e-05, 6.878397180416046e+00, 1.021706066986806e+01, 6.806910886833021e+00, 1.401723286461859e+01
115, 5.000000000047588e-05, 1.000000000000000e-02, 5.221399102463873e-04, -1.905548550633888e-05, 1.324703484695446e+00, 1.029170038415409e+01, 7.835081730930834e+00, 1.805439160748335e+01
116, 6.410887445906788e-16, 1.000000000000000e-02, 5.222639866176574e-04, -1.553821272038742e-05, -4.479283990692225e+00, 1.075720721118316e+01, 8.145299829990847e+00, 2.230547693788728e+01
117, -4.999999999945738e-05, 1.000000000000000e-02, 5.223881743710223e-04, -1.202088326321623e-05, -8.757224460084430e+00, 1.272056950814419e+01, 7.621170457322473e+00, 2.633675360214195e+01
118, -9.999999999958566e-05, 1.000000000000000e-02, 5.225124607368364e-04, -8.503439521568651e-06, -9.370754755732968e+00, 1.752362319948702e+01, 6.346777263023633e+00, 2.973943328484855e+01
119, -1.499999999997626e-04, 1.000000000000000e-02, 5.226368115286970e-04, -4.985853254389767e-06, -3.679114182567480e+00, 2.643212840214970e+01, 4.802360758349563e+00, 3.160597420439732e+01
120, -1.999999999998909e-04, 1.000000000000000e-02, 5.227611557233867e-04, -1.468168214123952e-06, 1.358075930033998e+01, 4.130238051734621e+01, 3.977743172450843e+00, 2.884056250982436e+01
121, -2.500000000000000e-04, 9.899999999999590e-03, 5.158499104969196e-04, 2.296507096952418e-06, -1.290004478732120e+01, 2.203155427373660e+01, -1.735594272572127e+00, 3.510364315677840e+01
122, -2.500000000000000e-04, 9.799999999999181e-03, 5.088143109387242e-04, 2.542836430585090e-06, 2.688181619406771e+00, 5.252504223275974e+01, 8.170779873174796e-01, 4.986364548991789e+01
123, -2.500000000000000e-04, 9.699999999999055e-03, 5.017788631903225e-04, 2.788625091005268e-06, 8.895491099527682e+00, 7.335709878879688e+01, 3.241153328691429e+00, 6.478672059523927e+01
124, -2.500000000000000e-04, 9.599999999999458e-03, 4.947437860889545e-04, 3.033788523637593e-06, 1.353996901000908e+01, 9.562813859700049e+01, 5.581940403824507e+00, 8.284382789822098e+01
125, -2.500000000000000e-04, 9.499999999999916e-03, 4.877093197079868e-04, 3.278193336333998e-06, 1.870657066602994e+01, 1.215459188772580e+02, 8.007855880662699e+00, 1.040789823342450e+02
126, -2.500000000000000e-04, 9.400000000000373e-03, 4.806757490930172e-04, 3.521712508193882e-06, 2.457802340862918e+01, 1.510490071633016e+02, 1.053610971052708e+01, 1.282144615993207e+02
127, -2.500000000000000e-04, 9.300000000000832e-03, 4.736434000703734e-04, 3.764220818041618e-06, 3.138839511637305e+01, 1.841771025763535e+02, 1.318972790209127e+01, 1.550492335221826e+02
128, -2.500000000000000e-04, 9.200000000001289e-03, 4.666126478442769e-04, 4.005594932058068e-06, 3.879270594251446e+01, 2.205374835570773e+02, 1.598173465150461e+01, 1.845340823806034e+02
129, -2.500000000000000e-04, 9.100000000001746e-03, 4.595838979521838e-04, 4.245711459690047e-06, 4.700238310836281e+01, 2.602579587964735e+02, 1.892734339239935e+01, 2.165892838384271e+02
130, -2.500000000000000e-04, 9.000000000002204e-03, 4.525575982666177e-04, 4.484444808195325e-06, 5.595188922133156e+01, 3.032785854212067e+02, 2.202056962230160e+01, 2.512172697071359e+02
131, -2.500000000000000e-04, 8.900000000002661e-03, 4.455342354309761e-04, 4.721666481500384e-06, 6.561019124391146e+01, 3.495806428568264e+02, 2.526801164639231e+01, 2.884321532691731e+02
132, -2.500000000000000e-04, 8.800000000003118e-03, 4.385143336262850e-04, 4.957245018461422e-06, 7.597748532812767e+01, 3.991697402196668e+02, 2.867632380988074e+01, 3.282416180359738e+02
133, -2.500000000000000e-04, 8.700000000003576e-03, 4.314984553209059e-04, 5.191046193172732e-06, 8.702582697305641e+01, 4.520269787023369e+02, 3.224896948451207e+01, 3.706559387018549e+02
134, -2.500000000000000e-04, 8.600000000004033e-03, 4.244872003181887e-04, 5.422933019784041e-06, 9.875639649514758e+01, 5.081603917060770e+02, 3.598904430372606e+01, 4.156831443951666e+02
135, -2.500000000000000e-04, 8.500000000004490e-03, 4.174812060539481e-04, 5.652765616317534e-06, 1.111791261742907e+02, 5.675847755759166e+02, 3.989888855532640e+01, 4.633290429462859e+02
136, -2.500000000000000e-04, 8.400000000004949e-03, 4.104811480828839e-04, 5.880401363273950e-06, 1.243194582524660e+02, 6.303317843941013e+02, 4.397478671292239e+01, 5.135986776395133e+02
137, -2.500000000000000e-04, 8.300000000005149e-03, 4.034877413108771e-04, 6.105694485159873e-06, 1.381487378987937e+02, 6.963859986788814e+02, 4.821908685979633e+01, 5.665060994143188e+02
138, -2.500000000000000e-04, 8.200000000005172e-03, 3.965017383272297e-04, 6.328496640647082e-06, 1.527154052785746e+02, 7.657983981667138e+02, 5.262654943755091e+01, 6.220522252926116e+02
139, -2.500000000000000e-04, 8.100000000005195e-03, 3.895239320831936e-04, 6.548656211489246e-06, 1.679766505681817e+02, 8.385447785058745e+02, 5.719793624433819e+01, 6.802558561661249e+02
140, -2.500000000000000e-04, 8.000000000005220e-03, 3.825551535570871e-04, 6.766018990302062e-06, 1.839340841630238e+02, 9.146279477557425e+02, 6.193637724622698e+01, 7.411194111596340e+02
141, -2.500000000000000e-04, 7.900000000005243e-03, 3.755962718814166e-04, 6.980428309688490e-06, 2.006566234090253e+02, 9.941138580434147e+02, 6.683236971801273e+01, 8.046369651974442e+02
142, -2.500000000000000e-04, 7.800000000005240e-03, 3.686481982014890e-04, 7.191724365120263e-06, 2.180445561813955e+02, 1.076924741660076e+03, 7.188702986794114e+01, 8.708307259512779e+02
143, -2.500000000000000e-04, 7.700000000005121e-03, 3.617118804495988e-04, 7.399745296566926e-06, 2.361430812242002e+02, 1.163101163276018e+03, 7.709869700184451e+01, 9.396957604452168e+02
144, -2.500000000000000e-04, 7.600000000005145e-03, 3.547883060920763e-04, 7.604326414209905e-06, 2.549464031144362e+02, 1.252641141246406e+03, 8.246597901935861e+01, 1.011235551826925e+03
145, -2.500000000000000e-04, 7.500000000005337e-03, 3.478785019676606e-04, 7.805300944921097e-06, 2.744119754847707e+02, 1.345506637955917e+03, 8.798788023349199e+01, 1.085454395286192e+03
146, -2.500000000000000e-04, 7.400000000005796e-03, 3.409835320040633e-04, 8.002499967377083e-06, 2.946233306913890e+02, 1.441774690278070e+03, 9.365647193914957e+01, 1.162343486558912e+03
147, -2.500000000000000e-04, 7.300000000006254e-03, 3.341045015927894e-04, 8.195751726270148e-06, 3.155389597031683e+02, 1.541421107821591e+03, 9.946626231116682e+01, 1.241918350950679e+03
148, -2.500000000000000e-04, 7.200000000006711e-03, 3.272425551377336e-04, 8.384882201088446e-06, 3.371516718498823e+02, 1.644441574002302e+03, 1.054166271632400e+02, 1.324181841515574e+03
149, -2.500000000000000e-04, 7.100000000007169e-03, 3.203988758377574e-04, 8.569715326204566e-06, 3.594875137564176e+02, 1.750859497895176e+03, 1.115012447025399e+02, 1.409129557041186e+03
150, -2.500000000000000e-04, 7.000000000007627e-03, 3.135746872968133e-04, 8.750072869436541e-06, 3.825143838387704e+02, 1.860652210234477e+03, 1.177146584080494e+02, 1.496769319914835e+03
151, -2.500000000000000e-04, 6.900000000008085e-03, 3.067712518706828e-04, 8.925774590436289e-06, 4.062469346338061e+02, 1.973833587946304e+03, 1.240528669711795e+02, 1.587099357588728e+03
152, -2.500000000000000e-04, 6.800000000008542e-03, 2.999898716273218e-04, 9.096638372244103e-06, 4.306691148170499e+02, 2.090390302134389e+03, 1.305108703205408e+02, 1.680121057756666e+03
153, -2.500000000000000e-04, 6.700000000009001e-03, 2.932318875362018e-04, 9.262480408834669e-06, 4.558028623019669e+02, 2.210344215497660e+03, 1.370807448914129e+02, 1.775832166212143e+03
154, -2.500000000000000e-04, 6.600000000009459e-03, 2.864986806946055e-04, 9.423114926660700e-06, 4.816378097992600e+02, 2.333689590356440e+03, 1.437558645029830e+02, 1.874235522067870e+03
155, -2.500000000000000e-04, 6.500000000009916e-03, 2.797916719581583e-04, 9.578354653065176e-06, 5.081424180772409e+02, 2.460400523762567e+03, 1.505309833120029e+02, 1.975335419355804e+03
156, -2.500000000000000e-04, 6.400000000010177e-03, 2.731123204035073e-04, 9.728010848202237e-06, 5.353497631900460e+02, 2.590506207004244e+03, 1.574000532106837e+02, 2.079126527067057e+03
157, -2.500000000000000e-04, 6.300000000010201e-03, 2.664621251108736e-04, 9.871893316296391e-06, 5.632593154799024e+02, 2.724009007342633e+03, 1.643534942093780e+02, 2.185609186272836e+03
158, -2.500000000000000e-04, 6.200000000010225e-03, 2.598426250944996e-04, 1.000981051546643e-05, 5.918644173318694e+02, 2.860905685332737e+03, 1.713824646074896e+02, 2.294784537291187e+03
159, -2.500000000000000e-04, 6.100000000010248e-03, 2.532553990950048e-04, 1.014156972654582e-05, 6.211484219667365e+02, 3.001183426232136e+03, 1.784798383246234e+02, 2.406654697351104e+03
160, -2.500000000000000e-04, 6.000000000010509e-03, 2.467020648085800e-04, 1.026697726108164e-05, 6.511273978646047e+02, 3.144856759031716e+03, 1.856369613233474e+02, 2.521216066184014e+03
161, -2.500000000000000e-04, 5.900000000010967e-03, 2.401842798089220e-04, 1.038583847992129e-05, 6.818052777821783e+02, 3.291931061996209e+03, 1.928427607239692e+02, 2.638467345045884e+03
162, -2.500000000000000e-04, 5.800000000011424e-03, 2.337037418457075e-04, 1.049795794949071e-05, 7.131665254897855e+02, 3.442395463719869e+03, 2.000864238068022e+02, 2.758410575900492e+03
163, -2.500000000000000e-04, 5.700000000011876e-03, 2.272621882347530e-04, 1.060313960645046e-05, 7.451985724111721e+02, 3.596240999471474e+03, 2.073590944754824e+02, 2.881047395851839e+03
164, -2.500000000000000e-04, 5.600000000012062e-03, 2.208613953915623e-04, 1.070118695988921e-05, 7.779047886722210e+02, 3.753471193036833e+03, 2.146517343795726e+02, 3.006376040197230e+03
165, -2.500000000000000e-04, 5.500000000012085e-03, 2.145031790691421e-04, 1.079190324941311e-05, 8.113000120570209e+02, 3.914099293312524e+03, 2.219524052443597e+02, 3.134392263347824e+03
166, -2.500000000000000e-04, 5.400000000012110e-03, 2.081893951770711e-04, 1.087509156117812e-05, 8.453767908352486e+02, 4.078120740585748e+03, 2.292478505404938e+02, 3.265095979072928e+03
167, -2.500000000000000e-04, 5.300000000012160e-03, 2.019219394761378e-04, 1.095055500754901e-05, 8.801265118963339e+02, 4.245530055781082e+03, 2.365257145949894e+02, 3.398487703060098e+03
168, -2.500000000000000e-04, 5.200000000012475e-03, 1.957027472887814e-04, 1.101809691745118e-05, 9.155473656032959e+02, 4.416327408568550e+03, 2.437736053581452e+02, 3.534566903016696e+03
169, -2.500000000000000e-04, 5.100000000012934e-03, 1.895337935495230e-04, 1.107752101804961e-05, 9.516402342092101e+02, 4.590515172016500e+03, 2.509782304708753e+02, 3.673332424608911e+03
170, -2.500000000000000e-04, 5.000000000013221e-03, 1.834170929734851e-04, 1.112863163076287e-05, 9.884030145899928e+02, 4.768093445670208e+03, 2.581253584297311e+02, 3.814783684228667e+03
171, -2.500000000000000e-04, 4.900000000012981e-03, 1.773547000725638e-04, 1.117123385983890e-05, 1.025828235492755e+03, 4.949057548645344e+03, 2.652012379839882e+02, 3.958920942642412e+03
172, -2.500000000000000e-04, 4.800000000012570e-03, 1.713487088492543e-04, 1.120513384957319e-05, 1.063922397354442e+03, 5.133413972226899e+03, 2.721910554123330e+02, 4.105741536013175e+03
173, -2.500000000000000e-04, 4.700000000012160e-03, 1.654012532474330e-04, 1.123013897464088e-05, 1.102687824557316e+03, 5.321166203269566e+03, 2.790777668634595e+02, 4.255243521996445e+03
174, -2.500000000000000e-04, 4.600000000011960e-03, 1.595145074527837e-04, 1.124605805005396e-05, 1.142104975869818e+03, 5.512299962780270e+03, 2.858451363269738e+02, 4.407429408562818e+03
175, -2.500000000000000e-04, 4.500000000011985e-03, 1.536906850214366e-04, 1.125270159271189e-05, 1.182176055066928e+03, 5.706818766404557e+03, 2.924778273705073e+02, 4.562298190964091e+03
176, -2.500000000000000e-04, 4.400000000012010e-03, 1.479320391114104e-04, 1.124988205354353e-05, 1.222909604318038e+03, 5.904730914140604e+03, 2.989584468607167e+02, 4.719846966682942e+03
177, -2.500000000000000e-04, 4.300000000011870e-03, 1.422408630287495e-04, 1.123741408583037e-05, 1.264298952516027e+03, 6.106031957158999e+03, 3.052682615891771e+02, 4.880075136141224e+03
178, -2.500000000000000e-04, 4.200000000011467e-03, 1.366194899832953e-04, 1.121511480731005e-05, 1.306339534619374e+03, 6.310719218558125e+03, 3.113887458936943e+02, 5.042982036979302e+03
179, -2.500000000000000e-04, 4.100000000011056e-03, 1.310702929931057e-04, 1.118280407402478e-05, 1.349031736395719e+03, 6.518794324780602e+03, 3.173004263889326e+02, 5.208566353864598e+03
180, -2.500000000000000e-04, 4.000000000010646e-03, 1.255956850710024e-04, 1.114030473719995e-05, 1.392369586435633e+03, 6.730253984687503e+03, 3.229833470997532e+02, 5.376828323381339e+03
181, -2.500000000000000e-04, 3.900000000010236e-03, 1.201981190330586e-04, 1.108744293238666e-05, 1.436351011272295e+03, 6.945098144656737e+03, 3.284175885919235e+02, 5.547767787998830e+03
182, -2.500000000000000e-04, 3.800000000009824e-03, 1.148800874807252e-04, 1.102404837347648e-05, 1.480980721609794e+03, 7.163331860151627e+03, 3.335820953000683e+02, 5.721382920143242e+03
183, -2.500000000000000e-04, 3.700000000009415e-03, 1.096441231605680e-04, 1.094995467989599e-05, 1.526253556128377e+03, 7.384951932183955e+03, 3.384545407566540e+02, 5.897673487590802e+03
184, -2.500000000000000e-04, 3.600000000009160e-03, 1.044927988101097e-04, 1.086499968185829e-05, 1.572166723407866e+03, 7.609957258367891e+03, 3.430123932039269e+02, 6.076639248105716e+03
185, -2.500000000000000e-04, 3.500000000009170e-03, 9.942872714720167e-05, 1.076902574717494e-05, 1.618718222370708e+03, 7.838347528269482e+03, 3.472324940098619e+02, 6.258280140931702e+03
186, -2.500000000000000e-04, 3.400000000009196e-03, 9.445456086751098e-05, 1.066188010380623e-05, 1.665908862321797e+03, 8.070124338896474e+03, 3.510911317310220e+02, 6.442595424323903e+03
187, -2.500000000000000e-04, 3.300000000009092e-03, 8.957299276316805e-05, 1.054341521544586e-05, 1.713737961706316e+03, 8.305287323653240e+03, 3.545634877615378e+02, 6.629584003419626e+03
188, -2.500000000000000e-04, 3.200000000008720e-03, 8.478675578806749e-05, 1.041348915227452e-05, 1.762201911885086e+03, 8.543833814191079e+03, 3.576238848780675e+02, 6.819245605674832e+03
189, -2.500000000000000e-04, 3.100000000008311e-03, 8.009862297676255e-05, 1.027196593508335e-05, 1.811299215148482e+03, 8.785763090375880e+03, 3.602462991059262e+02, 7.011580130821443e+03
190, -2.500000000000000e-04, 3.000000000007901e-03, 7.551140745126670e-05, 1.011871591296089e-05, 1.861030092052950e+03, 9.031075451750432e+03, 3.624039527475512e+02, 7.206587053521772e+03
191, -2.500000000000000e-04, 2.900000000007490e-03, 7.102796251261626e-05, 9.953616166464386e-06, 1.911393735167848e+03, 9.279769983659968e+03, 3.640689866402940e+02, 7.404265895244172e+03
192, -2.500000000000000e-04, 2.800000000007079e-03, 6.665118168518947e-05, 9.776550907360550e-06, 1.962387004437379e+03, 9.531844036157596e+03, 3.652129068673806e+02, 7.604617125432990e+03
193, -2.500000000000000e-04, 2.700000000006744e-03, 6.238399860772864e-05, 9.587411868549182e-06, 2.014011317271071e+03, 9.787298464086391e+03, 3.658068914460285e+02, 7.807640603547390e+03
194, -2.500000000000000e-04, 2.600000000006672e-03, 5.822938713440928e-05, 9.386098745712373e-06, 2.066268721840434e+03, 1.004613356422194e+04, 3.658209213116439e+02, 8.013335303639408e+03
195, -2.500000000000000e-04, 2.500000000006697e-03, 5.419036149405604e-05, 9.172519666047220e-06, 2.119155437399192e+03, 1.030834461939343e+04, 3.652238646317983e+02, 8.221701365512970e+03
196, -2.500000000000000e-04, 2.400000000006722e-03, 5.026997612553771e-05, 8.946591604718546e-06, 2.172672511895458e+03, 1.057393112728494e+04, 3.639842262060064e+02, 8.432738842770075e+03
197, -2.500000000000000e-04, 2.300000000006651e-03, 4.647132575055196e-05, 8.708240834456134e-06, 2.226820855614240e+03, 1.084289171101934e+04, 3.620697028195669e+02, 8.646447528561108e+03
198, -2.500000000000000e-04, 2.200000000006315e-03, 4.279754543243322e-05, 8.457403431225984e-06, 2.281600196744448e+03, 1.111522377589310e+04, 3.594468407741417e+02, 8.862827633631439e+03
199, -2.500000000000000e-04, 2.100000000005904e-03, 3.925181054263669e-05, 8.194025718112157e-06, 2.337012761311588e+03, 1.139092634391547e+04, 3.560817355429549e+02, 9.081879099107648e+03
200, -2.500000000000000e-04, 2.000000000005494e-03, 3.583733684546321e-05, 7.918064797746756e-06, 2.393058829993182e+03, 1.166999610120300e+04, 3.519393317556128e+02, 9.303602007121128e+03
201, -2.500000000000000e-04, 1.900000000005083e-03, 3.255738047498763e-05, 7.629489047447821e-06, 2.449740124939239e+03, 1.195243051429562e+04, 3.469838228967097e+02, 9.527996417367831e+03
202, -2.500000000000000e-04, 1.800000000004675e-03, 2.941523797237083e-05, 7.328278648307359e-06, 2.507058353863768e+03, 1.223822675561957e+04, 3.411784075448660e+02, 9.755062751537276e+03
203, -2.500000000000000e-04, 1.700000000004264e-03, 2.641424628797600e-05, 7.014426096608433e-06, 2.565016021570370e+03, 1.252738174717004e+04, 3.344857381631502e+02, 9.984801134060765e+03
204, -2.500000000000000e-04, 1.600000000003854e-03, 2.355778281926553e-05, 6.687936795811172e-06, 2.623614907176355e+03, 1.281989090207767e+04, 3.268672515478954e+02, 1.021721160418725e+04
205, -2.500000000000000e-04, 1.500000000003443e-03, 2.084926538777000e-05, 6.348829598622837e-06, 2.682858322388938e+03, 1.311575057683789e+04, 3.182835808318862e+02, 1.045229441530661e+04
206, -2.500000000000000e-04, 1.400000000003032e-03, 1.829215226878491e-05, 5.997137377467877e-06, 2.742749808403563e+03, 1.341495655333447e+04, 3.086944459243633e+02, 1.069004985256509e+04
207, -2.500000000000000e-04, 1.300000000002622e-03, 1.588994221210789e-05, 5.632907621739913e-06, 2.803292655024678e+03, 1.371750351221898e+04, 2.980586316355798e+02, 1.093047823413358e+04
208, -2.500000000000000e-04, 1.200000000002211e-03, 1.364617441662949e-05, 5.256203043479373e-06, 2.864492848393329e+03, 1.402338822365423e+04, 2.863341628680249e+02, 1.117358022333578e+04
209, -2.500000000000000e-04, 1.100000000002113e-03, 1.156442850184885e-05, 4.867102144720560e-06, 2.926366454091423e+03, 1.433261999104323e+04, 2.734791347722695e+02, 1.141936001262106e+04
210, -2.500000000000000e-04, 1.000000000002544e-03, 9.648324529274742e-06, 4.465699535920467e-06, 2.988963085311465e+03, 1.464525648811807e+04, 2.594540005045866e+02, 1.166783790622000e+04
211, -2.500000000000000e-04, 9.000000000030026e-04, 7.901523603993015e-06, 4.052105349270972e-06, 3.052390458974967e+03, 1.496145756973062e+04, 2.442265175436241e+02, 1.191907990643439e+04
212, -2.500000000000000e-04, 8.000000000032027e-04, 6.327730993813329e-06, 3.626443173686375e-06, 3.116780573162310e+03, 1.528147132331487e+04, 2.277623537347658e+02, 1.217321665813775e+04
213, -2.500000000000000e-04, 7.000000000028719e-04, 4.930707200191129e-06, 3.188848466910427e-06, 3.181551398674077e+03, 1.560468377251111e+04, 2.099674162944804e+02, 1.243022780328258e+04
214, -2.500000000000000e-04, 6.000000000024631e-04, 3.714291438577500e-06, 2.739490695190582e-06, 3.243506800516443e+03, 1.592647226284745e+04, 1.903071751752799e+02, 1.268867527373815e+04
215, -2.500000000000000e-04, 5.000000000020526e-04, 2.682427963921866e-06, 2.278683795943589e-06, 3.285489904028157e+03, 1.622209987286455e+04, 1.672296348224044e+02, 1.294093275188649e+04
216, -2.500000000000000e-04, 4.000000000016421e-04, 1.839003366131393e-06, 1.807386518282972e-06, 3.271310739338673e+03, 1.642979440631134e+04, 1.343011102738458e+02, 1.316122485055512e+04
217, -2.500000000000000e-04, 3.000000000012316e-04, 1.187005328590603e-06, 1.328212908389508e-06, 2.992508036817509e+03, 1.626763476142623e+04, 8.959298023018732e+01, 1.327633598410521e+04
218, -2.500000000000000e-04, 2.000000000008210e-04, 7.224453849434824e-07, 8.499596566967520e-07, 2.806747346499296e+03, 1.601750663035777e+04, -4.530355777301850e+00, 1.321076239104113e+04
219, -2.500000000000000e-04, 1.000000000004105e-04, 4.209650618306240e-07, 3.760990676449690e-07, -1.437725926449891e+03, 1.106666454634092e+04, 9.353053215851927e+02, 1.264353452458465e+04
220, -1.999999999998928e-04, 9.899999999999593e-03, 5.157254735938416e-04, -1.221433102085309e-06, -2.936804244827656e+00, 3.251198474785980e+01, 2.211371202798201e+00, 3.572362371644763e+01
221, -1.499999999997670e-04, 9.899999999999591e-03, 5.156010697624691e-04, -4.739094483692037e-06, -1.354880026665944e+00, 3.009007899896132e+01, 6.484814636910079e+00, 3.401465465977437e+01
222, -9.999999999959327e-05, 9.899999999999591e-03, 5.154767517506479e-04, -8.256549978353124e-06, 7.191458950428165e-01, 2.593184936877697e+01, 9.361650774519134e+00, 3.140449708800740e+01
223, -4.999999999946756e-05, 9.899999999999593e-03, 5.153525378819746e-04, -1.177382742743064e-05, 2.857333066441591e+00, 2.131548638904141e+01, 1.131467807628042e+01, 2.920258865169398e+01
224, 6.282680539010377e-16, 9.899999999999593e-03, 5.152284274791249e-04, -1.529097902879579e-05, 4.651063046999573e+00, 1.659525687013291e+01, 1.218140480655602e+01, 2.713319476820453e+01
225, 5.000000000046569e-05, 9.899999999999590e-03, 5.151044133364662e-04, -1.880807416524764e-05, 6.087793028526708e+00, 1.207945827765453e+01, 1.187813248561819e+01, 2.450020771016439e+01
226, 1.000000000003380e-04, 9.899999999999590e-03, 5.149804848296422e-04, -2.232518751476299e-05, 7.188464006512444e+00, 8.046383730554822e+00, 1.044221081485741e+01, 2.090203562002040e+01
227, 1.500000000001929e-04, 9.899999999999593e-03, 5.148566272385338e-04, -2.584238954990484e-05, 7.924651785049387e+00, 4.825983679579433e+00, 7.998868651850534e+00, 1.629507112184803e+01
228, 2.000000000000797e-04, 9.899999999999593e-03, 5.147328196088596e-04, -2.935974019691183e-05, 8.081770902661951e+00, 2.747727736662332e+00, 4.744461060082307e+00, 1.088538742991248e+01
229, -1.999999999998947e-04, 9.799999999999184e-03, 5.086897107614058e-04, -9.749845372657355e-07, -1.067188137210468e+00, 4.347104615342847e+01, 4.582609836304342e+00, 4.547148079153592e+01
230, -1.499999999997712e-04, 9.799999999999181e-03, 5.085652254674535e-04, -4.492479596792494e-06, 1.277980016645155e+00, 3.768728080663639e+01, 9.837497364327023e+00, 4.138529450890281e+01
231, -9.999999999960086e-05, 9.799999999999184e-03, 5.084408635834108e-04, -8.009712965220681e-06, 2.736790791445879e+00, 3.031806680533560e+01, 1.365068194068647e+01, 3.880839157112162e+01
232, -4.999999999947776e-05, 9.799999999999184e-03, 5.083166338009736e-04, -1.152675701817339e-05, 4.465951492162177e+00, 2.310345900256618e+01, 1.605111022118958e+01, 3.712019993927123e+01
233, 6.154473632113966e-16, 9.799999999999184e-03, 5.081925348655698e-04, -1.504368200948388e-05, 6.225993493197706e+00, 1.634720973210736e+01, 1.702666939287644e+01, 3.552560908150667e+01
234, 5.000000000045551e-05, 9.799999999999184e-03, 5.080685584856459e-04, -1.856056452885137e-05, 7.730643947156011e+00, 1.010098063332188e+01, 1.651015365509119e+01, 3.310527436624967e+01
235, 1.000000000003303e-04, 9.799999999999184e-03, 5.079446919774010e-04, -2.207748490327668e-05, 8.793200989077645e+00, 4.433569451587802e+00, 1.449460852506136e+01, 2.931520240970207e+01
236, 1.500000000001885e-04, 9.799999999999188e-03, 5.078209185171950e-04, -2.559452294403656e-05, 9.244820349591405e+00, -5.162564300898302e-01, 1.104086152796537e+01, 2.414293091191820e+01
237, 2.000000000000778e-04, 9.799999999999188e-03, 5.076972154756051e-04, -2.911175454092018e-05, 8.835820754664446e+00, -4.525576072618025e+00, 6.231847909766133e+00, 1.827212737088761e+01
238, -1.999999999998966e-04, 9.699999999999027e-03, 5.016540838787092e-04, -7.289452448086821e-07, 4.305933650625651e-01, 5.700821371323623e+01, 7.419152318801599e+00, 5.849104554357352e+01
239, -1.499999999997756e-04, 9.699999999998999e-03, 5.015294612608264e-04, -4.246154024105587e-06, 2.088261407756124e+00, 4.719948607115978e+01, 1.337123469839428e+01, 5.244218016130004e+01
240, -9.999999999960846e-05, 9.699999999998973e-03, 5.014050077419664e-04, -7.763077843257039e-06, 3.896230184122080e+00, 3.711207636865078e+01, 1.766309908957991e+01, 4.848951139728615e+01
241, -4.999999999948794e-05, 9.699999999998947e-03, 5.012807274643456e-04, -1.127979886943932e-05, 5.579627542715075e+00, 2.688600506150698e+01, 2.024417870141928e+01, 4.575225467835735e+01
242, 6.026266725217555e-16, 9.699999999998920e-03, 5.011566191860595e-04, -1.479640344522107e-05, 7.166000140924738e+00, 1.696252897081506e+01, 2.108400295066499e+01, 4.329102330517809e+01
243, 5.000000000044535e-05, 9.699999999998892e-03, 5.010326754562492e-04, -1.831297940784739e-05, 8.485956540324741e+00, 7.551186803171424e+00, 2.016576857559368e+01, 4.034236834196903e+01
244, 1.000000000003228e-04, 9.699999999998864e-03, 5.009088832211084e-04, -2.182961638324177e-05, 9.346939098122020e+00, -1.198305460926526e+00, 1.748358361437776e+01, 3.652266374203690e+01
245, 1.500000000001842e-04, 9.699999999998836e-03, 5.007852240606780e-04, -2.534640472008638e-05, 9.572340128649227e+00, -9.106372853485974e+00, 1.305117480715805e+01, 3.209714900200598e+01
246, 2.000000000000759e-04, 9.699999999998809e-03, 5.006616735995095e-04, -2.886343497715479e-05, 9.044270417018041e+00, -1.587984429967919e+01, 6.886313657803276e+00, 2.847624900835212e+01
247, -1.999999999998985e-04, 9.599999999999352e-03, 4.946187881111204e-04, -4.834283372433349e-07, 1.148954496684285e+00, 7.263008232514028e+01, 1.031418655310638e+01, 7.439812774954211e+01
248, -1.499999999997800e-04, 9.599999999999241e-03, 4.944939968818861e-04, -4.000238384626865e-06, 2.707050217179418e+00, 5.909218737221676e+01, 1.693029011940974e+01, 6.577098589881335e+01
249, -9.999999999961608e-05, 9.599999999999132e-03, 4.943694253674205e-04, -7.516736424395769e-06, 4.433102021411166e+00, 4.524446115201613e+01, 2.156854772327692e+01, 5.938329763201358e+01
250, -4.999999999949810e-05, 9.599999999999024e-03, 4.942450791650082e-04, -1.103301882841909e-05, 6.141167480962617e+00, 3.136203420162106e+01, 2.420853061376760e+01, 5.459216002368938e+01
251, 5.898059818321144e-16, 9.599999999998917e-03, 4.941209570112948e-04, -1.454918416138022e-05, 7.649734890492770e+00, 1.767603720706045e+01, 2.483184391520413e+01, 5.066565530079968e+01
252, 5.000000000043517e-05, 9.599999999998809e-03, 4.939970516327462e-04, -1.806533275240044e-05, 8.831960470981386e+00, 4.451082075385937e+00, 2.342949773144173e+01, 4.706333553104293e+01
253, 1.000000000003152e-04, 9.599999999998698e-03, 4.938733498376187e-04, -2.158156593481137e-05, 9.539734096458584e+00, -8.082356231555799e+00, 2.000093306782529e+01, 4.371140997340633e+01
254, 1.500000000001798e-04, 9.599999999998591e-03, 4.937498326402285e-04, -2.509798591668473e-05, 9.638713350396010e+00, -1.968622351408607e+01, 1.454993126416063e+01, 4.131287839491526e+01
255, 2.000000000000740e-04, 9.599999999998483e-03, 4.936264753827036e-04, -2.861469558792089e-05, 9.023379000986738e+00, -3.009664370261180e+01, 7.078126061325239e+00, 4.160259187226334e+01
256, -1.999999999999004e-04, 9.499999999999719e-03, 4.875840695403201e-04, -2.385403287049136e-07, 1.457003624183871e+00, 9.041491981319811e+01, 1.323876444128935e+01, 9.281470997864224e+01
257, -1.499999999997843e-04, 9.499999999999528e-03, 4.874590863712822e-04, -3.754820689994609e-06, 3.085485620605601e+00, 7.267198570107419e+01, 2.048437543706553e+01, 8.075097238817419e+01
258, -9.999999999962368e-05, 9.499999999999330e-03, 4.873343832495225e-04, -7.270758036745734e-06, 4.814134921507431e+00, 5.454823650208839e+01, 2.543420438884381e+01, 7.114123889560452e+01
259, -4.999999999950831e-05, 9.499999999999136e-03, 4.872099660238900e-04, -1.078646371192613e-05, 6.487924359800021e+00, 3.634363481221884e+01, 2.808935466535670e+01, 6.361926460344740e+01
260, 5.769988436696294e-16, 9.499999999998942e-03, 4.870858338204170e-04, -1.430204989398524e-05, 7.950902706069408e+00, 1.832875324782623e+01, 2.845022645305776e+01, 5.783909856479535e+01
261, 5.000000000042495e-05, 9.499999999998747e-03, 4.869619793794235e-04, -1.781762964073045e-05, 9.052964034731403e+00, 7.575317775026251e-01, 2.651852311233655e+01, 5.368186349757600e+01
262, 1.000000000003075e-04, 9.499999999998551e-03, 4.868383893828776e-04, -2.133331675951779e-05, 9.661565831415054e+00, -1.611311985909412e+01, 2.229935158390328e+01, 5.151095754006769e+01
263, 1.500000000001755e-04, 9.499999999998359e-03, 4.867150446451312e-04, -2.484922556873129e-05, 9.651355069224788e+00, -3.203168246948245e+01, 1.580127523672161e+01, 5.230866863990904e+01
264, 2.000000000000721e-04, 9.499999999998164e-03, 4.865919203199073e-04, -2.836547073608035e-05, 8.914561347551993e+00, -4.674529235444167e+01, 7.039135319400128e+00, 5.741269039425554e+01
265, -1.999999999999023e-04, 9.400000000000087e-03, 4.805502187705273e-04, 5.614831326317030e-09, 1.610580542787737e+00, 1.103954310932212e+02, 1.621812068108115e+01, 1.135176350307942e+02
266, -1.499999999997887e-04, 9.399999999999811e-03, 4.804250257234678e-04, -3.509981365060984e-06, 3.340719401808908e+00, 8.781660837404021e+01, 2.405744345105846e+01, 9.721737580932870e+01
267, -9.999999999963125e-05, 9.399999999999530e-03, 4.803001823863857e-04, -7.025202131500595e-06, 5.119559078460485e+00, 6.484764378996582e+01, 2.929128287784395e+01, 8.366218449110839e+01
268, -4.999999999951849e-05, 9.399999999999249e-03, 4.801756943293689e-04, -1.054017324784859e-05, 6.794472377863221e+00, 4.177393999881990e+01, 3.193856819690788e+01, 7.282754773380537e+01
269, 5.641646004528322e-16, 9.399999999998968e-03, 4.800515605343627e-04, -1.405502071933283e-05, 8.222932698845618e+00, 1.887606434849072e+01, 3.201222871869868e+01, 6.490470217247574e+01
270, 5.000000000041476e-05, 9.399999999998687e-03, 4.799277736176768e-04, -1.756987083761777e-05, 9.265434934871090e+00, -3.576446956860994e+00, 2.952424192852903e+01, 6.042877937157461e+01
271, 1.000000000003000e-04, 9.399999999998406e-03, 4.798043200286640e-04, -2.108485015661229e-05, 9.786933870174980e+00, -2.532253999031609e+01, 2.448787477958387e+01, 6.026026219361168e+01
272, 1.500000000001711e-04, 9.399999999998125e-03, 4.796811802427300e-04, -2.460008537644402e-05, 9.659068652546459e+00, -4.610608383941584e+01, 1.691988905953095e+01, 6.522946278790857e+01
273, 2.000000000000702e-04, 9.399999999997844e-03, 4.795583289336310e-04, -2.811570308354545e-05, 8.749215186389701e+00, -6.568457865925637e+01, 6.842091814793854e+00, 7.568121661194682e+01
274, -1.999999999999042e-04, 9.300000000000464e-03, 4.735175667164240e-04, 2.489363526730331e-07, 1.850956097585334e+00, 1.326545115923968e+02, 1.927293983113003e+01, 1.363647863967148e+02
275, -1.499999999997930e-04, 9.300000000000100e-03, 4.733921498020843e-04, -3.265799513083355e-06, 3.664495884018333e+00, 1.046096330118302e+02, 2.766217629899545e+01, 1.151117053133154e+02
276, -9.999999999963886e-05, 9.299999999999729e-03, 4.732671608224940e-04, -6.780126972077980e-06, 5.473097046739007e+00, 7.618164850276600e+01, 3.315505646091090e+01, 9.693673361896600e+01
277, -4.999999999952863e-05, 9.299999999999361e-03, 4.731426048304691e-04, -1.029418590002916e-05, 7.145032286550189e+00, 4.766155405261710e+01, 3.577534379503071e+01, 8.222584405544733e+01
278, 5.513303572360351e-16, 9.299999999998993e-03, 4.730184804178507e-04, -1.380811601715755e-05, 8.540023967762989e+00, 1.932680892542494e+01, 3.554366891809649e+01, 7.190107322119660e+01
279, 5.000000000040461e-05, 9.299999999998625e-03, 4.728947798316816e-04, -1.732205697738118e-05, 9.519866910584589e+00, -8.551062221053542e+00, 3.247950063833724e+01, 6.742573934740119e+01
280, 1.000000000002923e-04, 9.299999999998258e-03, 4.727714891022409e-04, -2.083614835889797e-05, 9.948693306579283e+00, -3.570643669707968e+01, 2.660305995908281e+01, 7.010907282511459e+01
281, 1.500000000001668e-04, 9.299999999997890e-03, 4.726485881627097e-04, -2.435052957988597e-05, 9.691695733174910e+00, -6.187988212782416e+01, 1.793682352556548e+01, 8.005878658999379e+01
282, 2.000000000000683e-04, 9.299999999997520e-03, 4.725260509362946e-04, -2.786533977180272e-05, 8.616738634946902e+00, -8.681446395592764e+01, 6.506772517676836e+00, 9.631441627465598e+01
283, -1.999999999999061e-04, 9.200000000000841e-03, 4.664864895689432e-04, 4.913217693794988e-07, 1.992435339848630e+00, 1.570026014639380e+02, 2.242802655972732e+01, 1.613698147215678e+02
284, -1.499999999997973e-04, 9.200000000000397e-03, 4.663608354743650e-04, -3.022356430273435e-06, 3.916956832139260e+00, 1.229224566742856e+02, 3.132658479132828e+01, 1.344906266303798e+02
285, -9.999999999964642e-05, 9.199999999999951e-03, 4.662356962199766e-04, -6.535593380435542e-06, 5.794587144082698e+00, 8.848543106627979e+01, 3.704851121994531e+01, 1.110321773317213e+02
286, -4.999999999953884e-05, 9.199999999999505e-03, 4.661110760784188e-04, -1.004854265471926e-05, 7.490329189204664e+00, 5.397220920194192e+01, 3.961783036951925e+01, 9.186324130069933e+01
287, 5.385367716007061e-16, 9.199999999999058e-03, 4.659869729756401e-04, -1.356135755988218e-05, 8.869290592749785e+00, 1.966091340814895e+01, 3.905887614125773e+01, 7.885963698028475e+01
288, 5.000000000039439e-05, 9.199999999998614e-03, 4.658633785334855e-04, -1.707419114532582e-05, 9.795569679077058e+00, -1.417515115263187e+01, 3.539566735455794e+01, 7.473960480956399e+01
289, 1.000000000002848e-04, 9.199999999998171e-03, 4.657402781323129e-04, -2.058719619060241e-05, 1.013346189757369e+01, -4.726671136487378e+01, 2.865273348105979e+01, 8.110916368885557e+01
290, 1.500000000001625e-04, 9.199999999997726e-03, 4.656176509697176e-04, -2.410052515857604e-05, 9.747960940919887e+00, -7.934747638158733e+01, 1.885606536523272e+01, 9.674813567154938e+01
291, 2.000000000000664e-04, 9.199999999997280e-03, 4.654954701074298e-04, -2.761433011261663e-05, 8.504818893299017e+00, -1.101530259367697e+02, 6.033884330844092e+00, 1.192699257155327e+02
292, -1.999999999999080e-04, 9.100000000001274e-03, 4.594573959930832e-04, 7.326670183197350e-07, 2.221839537676349e+00, 1.835596076716143e+02, 2.570492929014522e+01, 1.884843752437939e+02
293, -1.499999999998017e-04, 9.100000000000802e-03, 4.593314939071158e-04, -2.779736064608478e-06, 4.229785914443392e+00, 1.428540279749040e+02, 3.507661489651902e+01, 1.553645910020425e+02
294, -9.999999999965405e-05, 9.100000000000334e-03, 4.592062015711878e-04, -6.291665313152631e-06, 6.160141840964698e+00, 1.018288237576865e+02, 4.099317646425024e+01, 1.259930901525935e+02
295, -4.999999999954905e-05, 9.099999999999862e-03, 4.590815224757122e-04, -9.803287857350091e-06, 7.873301867466246e+00, 6.075831602520384e+01, 4.348123631160345e+01, 1.017806286441881e+02
296, 5.257025283839090e-16, 9.099999999999390e-03, 4.589574537826953e-04, -1.331477050169121e-05, 9.232857536025008e+00, 1.991755988125590e+01, 4.256683313123327e+01, 8.580153842149461e+01
297, 5.000000000038422e-05, 9.099999999998916e-03, 4.588339863606670e-04, -1.682627970475800e-05, 1.010295072988439e+01, -2.041992610034964e+01, 3.827619077664746e+01, 8.241306408255240e+01
298, 1.000000000002772e-04, 9.099999999998446e-03, 4.587111048145554e-04, -2.033798156381292e-05, 1.034777620162495e+01, -5.998252919764403e+01, 3.063599015079171e+01, 9.327704662794632e+01
299, 1.500000000001581e-04, 9.099999999997978e-03, 4.585887875121336e-04, -2.385004178489123e-05, 9.831443465817740e+00, -9.850025586159116e+01, 1.967381660536476e+01, 1.152562072881553e+02
300, 2.000000000000645e-04, 9.099999999997506e-03, 4.584670065991969e-04, -2.736262563795564e-05, 8.417616499972056e+00, -1.357042287936170e+02, 5.418763178138164e+00, 1.445287454742212e+02
301, -1.999999999999099e-04, 9.000000000001736e-03, 4.524307349896273e-04, 9.728664164895128e-07, 2.484513571931622e+00, 2.122732223314281e+02, 2.910180754459632e+01, 2.177130293125052e+02
302, -1.499999999998060e-04, 9.000000000001264e-03, 4.523045753171778e-04, -2.538024698571312e-06, 4.579796727495815e+00, 1.643878959722230e+02, 3.891277822472453e+01, 1.777510782551795e+02
303, -9.999999999966160e-05, 9.000000000000792e-03, 4.521791282406712e-04, -6.048409641856145e-06, 6.558671361537222e+00, 1.162154821720165e+02, 4.499233027374000e+01, 1.418515255151330e+02
304, -4.999999999955923e-05, 9.000000000000320e-03, 4.520543964206560e-04, -9.558469105861409e-06, 8.284752147857390e+00, 6.803180140369977e+01, 4.736819466953691e+01, 1.120030953134092e+02
305, 5.128818376942679e-16, 8.999999999999852e-03, 4.519303761988840e-04, -1.306838337563695e-05, 9.621029720661582e+00, 2.011085649596042e+01, 4.606779234772912e+01, 9.273080627790171e+01
306, 5.000000000037403e-05, 8.999999999999380e-03, 4.518070576193467e-04, -1.657833234282855e-05, 1.043114480223908e+01, -2.727375754867175e+01, 4.111848751642767e+01, 9.046866708339520e+01
307, 1.000000000002695e-04, 8.999999999998908e-03, 4.516844244432623e-04, -2.008849549716357e-05, 1.057886288065437e+01, -7.384912593516168e+01, 3.254793491627173e+01, 1.066093690288944e+02
308, 1.500000000001538e-04, 8.999999999998436e-03, 4.515624541586325e-04, -2.359905191162747e-05, 9.927762439001334e+00, -1.193429609059713e+02, 2.038428630539284e+01, 1.355470266249074e+02
309, 2.000000000000626e-04, 8.999999999997964e-03, 4.514411179820011e-04, -2.711018022215374e-05, 8.340465797310952e+00, -1.634836295945167e+02, 4.656217370811653e+00, 1.720762656441524e+02
310, -1.999999999999118e-04, 8.900000000002187e-03, 4.454069942541828e-04, 1.211810958508527e-06, 2.760459872671071e+00, 2.431412473189547e+02, 3.262506252962325e+01, 2.490793082404532e+02
311, -1.499999999998104e-04, 8.900000000001712e-03, 4.452805683695641e-04, -2.297311851146741e-06, 4.944391658042278e+00, 1.875216177427977e+02, 4.284045940616772e+01, 2.016820848100543e+02
312, -9.999999999966923e-05, 8.900000000001240e-03, 4.451549658586944e-04, -5.805896583689075e-06, 6.973598887790580e+00, 1.316506827217767e+02, 4.904951643924204e+01, 1.586436115481512e+02
313, -4.999999999956943e-05, 8.900000000000770e-03, 4.450301884988835e-04, -9.314137424003105e-06, 8.711711887290608e+00, 7.580260028463874e+01, 5.128050408111125e+01, 1.225558962318700e+02
314, 5.000475944774707e-16, 8.900000000000293e-03, 4.449062317675890e-04, -1.282222813438880e-05, 1.002272362043821e+01, 2.025192343066518e+01, 4.956131617396927e+01, 9.964904802526786e+01
315, 5.000000000036387e-05, 8.899999999999823e-03, 4.447830848425754e-04, -1.633036206165099e-05, 1.077029083060319e+01, -3.472724445415777e+01, 4.391981286365608e+01, 9.892333175192972e+01
316, 1.000000000002620e-04, 8.899999999999349e-03, 4.446607306050029e-04, -1.983873213674306e-05, 1.081800201175786e+01, -8.886100702159797e+01, 3.438400700875543e+01, 1.210989041807745e+02
317, 1.500000000001494e-04, 8.899999999998874e-03, 4.445391456413187e-04, -2.334753086798691e-05, 1.002934210548353e+01, -1.418755935007186e+02, 2.098214291608336e+01, 1.575947675112604e+02
318, 2.000000000000606e-04, 8.899999999998404e-03, 4.444183002424102e-04, -2.685695033701599e-05, 8.267976465822644e+00, -1.934969212824425e+02, 3.742611360856444e+00, 2.019036961587418e+02
319, -1.999999999999137e-04, 8.800000000002590e-03, 4.383866992023182e-04, 1.449388576106919e-06, 3.054419153476100e+00, 2.761783223924634e+02, 3.628072316391805e+01, 2.825983545841821e+02
320, -1.499999999998147e-04, 8.800000000002060e-03, 4.382599996163154e-04, -2.057690290396304e-06, 5.324104595155145e+00, 2.122708354425083e+02, 4.686464222967776e+01, 2.271830279172932e+02
321, -9.999999999967683e-05, 8.800000000001532e-03, 4.381342420386847e-04, -5.564199646356968e-06, 7.400566311230651e+00, 1.481474783174918e+02, 5.316868552593120e+01, 1.764010479603783e+02
322, -4.999999999957961e-05, 8.800000000001001e-03, 4.380094273659140e-04, -9.070347131029402e-06, 9.148917481115834e+00, 8.408302888082900e+01, 5.522070115503181e+01, 1.334631949096003e+02
323, 4.872540088421418e-16, 8.800000000000474e-03, 4.378855501981368e-04, -1.257633997399209e-05, 1.043313658099397e+01, 2.035202339935909e+01, 5.304845634091635e+01, 1.065595570389253e+02
324, 5.000000000035368e-05, 8.799999999999947e-03, 4.377625988316153e-04, -1.608238499428850e-05, 1.111688409613734e+01, -4.277091950845586e+01, 4.667983350674091e+01, 1.077957457518404e+02
325, 1.000000000002544e-04, 8.799999999999419e-03, 4.376405552550699e-04, -1.958868859558190e-05, 1.106362794290174e+01, -1.050111824646350e+02, 3.614290200006813e+01, 1.367428209124402e+02
326, 1.500000000001451e-04, 8.799999999998892e-03, 4.375193951485981e-04, -2.309545675954497e-05, 1.013692709507190e+01, -1.660939930023318e+02, 2.146595430713207e+01, 1.813849111024427e+02
327, 2.000000000000587e-04, 8.799999999998365e-03, 4.373990878852617e-04, -2.660289503826667e-05, 8.200821316306785e+00, -2.257442453355899e+02, 2.677496924247240e+00, 2.340063464307705e+02
328, -1.999999999999156e-04, 8.700000000002964e-03, 4.313704133858833e-04, 1.685484181425037e-06, 3.349896041636523e+00, 3.113810574931543e+02, 4.007316680259373e+01, 3.182870264643614e+02
329, -1.499999999998191e-04, 8.700000000002345e-03, 4.312434336476285e-04, -1.819255903977127e-06, 5.703740753613967e+00, 2.386350577193750e+02, 5.099032676341626e+01, 2.542775100498739e+02
330, -9.999999999968445e-05, 8.700000000001731e-03, 4.311175224180095e-04, -5.323395495723866e-06, 7.827829484537837e+00, 1.657088238171577e+02, 5.735458102525531e+01, 1.951527612661093e+02
331, -4.999999999958977e-05, 8.700000000001117e-03, 4.309926797226085e-04, -8.827155679615733e-06, 9.586795227741803e+00, 9.287725425778049e+01, 5.919278626819771e+01, 1.447495918826879e+02
332, 4.743926605710325e-16, 8.700000000000502e-03, 4.308688992834027e-04, -1.233075715980055e-05, 1.084455815011117e+01, 2.041541552429035e+01, 5.653232733950513e+01, 1.134690153679000e+02
333, 5.000000000034347e-05, 8.699999999999888e-03, 4.307461685086282e-04, -1.583442024495053e-05, 1.146462531585600e+01, -5.140153418975318e+01, 4.940091621241884e+01, 1.171066014428324e+02
334, 1.000000000002468e-04, 8.699999999999274e-03, 4.306244684881262e-04, -1.933836483579560e-05, 1.131036202480096e+01, -1.222983017010222e+02, 3.782656797523263e+01, 1.535404572148321e+02
335, 1.500000000001407e-04, 8.699999999998657e-03, 4.305037739913859e-04, -2.284281041354876e-05, 1.024506833926432e+01, -1.919995312021703e+02, 2.183761154714773e+01, 2.069067499044237e+02
336, 2.000000000000568e-04, 8.699999999998044e-03, 4.303840534675657e-04, -2.634797602615052e-05, 8.132196914887949e+00, -2.602297363436516e+02, 1.462798028594141e+00, 2.683778797415143e+02
337, -1.999999999999175e-04, 8.600000000003331e-03, 4.243587377954417e-04, 1.919979749562726e-06, 3.647668814258317e+00, 3.487570740262913e+02, 4.400656046041991e+01, 3.561555994506186e+02
338, -1.499999999998235e-04, 8.600000000002632e-03, 4.242314726443374e-04, -1.582107551639350e-06, 6.083319074842969e+00, 2.666214585840236e+02, 5.522291212479576e+01, 2.829812754107185e+02
339, -9.999999999969208e-05, 8.600000000001931e-03, 4.241054103583372e-04, -5.083563773838932e-06, 8.254033868331451e+00, 1.843408030563809e+02, 6.161235861899002e+01, 2.149206393566368e+02
340, -4.999999999959999e-05, 8.600000000001230e-03, 4.239805501112224e-04, -8.584623478614314e-06, 1.002315039120999e+01, 1.021903735716865e+02, 6.320129791988465e+01, 1.564366110085226e+02
341, 4.615584173542353e-16, 8.600000000000526e-03, 4.238568847515637e-04, -1.208552087166542e-05, 1.125392613931234e+01, 2.044573947493562e+01, 6.001674216390163e+01, 1.203849109825228e+02
342, 5.000000000033329e-05, 8.599999999999825e-03, 4.237344007987876e-04, -1.558648977651897e-05, 1.180955454651790e+01, -6.061727459544831e+01, 5.208620451524926e+01, 1.268760670212356e+02
343, 1.000000000002392e-04, 8.599999999999124e-03, 4.236130784398276e-04, -1.908776361694375e-05, 1.155311368103722e+01, -1.407227270314924e+02, 3.943759945890034e+01, 1.714911912286759e+02
344, 1.500000000001364e-04, 8.599999999998423e-03, 4.234928915274450e-04, -2.258957540125664e-05, 1.034756351111020e+01, -2.195946341422959e+02, 2.209920625147676e+01, 2.341514764622665e+02
345, 2.000000000000548e-04, 8.599999999997722e-03, 4.233738075789360e-04, -2.609215770886188e-05, 8.055241152456652e+00, -2.969574020048465e+02, 9.969158700706693e-02, 3.050127083245130e+02
346, -1.999999999999195e-04, 8.500000000003703e-03, 4.173523111146361e-04, 2.152754517586494e-06, 3.952465170997499e+00, 3.883138797701808e+02, 4.808314525997585e+01, 3.962091019462490e+02
347, -1.499999999998278e-04, 8.500000000002915e-03, 4.172247565675940e-04, -1.346346839839602e-06, 6.468279462807757e+00, 2.962373881601808e+02, 5.956501924620583e+01, 3.133019349229644e+02
348, -9.999999999969967e-05, 8.500000000002127e-03, 4.170985471008477e-04, -4.844786874723152e-06, 8.683746038399942e+00, 2.040499583934320e+02, 6.594490549275116e+01, 2.357177956195565e+02
349, -4.999999999961013e-05, 8.500000000001340e-03, 4.169736810461342e-04, -8.342813689037572e-06, 1.046107152708732e+01, 1.120275837085648e+02, 6.724901109466364e+01, 1.685392368843261e+02
350, 4.487512791917503e-16, 8.500000000000552e-03, 4.168501503869281e-04, -1.184067503033742e-05, 1.166302016392043e+01, 2.044676488918584e+01, 6.350418779967337e+01, 1.273117498260996e+02
351, 5.000000000032310e-05, 8.499999999999765e-03, 4.167279407575249e-04, -1.533861827238394e-05, 1.215229097382759e+01, -7.041593607352483e+01, 5.473777356453454e+01, 1.371218711108923e+02
352, 1.000000000002316e-04, 8.499999999998977e-03, 4.166070314423625e-04, -1.883689039449944e-05, 1.179155264763200e+01, -1.602838531469699e+02, 4.097756082587281e+01, 1.905953494824292e+02
353, 1.500000000001320e-04, 8.499999999998190e-03, 4.164873953752234e-04, -2.233573796446663e-05, 1.044344102760236e+01, -2.488802376731012e+02, 2.225174327707603e+01, 2.631146720544890e+02
354, 2.000000000000531e-04, 8.499999999997402e-03, 4.163689991391262e-04, -2.583540712384619e-05, 7.970621501574499e+00, -3.359282195463069e+02, -1.411263179013845e+00, 3.439104236994246e+02
355, -1.999999999999213e-04, 8.400000000004074e-03, 4.103518101956448e-04, 2.383685036542292e-06, 4.280471279204377e+00, 4.300710194774319e+02, 5.230049035844267e+01, 4.384506313165501e+02
356, -1.499999999998322e-04, 8.400000000003200e-03, 4.102239635806023e-04, -1.112078009372505e-06, 6.870810986816480e+00, 3.274969537073183e+02, 6.401546404749631e+01, 3.452434531525438e+02
357, -9.999999999970726e-05, 8.400000000002326e-03, 4.100976121136985e-04, -4.607149823171022e-06, 9.125603142695720e+00, 2.248461364225224e+02, 7.035189675455396e+01, 2.575517539959425e+02
358, -4.999999999962035e-05, 8.400000000001451e-03, 4.099727532986454e-04, -8.101792096421585e-06, 1.090706247415101e+01, 1.223960413920807e+02, 7.133629347100086e+01, 1.810670027500472e+02
359, 4.359305885021092e-16, 8.400000000000581e-03, 4.098493782643345e-04, -1.159626616976056e-05, 1.207698454927440e+01, 2.042366614091951e+01, 6.699545200588672e+01, 1.342506217917987e+02
360, 5.000000000031294e-05, 8.399999999999703e-03, 4.097274717693677e-04, -1.509083300862205e-05, 1.249740499696161e+01, -8.079379388422319e+01, 5.735664168256274e+01, 1.478593425154337e+02
361, 1.000000000002240e-04, 8.399999999998832e-03, 4.096070122032449e-04, -1.858575318638993e-05, 1.203043506324592e+01, -1.809790020567643e+02, 4.244755355550665e+01, 2.108549786672669e+02
362, 1.500000000001277e-04, 8.399999999997958e-03, 4.094879715868052e-04, -2.208128686659545e-05, 1.053827397365448e+01, -2.798544594696922e+02, 2.229630595911921e+01, 2.937965974520284e+02
363, 2.000000000000511e-04, 8.399999999997083e-03, 4.093703155732411e-04, -2.557769378567446e-05, 7.883776211241603e+00, -3.771421214182849e+02, -3.068498183955541e+00, 3.850748038626293e+02
364, -1.999999999999233e-04, 8.300000000004210e-03, 4.033579509517079e-04, 2.612644964412768e-06, 4.607798162452362e+00, 4.740163122167069e+02, 5.665958119614625e+01, 4.828929339221211e+02
365, -1.499999999998365e-04, 8.300000000003279e-03, 4.032298106806141e-04, -8.794080966473054e-07, 7.275448652526457e+00, 3.603928307443161e+02, 6.857409557455662e+01, 3.788159340244715e+02
366, -9.999999999971485e-05, 8.300000000002344e-03, 4.031033235561193e-04, -4.370740350742300e-06, 9.571290190362781e+00, 2.467263420005569e+02, 7.483321323829499e+01, 2.804328044529889e+02
367, -4.999999999963053e-05, 8.300000000001409e-03, 4.029784862354626e-04, -7.861627138280558e-06, 1.135666287677881e+01, 1.332946863670510e+02, 7.546321090104952e+01, 1.940300656359712e+02
368, 4.231098978124681e-16, 8.300000000000474e-03, 4.028552889886272e-04, -1.135234343112227e-05, 1.249355713672918e+01, 2.037608750683712e+01, 7.049097138368282e+01, 1.412021333815337e+02
369, 5.000000000030276e-05, 8.299999999999542e-03, 4.027337156997593e-04, -1.484316382587423e-05, 1.284389069079796e+01, -9.175127117134650e+01, 5.994369023955924e+01, 1.591010115716211e+02
370, 1.000000000002164e-04, 8.299999999998609e-03, 4.026137438679676e-04, -1.833436252774098e-05, 1.226950975723906e+01, -2.028091886138732e+02, 4.384895492496121e+01, 2.322708976283017e+02
371, 1.500000000001233e-04, 8.299999999997672e-03, 4.024953446071186e-04, -2.182621333439671e-05, 1.063222198151064e+01, -3.125193496990483e+02, 2.223478043018601e+01, 3.261969958824419e+02
372, 2.000000000000492e-04, 8.299999999996739e-03, 4.023784826449701e-04, -2.531898961675662e-05, 7.793518351892374e+00, -4.206035344631019e+02, -4.870241647188058e+00, 4.285077734130164e+02
373, -1.999999999999252e-04, 8.200000000004194e-03, 3.963714873797443e-04, 2.839505198708827e-06, 4.969735149568073e+00, 5.201863219014559e+02, 6.115685669004068e+01, 5.295363781130528e+02
374, -1.499999999998408e-04, 8.200000000003217e-03, 3.962430532197911e-04, -6.484468314679406e-07, 7.705055789237619e+00, 3.949501175680772e+02, 7.323873551015211e+01, 4.140222063955040e+02
375, -9.999999999972244e-05, 8.200000000002240e-03, 3.961164380763348e-04, -4.135648861299570e-06, 1.003355641055587e+01, 2.697061307344536e+02, 7.938692646703483e+01, 3.043665261350691e+02
376, -4.999999999964069e-05, 8.200000000001265e-03, 3.959916377746131e-04, -7.622389893019194e-06, 1.181659882829954e+01, 1.447329116272097e+02, 7.962835875181419e+01, 2.074354074840846e+02
377, 4.102892071228270e-16, 8.200000000000287e-03, 3.958686417350989e-04, -1.110895856819624e-05, 1.291555287144779e+01, 2.030913610431298e+01, 7.398984475943044e+01, 1.481642790389093e+02
378, 5.000000000029257e-05, 8.199999999999309e-03, 3.957474329754218e-04, -1.459564314959420e-05, 1.319167917637494e+01, -1.032866291204257e+02, 6.249853959182656e+01, 1.708551026692764e+02
379, 1.000000000002088e-04, 8.199999999998328e-03, 3.956279881120437e-04, -1.808273150963493e-05, 1.250624225308995e+01, -2.257756976869458e+02, 4.518190450700400e+01, 2.548409325071365e+02
380, 1.500000000001190e-04, 8.199999999997352e-03, 3.955102773595601e-04, -2.157051111797702e-05, 1.072033364513032e+01, -3.468792849416366e+02, 2.206773982362025e+01, 3.603129581032205e+02
381, 2.000000000000473e-04, 8.199999999996377e-03, 3.953942645267583e-04, -2.505926902779161e-05, 7.694601623719862e+00, -4.663185173032248e+02, -6.815815497820169e+00, 4.742090870897046e+02
382, -1.999999999999271e-04, 8.100000000004175e-03, 3.893932133133099e-04, 3.064133794727780e-06, 5.330711933318824e+00, 5.685623016069161e+02, 6.579169591182499e+01, 5.783977978952405e+02
383, -1.499999999998452e-04, 8.100000000003150e-03, 3.892644860027212e-04, -4.193067697242828e-07, 8.135687777864952e+00, 4.311576969471744e+02, 7.800729359360125e+01, 4.508748957935367e+02
384, -9.999999999973005e-05, 8.100000000002133e-03, 3.891377515411031e-04, -3.901968508562555e-06, 1.049710137801873e+01, 2.937793889796097e+02, 8.401130750063199e+01, 3.293637102363488e+02
385, -4.999999999965090e-05, 8.100000000001112e-03, 3.890130049071912e-04, -7.384154134186763e-06, 1.227715389118047e+01, 1.567076275598791e+02, 8.383010992132728e+01, 2.212919136386413e+02
386, 3.974685164331859e-16, 8.100000000000092e-03, 3.888902346611533e-04, -1.086616598546236e-05, 1.333659734096281e+01, 2.022113749557657e+01, 7.749063788117080e+01, 1.551341120774650e+02
387, 5.000000000028236e-05, 8.099999999999071e-03, 3.887694229506748e-04, -1.434830601977858e-05, 1.353647897300395e+01, -1.154010464444453e+02, 6.502000177476472e+01, 1.831264262304516e+02
388, 1.000000000002012e-04, 8.099999999998051e-03, 3.886505455116061e-04, -1.783087580564458e-05, 1.273779384654079e+01, -2.498797405580963e+02, 4.644550207493634e+01, 2.785618567369596e+02
389, 1.500000000001146e-04, 8.099999999997031e-03, 3.885335716664105e-04, -2.131417651553484e-05, 1.080140239513404e+01, -3.829355428360823e+02, 2.179462917802841e+01, 3.961424055614861e+02
390, 2.000000000000454e-04, 8.099999999996011e-03, 3.884184643198538e-04, -2.479850892101284e-05, 7.587927477328734e+00, -5.142887670513608e+02, -8.904948412454445e+00, 5.221805020460886e+02
391, -1.999999999999291e-04, 8.000000000004158e-03, 3.824239609461597e-04, 3.286395860756442e-06, 5.693503169112518e+00, 6.191496188040287e+02, 7.056669909510231e+01, 6.294815659688491e+02
392, -1.499999999998495e-04, 8.000000000003093e-03, 3.822949424281451e-04, -1.921032564878998e-07, 8.567329082046399e+00, 4.690181257885154e+02, 8.288187793945166e+01, 4.893797696581896e+02
393, -9.999999999973761e-05, 8.000000000002028e-03, 3.821680985629797e-04, -3.669795164069920e-06, 1.096283135742348e+01, 3.189497758376236e+02, 8.870672785061107e+01, 3.554314170611532e+02
394, -4.999999999966106e-05, 8.000000000000966e-03, 3.820434234591891e-04, -7.146996295920814e-06, 1.273889459415886e+01, 1.692220335257278e+02, 8.806800494674093e+01, 2.356074420536700e+02
395, 3.846478257435448e-16, 7.999999999999901e-03, 3.819209048111668e-04, -1.062402270118843e-05, 1.375712484040423e+01, 2.011464035034461e+01, 8.099256766941689e+01, 1.621098457040763e+02
396, 5.000000000027218e-05, 7.999999999998840e-03, 3.818005238978911e-04, -1.410119004724460e-05, 1.387878118042443e+01, -1.280927887654188e+02, 6.750731798279249e+01, 1.959205925823186e+02
397, 1.000000000001936e-04, 7.999999999997775e-03, 3.816822555817008e-04, -1.757881361668126e-05, 1.296495038227565e+01, -2.751204883932447e+02, 4.763927107091516e+01, 3.034323987763281e+02
398, 1.500000000001103e-04, 7.999999999996709e-03, 3.815660683050557e-04, -2.105720830411805e-05, 1.087657742142638e+01, -4.206884288338102e+02, 2.141557330854320e+01, 4.336852104287357e+02
399, 2.000000000000435e-04, 7.999999999995648e-03, 3.814519240870510e-04, -2.453668861271108e-05, 7.474541484055891e+00, -5.645162249528317e+02, -1.113654471138791e+01, 5.724242547285124e+02
400, -1.999999999999309e-04, 7.900000000004136e-03, 3.754646009498944e-04, 3.506154263651491e-06, 6.106394442157494e+00, 6.719905113674279e+02, 7.547388546274549e+01, 6.827787977967108e+02
401, -1.499999999998538e-04, 7.900000000003030e-03, 3.753352946416135e-04, 3.304598371267645e-08, 9.036519666991026e+00, 5.085653676079581e+02, 8.785583466577751e+01, 5.295315483184279e+02
402, -9.999999999974523e-05, 7.900000000001926e-03, 3.752083526335281e-04, -3.439227156652262e-06, 1.145173680060428e+01, 3.452385288410715e+02, 9.346823241757622e+01, 3.825687708448381e+02
403, -4.999999999967128e-05, 7.900000000000816e-03, 3.750837682030606e-04, -6.910995306444171e-06, 1.321418948832156e+01, 1.822899292400550e+02, 9.233847318121377e+01, 2.503840655679726e+02
404, 3.718271350539037e-16, 7.899999999999709e-03, 3.749615282046073e-04, -1.038258823561655e-05, 1.418436018034759e+01, 1.999847953727216e+01, 8.449319165076689e+01, 1.690863735646059e+02
405, 5.000000000026201e-05, 7.899999999998603e-03, 3.748416130713876e-04, -1.385433533277921e-05, 1.422296642474610e+01, -1.413563696873530e+02, 6.995904658689827e+01, 2.092414935486571e+02
406, 1.000000000001860e-04, 7.899999999997496e-03, 3.747239968130776e-04, -1.732656560809304e-05, 1.319066231514829e+01, -3.014948258256524e+02, 4.876273598761738e+01, 3.294513228542364e+02
407, 1.500000000001060e-04, 7.899999999996389e-03, 3.746086470127060e-04, -2.079960769242856e-05, 1.094793745755190e+01, -4.601368146575084e+02, 2.093106057405056e+01, 4.729410966096370e+02
408, 2.000000000000416e-04, 7.899999999995286e-03, 3.744955248224182e-04, -2.427378983371533e-05, 7.355459958544166e+00, -6.170016570321736e+02, -1.350899483114149e+01, 6.249414222968039e+02
409, -1.999999999999328e-04, 7.800000000004094e-03, 3.685160450785710e-04, 3.723269012183691e-06, 6.495564419413199e+00, 7.270355947690362e+02, 8.051266475292287e+01, 7.383136813568484e+02
410, -1.499999999998583e-04, 7.800000000002947e-03, 3.683864550917878e-04, 2.560204380518927e-07, 9.488602396329199e+00, 5.497641300503974e+02, 9.292674366815663e+01, 5.713485490809887e+02
411, -9.999999999975283e-05, 7.800000000001799e-03, 3.682594270666387e-04, -3.210365521863441e-06, 1.192989968758913e+01, 3.726257465430830e+02, 9.829396764164690e+01, 4.107898614106127e+02
412, -4.999999999968147e-05, 7.800000000000654e-03, 3.681349534227847e-04, -6.676232739445015e-06, 1.368133328377237e+01, 1.958998268825367e+02, 9.664018418602156e+01, 2.656329802705899e+02
413, 3.590064443642627e-16, 7.799999999999507e-03, 3.680130201692221e-04, -1.014192469992446e-05, 1.460433618425563e+01, 1.986597397899118e+01, 8.799181781943557e+01, 1.760622754736458e+02
414, 5.000000000025183e-05, 7.799999999998360e-03, 3.678936068953301e-04, -1.360778451909679e-05, 1.455997384459835e+01, -1.551958844402378e+02, 7.237518840028170e+01, 2.230912885029948e+02
415, 1.000000000001784e-04, 7.799999999997211e-03, 3.677766867651414e-04, -1.707415494340202e-05, 1.340904614685570e+01, -3.290055343539677e+02, 4.981667343788845e+01, 3.566154073357232e+02
416, 1.500000000001016e-04, 7.799999999996065e-03, 3.676622265128073e-04, -2.054137834930295e-05, 1.101211590466517e+01, -5.012824930327844e+02, 2.034271242163682e+01, 5.139076474825531e+02
417, 2.000000000000397e-04, 7.799999999994919e-03, 3.675501864382652e-04, -2.400979674416854e-05, 7.228849100983844e+00, -6.717465609312654e+02, -1.602010940859008e+01, 6.797309637277928e+02
418, -1.999999999999347e-04, 7.700000000003952e-03, 3.615792426444833e-04, 3.937597331231431e-06, 6.897751803922844e+00, 7.843186891168916e+02, 8.568351882493110e+01, 7.960841509322141e+02
419, -1.499999999998626e-04, 7.700000000002785e-03, 3.614493743850950e-04, 4.766969023398949e-07, 9.946053771806078e+00, 5.926375600704653e+02, 9.809723539968846e+01, 6.148346622343668e+02
420, -9.999999999976044e-05, 7.700000000001617e-03, 3.613222736686103e-04, -2.983313954009056e-06, 1.240829595862022e+01, 4.011253478913848e+02, 1.031855072508432e+02, 4.401021950521887e+02
421, -4.999999999969162e-05, 7.700000000000449e-03, 3.611979320874741e-04, -6.442792777533726e-06, 1.414520234113226e+01, 2.100600313881160e+02, 1.009744401721399e+02, 2.813644798349947e+02
422, 3.461857536746216e-16, 7.699999999999279e-03, 3.610763348242765e-04, -9.902096767365145e-06, 1.501842800086401e+01, 1.972163044490580e+01, 9.148967150043111e+01, 1.830397773115364e+02
423, 5.000000000024164e-05, 7.699999999998113e-03, 3.609574606387019e-04, -1.336158276963432e-05, 1.488892752537834e+01, -1.696097060012009e+02, 7.475704357467814e+01, 2.374746471294995e+02
424, 1.000000000001708e-04, 7.699999999996944e-03, 3.608412818601114e-04, -1.682160727444524e-05, 1.361732200629702e+01, -3.576535405339505e+02, 5.080253158267860e+01, 3.849229042707326e+02
425, 1.500000000000973e-04, 7.699999999995776e-03, 3.607277643826723e-04, -2.028252641217181e-05, 1.106400698633775e+01, -5.441291710775954e+02, 1.965224094995603e+01, 5.565827047853272e+02
426, 2.000000000000377e-04, 7.699999999994609e-03, 3.606168676623647e-04, -2.374469595050799e-05, 7.089309752968553e+00, -7.287555410476086e+02, -1.866784934503295e+01, 7.367914215342081e+02
427, -1.999999999999367e-04, 7.600000000003967e-03, 3.546551822346653e-04, 4.148994269226537e-06, 7.307891819968120e+00, 8.438381851165411e+02, 9.098407617096667e+01, 8.560930674112410e+02
428, -1.499999999998669e-04, 7.600000000002791e-03, 3.545250422267169e-04, 6.949497802126872e-07, 1.040789652322154e+01, 6.371887002493603e+02, 1.033645983959222e+02, 6.599932853641661e+02
429, -9.999999999976803e-05, 7.600000000001615e-03, 3.543978832601148e-04, -2.758178574397628e-06, 1.288585072869220e+01, 4.307397239058635e+02, 1.081423156060280e+02, 4.705113187030665e+02
430, -4.999999999970180e-05, 7.600000000000435e-03, 3.542736961424316e-04, -6.210762037658463e-06, 1.460557396724032e+01, 2.247729163623391e+02, 1.053417508209481e+02, 2.975867095041536e+02
431, 3.333650629849805e-16, 7.599999999999259e-03, 3.541524652548116e-04, -9.663171531216498e-06, 1.542765662924898e+01, 1.956795977559904e+01, 9.498799293405837e+01, 1.900210970305839e+02
432, 5.000000000023146e-05, 7.599999999998081e-03, 3.540341685459316e-04, -1.311577764446369e-05, 1.521259577254763e+01, -1.845948879233920e+02, 7.710639425527391e+01, 2.523977311330316e+02
433, 1.000000000001632e-04, 7.599999999996904e-03, 3.539187775264702e-04, -1.656895062369214e-05, 1.382069799388029e+01, -3.874349917870210e+02, 5.172253931178990e+01, 4.143754491677632e+02
434, 1.500000000000929e-04, 7.599999999995727e-03, 3.538062572654172e-04, -2.002306036378493e-05, 1.111222403677576e+01, -5.886713084322413e+02, 1.886220619834759e+01, 6.009687322246377e+02
435, 2.000000000000358e-04, 7.599999999994550e-03, 3.536965663886557e-04, -2.347847640217561e-05, 6.948096161128262e+00, -7.880220019021131e+02, -2.144851906269684e+01, 7.961266310673266e+02
436, -1.999999999999386e-04, 7.500000000004145e-03, 3.477448916151296e-04, 4.357312211697181e-06, 7.699026041827295e+00, 9.055747552947358e+02, 9.641516066489405e+01, 9.183487126389364e+02
437, -1.499999999998712e-04, 7.500000000002950e-03, 3.476144873307667e-04, 9.106509790116269e-07, 1.085108510110304e+01, 6.833995025243040e+02, 1.087315090641154e+02, 7.068320437217679e+02
438, -9.999999999977570e-05, 7.500000000001755e-03, 3.474872855911710e-04, -2.535067944765300e-06, 1.334999382286354e+01, 4.614591731431589e+02, 1.131667364422001e+02, 5.020245786204318e+02
439, -4.999999999971198e-05, 7.500000000000564e-03, 3.473632764171111e-04, -5.980229528101979e-06, 1.505525813812873e+01, 2.400329965230487e+02, 1.097445325757968e+02, 3.143094533893532e+02
440, 3.205443722953394e-16, 7.499999999999370e-03, 3.472424433946293e-04, -9.425218437593717e-06, 1.582788836939037e+01, 1.940175774061860e+01, 9.848946164487528e+01, 1.970113417107554e+02
441, 5.000000000022125e-05, 7.499999999998177e-03, 3.471247636703534e-04, -1.287041902031096e-05, 1.552850009960711e+01, -2.001536332818229e+02, 7.942641464732920e+01, 2.678675120929801e+02
442, 1.000000000001556e-04, 7.499999999996980e-03, 3.470102079475431e-04, -1.631621529221412e-05, 1.401747554969052e+01, -4.183519538175235e+02, 5.258054483974652e+01, 4.449743568273441e+02
443, 1.500000000000885e-04, 7.499999999995787e-03, 3.468987404817286e-04, -1.976299092786812e-05, 1.115499905077949e+01, -6.349116462374446e+02, 1.797729749079135e+01, 6.470663358993958e+02
444, 2.000000000000339e-04, 7.499999999994593e-03, 3.467903190773051e-04, -2.321112924614158e-05, 6.800778422793158e+00, -8.495511014093736e+02, -2.435748702166019e+01, 8.577363760434364e+02
445, -1.999999999999404e-04, 7.400000000004559e-03, 3.408494362048078e-04, 4.562401515840731e-06, 8.127577446940577e+00, 9.695727689384837e+02, 1.019709341506757e+02, 9.828372916655411e+02
446, -1.499999999998756e-04, 7.400000000003323e-03, 3.407187765864897e-04, 1.123670298359119e-06, 1.131975421015272e+01, 7.313043934956959e+02, 1.141945877367118e+02, 7.553406491647090e+02
447, -9.999999999978329e-05, 7.400000000002085e-03, 3.405915488919563e-04, -2.314092777294299e-06, 1.382781184591663e+01, 4.933046239758005e+02, 1.182567473631105e+02, 5.346369296614723e+02
448, -4.999999999972218e-05, 7.400000000000849e-03, 3.404677423975993e-04, -5.751286449518904e-06, 1.551069520687905e+01, 2.558530946921285e+02, 1.141818709035279e+02, 3.315335089586675e+02
449, 3.077507866600104e-16, 7.399999999999613e-03, 3.403473399255909e-04, -9.188309155177721e-06, 1.622825795633727e+01, 1.923033082624136e+01, 1.019941772880804e+02, 2.040104439586506e+02
450, 5.000000000021107e-05, 7.399999999998373e-03, 3.402303178471163e-04, -1.262555901807547e-05, 1.584053477436352e+01, -2.162826259633968e+02, 8.171812840872029e+01, 2.838883086592058e+02
451, 1.000000000001480e-04, 7.399999999997137e-03, 3.401166460800446e-04, -1.606343384105649e-05, 1.420740459181620e+01, -4.504043649752846e+02, 5.337841143837367e+01, 4.767191160956418e+02
452, 1.500000000000842e-04, 7.399999999995899e-03, 3.400062880846418e-04, -1.950233109769863e-05, 1.118837607072638e+01, -6.828531919334901e+02, 1.699995638657345e+01, 6.948738678251852e+02
453, 2.000000000000320e-04, 7.399999999994663e-03, 3.398992008561596e-04, -2.294264792385678e-05, 6.642366386657415e+00, -9.133471399411187e+02, -2.739201345410480e+01, 9.216192171159978e+02
454, -1.999999999999424e-04, 7.300000000004963e-03, 3.339699221568293e-04, 4.764110296892775e-06, 8.555829591641128e+00, 1.035808057071804e+03, 1.076450646339032e+02, 1.049569901732659e+03
455, -1.499999999998800e-04, 7.300000000003675e-03, 3.338390170207349e-04, 1.333875344103877e-06, 1.179043348862851e+01, 7.808885933846254e+02, 1.197468253220344e+02, 8.055241698758839e+02
456, -9.999999999979085e-05, 7.300000000002383e-03, 3.337117811575447e-04, -2.095365974168692e-06, 1.430620665805060e+01, 5.262684254426933e+02, 1.234072467884140e+02, 5.683508667209724e+02
457, -4.999999999973237e-05, 7.300000000001096e-03, 3.335882030940503e-04, -5.524026200364321e-06, 1.596424162368230e+01, 2.722291847715431e+02, 1.186503141182686e+02, 3.492610903722765e+02
458, 2.949029909160572e-16, 7.299999999999806e-03, 3.334682648998637e-04, -8.952517562445885e-06, 1.662437307082797e+01, 1.905175752239220e+01, 1.055000886482528e+02, 2.110141393708784e+02
459, 5.000000000020089e-05, 7.299999999998517e-03, 3.333519421865950e-04, -1.238125197998254e-05, 1.614635072160750e+01, -2.329825835338145e+02, 8.398065671831060e+01, 3.004600284473748e+02
460, 1.000000000001404e-04, 7.299999999997227e-03, 3.332392041051069e-04, -1.581064106112086e-05, 1.438975340227587e+01, -4.835921435255628e+02, 5.411623191930721e+01, 5.096079236986270e+02
461, 1.500000000000799e-04, 7.299999999995936e-03, 3.331300133405387e-04, -1.924109609873474e-05, 1.121394294635031e+01, -7.324947332767600e+02, 1.593116499883318e+01, 7.443908940619917e+02
462, 2.000000000000302e-04, 7.299999999994650e-03, 3.330243261058004e-04, -2.267302806852354e-05, 6.477759645060715e+00, -9.794078234503685e+02, -3.055010988958184e+01, 9.877771103910418e+02
463, -1.999999999999443e-04, 7.200000000005343e-03, 3.271074948729114e-04, 4.962284084638136e-06, 8.982364598474092e+00, 1.104285321048714e+03, 1.134366358026598e+02, 1.118552657579221e+03
464, -1.499999999998843e-04, 7.200000000003976e-03, 3.269763549892162e-04, 1.541131303747953e-06, 1.225694120741947e+01, 8.321520618272268e+02, 1.253870815020142e+02, 8.573888788913343e+02
465, -9.999999999979844e-05, 7.200000000002606e-03, 3.268491297152299e-04, -1.879002765380341e-06, 1.478017429797119e+01, 5.603505586552797e+02, 1.286164444444702e+02, 6.031714544090521e+02
466, -4.999999999974257e-05, 7.200000000001237e-03, 3.267258068272088e-04, -5.298544446612920e-06, 1.641229143662356e+01, 2.891614519408731e+02, 1.231482855296655e+02, 3.674970822623725e+02
467, 2.821094052807283e-16, 7.199999999999870e-03, 3.266063676491404e-04, -8.717919764774127e-06, 1.701362512664149e+01, 1.886613242830275e+01, 1.090061727886486e+02, 2.180202160521303e+02
468, 5.000000000019069e-05, 7.199999999998501e-03, 3.264907870465371e-04, -1.213755444456343e-05, 1.644401723468904e+01, -2.502537980681124e+02, 8.621370776357365e+01, 3.175829628816047e+02
469, 1.000000000001328e-04, 7.199999999997132e-03, 3.263790334209143e-04, -1.555787391143877e-05, 1.456296619732932e+01, -5.179163487838227e+02, 5.479454539285881e+01, 5.436395770195886e+02
470, 1.500000000000756e-04, 7.199999999995762e-03, 3.262710687034606e-04, -1.897930329093103e-05, 1.122963079192854e+01, -7.838390896402559e+02, 1.477243751645450e+01, 7.956174770895756e+02
471, 2.000000000000282e-04, 7.199999999994395e-03, 3.261668483481298e-04, -2.240226740582748e-05, 6.303374706446448e+00, -1.047738655982117e+03, -3.382881526533026e+01, 1.056211227656236e+03
472, -1.999999999999461e-04, 7.100000000005715e-03, 3.202633387233614e-04, 5.156766375586268e-06, 9.428010198582527e+00, 1.175023225401464e+03, 1.193405129264933e+02, 1.189781844627865e+03
473, -1.499999999998886e-04, 7.100000000004259e-03, 3.201319759773805e-04, 1.745301223938966e-06, 1.273402191279740e+01, 8.851098360585052e+02, 1.311113815503749e+02, 9.109337728916292e+02
474, -9.999999999980600e-05, 7.100000000002804e-03, 3.200047811053994e-04, -1.665120532299450e-06, 1.525785306589323e+01, 5.955607966775594e+02, 1.338814693968268e+02, 6.390997557156306e+02
475, -4.999999999975274e-05, 7.100000000001348e-03, 3.198817411652916e-04, -5.074938999693173e-06, 1.685973408633832e+01, 3.066566860189441e+02, 1.276738567491870e+02, 3.862443891350096e+02
476, 2.692616095367750e-16, 7.099999999999895e-03, 3.197628367611165e-04, -8.484593996875699e-06, 1.739962779202313e+01, 1.867858654132583e+01, 1.125115459806935e+02, 2.250267265267511e+02
477, 5.000000000018050e-05, 7.099999999998441e-03, 3.196480420378499e-04, -1.189452505708050e-05, 1.673730812258665e+01, -2.680918094255024e+02, 8.841754588872634e+01, 3.352585209762211e+02
478, 1.000000000001252e-04, 7.099999999996985e-03, 3.195373246748303e-04, -1.530517142912854e-05, 1.473222418308325e+01, -5.533723280086938e+02, 5.541490443621474e+01, 5.788143301229841e+02
479, 1.500000000000712e-04, 7.099999999995530e-03, 3.194306458793154e-04, -1.871697207750207e-05, 1.124351975150624e+01, -8.368802768667460e+02, 1.352672133515189e+01, 8.485551621140926e+02
480, 2.000000000000263e-04, 7.099999999994075e-03, 3.193279603794900e-04, -2.213036568309306e-05, 6.129860644957766e+00, -1.118332592886952e+03, -3.722365995767322e+01, 1.126924226754213e+03
481, -1.999999999999481e-04, 7.000000000006086e-03, 3.134386780914934e-04, 5.347398527595311e-06, 9.866946568842039e+00, 1.248004660175317e+03, 1.253520567968894e+02, 1.263264639902310e+03
482, -1.499999999998929e-04, 7.000000000004546e-03, 3.133071052005355e-04, 1.946246030324068e-06, 1.320446304635337e+01, 9.397516669947387e+02, 1.369160051718908e+02, 9.661644223596146e+02
483, -9.999999999981362e-05, 7.000000000003004e-03, 3.131799614174328e-04, -1.453838777869883e-06, 1.572803011503956e+01, 6.318936459425115e+02, 1.391996842212269e+02, 6.761407209133354e+02
484, -4.999999999976293e-05, 7.000000000001462e-03, 3.130572330947393e-04, -4.853309779010444e-06, 1.729830266811088e+01, 3.247113666874907e+02, 1.322254672604544e+02, 4.055084323399024e+02
485, 2.564544713742900e-16, 6.999999999999921e-03, 3.129389001349911e-04, -8.252620583766550e-06, 1.777553826199537e+01, 1.848621337381256e+01, 1.160157176178864e+02, 2.320325235752246e+02
486, 5.000000000017032e-05, 6.999999999998381e-03, 3.128249359814603e-04, -1.165222453444100e-05, 1.701946669390992e+01, -2.865000502111765e+02, 9.059281198171681e+01, 3.534859650301774e+02
487, 1.000000000001176e-04, 6.999999999996837e-03, 3.127153076111251e-04, -1.505257470508235e-05, 1.488945808510073e+01, -5.899651516609803e+02, 5.597916545734014e+01, 6.151290651499771e+02
488, 1.500000000000668e-04, 6.999999999995296e-03, 3.126099755275251e-04, -1.845412390241251e-05, 1.124450675102955e+01, -8.916263192435378e+02, 1.219724301655680e+01, 9.032003207378373e+02
489, 2.000000000000244e-04, 6.999999999993755e-03, 3.125088937533700e-04, -2.185732466584858e-05, 5.942771225381364e+00, -1.191200595336163e+03, -4.073057121803713e+01, 1.199911729182317e+03
490, -1.999999999999499e-04, 6.900000000006458e-03, 3.066347763548782e-04, 5.534019841273989e-06, 1.031185713925345e+01, 1.323242927796190e+03, 1.314677711683624e+02, 1.339000782568956e+03
491, -1.499999999998973e-04, 6.900000000004828e-03, 3.065030070053166e-04, 2.143824593972927e-06, 1.367471430382886e+01, 9.960859484468414e+02, 1.427983340293501e+02, 1.023082249761293e+03
492, -9.999999999982122e-05, 6.900000000003202e-03, 3.063759359388303e-04, -1.245279049322135e-06, 1.619363158375775e+01, 6.693543333041188e+02, 1.445692610586230e+02, 7.142968481268691e+02
493, -4.999999999977310e-05, 6.900000000001573e-03, 3.062535488351606e-04, -4.633758737347618e-06, 1.772962315208785e+01, 3.433293325900642e+02, 1.368021186642135e+02, 4.252933687117221e+02
494, 2.436337806846489e-16, 6.899999999999946e-03, 3.061358249204486e-04, -8.022081873258658e-06, 1.814254534580277e+01, 1.829206185449713e+01, 1.195185302226942e+02, 2.390371072063053e+02
495, 5.000000000016015e-05, 6.899999999998319e-03, 3.060227369610381e-04, -1.141071560855730e-05, 1.729196471694691e+01, -3.054757607006267e+02, 9.274019190049052e+01, 3.722660034789552e+02
496, 1.000000000001100e-04, 6.899999999996692e-03, 3.059142512561844e-04, -1.480012684386221e-05, 1.503710684768586e+01, -6.276918427040932e+02, 5.648883209712125e+01, 6.525829105935279e+02
497, 1.500000000000625e-04, 6.899999999995065e-03, 3.058103276308097e-04, -1.819078222939092e-05, 1.123683817229242e+01, -9.480733402039691e+02, 1.078620607749837e+01, 9.595527016805694e+02
498, 2.000000000000225e-04, 6.899999999993437e-03, 3.057109194281590e-04, -2.158314816775335e-05, 5.750193550556759e+00, -1.266336441805114e+03, -4.434591935666589e+01, 1.275174752771111e+03
499, -1.999999999999519e-04, 6.800000000006828e-03, 2.998529364182059e-04, 5.716467718647964e-06, 1.075131476244852e+01, 1.400729702813924e+03, 1.376836721737963e+02, 1.416992270121198e+03
500, -1.499999999999017e-04, 6.800000000005111e-03, 2.997209851467091e-04, 2.337893870978567e-06, 1.413690149423081e+01, 1.054107254814967e+03, 1.487555704129336e+02, 1.081689056384304e+03
501, -9.999999999982880e-05, 6.800000000003401e-03, 2.995940092972661e-04, -1.039564801567920e-06, 1.665054967266246e+01, 7.079407642012104e+02, 1.499884869895820e+02, 7.535703985830534e+02
502, -4.999999999978328e-05, 6.800000000001686e-03, 2.994719938949378e-04, -4.416389729692082e-06, 1.815161033019234e+01, 3.625102072442461e+02, 1.414031174925890e+02, 4.456031977164297e+02
503, 2.308130899950078e-16, 6.799999999999972e-03, 2.993549175134485e-04, -7.793062105936047e-06, 1.850005975053428e+01, 1.809680027835635e+01, 1.230204161394821e+02, 2.460411627486899e+02
504, 5.000000000014997e-05, 6.799999999998255e-03, 2.992427522683493e-04, -1.117006288995918e-05, 1.755558334819665e+01, -3.250175631217832e+02, 9.486132513336786e+01, 3.916006188792049e+02
505, 1.000000000001024e-04, 6.799999999996542e-03, 2.991354638090407e-04, -1.454787280880117e-05, 1.517748330380412e+01, -6.665503895164811e+02, 5.694682999093816e+01, 6.911762860255973e+02
506, 1.500000000000582e-04, 6.799999999994830e-03, 2.990330113108197e-04, -1.792697235711199e-05, 1.122475894446703e+01, -1.006218541203902e+03, 9.297982624192539e+00, 1.017613226594625e+03
507, 2.000000000000206e-04, 6.799999999993115e-03, 2.989353474683540e-04, -2.130784179596876e-05, 5.556036186375309e+00, -1.343738394964090e+03, -4.806401484187427e+01, 1.352714330531224e+03
508, -1.999999999999538e-04, 6.700000000007203e-03, 2.930945002109320e-04, 5.894577810017367e-06, 1.119906388617015e+01, 1.480476624094506e+03, 1.439934592372411e+02, 1.497235123200157e+03
509, -1.499999999999060e-04, 6.700000000005407e-03, 2.929623825145740e-04, 2.528309078185223e-06, 1.460256382724808e+01, 1.113825919400917e+03, 1.547833826911398e+02, 1.141982297440675e+03
510, -9.999999999983645e-05, 6.700000000003612e-03, 2.928355252941343e-04, -8.368212587190397e-07, 1.710541988305660e+01, 7.476597930717379e+02, 1.554543851337221e+02, 7.939609282668268e+02
511, -4.999999999979346e-05, 6.700000000001816e-03, 2.927139129550048e-04, -4.201308396851080e-06, 1.856760864676872e+01, 3.822583456125362e+02, 1.460270439437559e+02, 4.664402881468425e+02
512, 2.179923993053667e-16, 6.700000000000018e-03, 2.925975234539090e-04, -7.565647316782371e-06, 1.884917929734986e+01, 1.790290168514888e+01, 1.265214705579121e+02, 2.530447104562074e+02
513, 5.000000000013978e-05, 6.699999999998221e-03, 2.924863282891483e-04, -1.093033278530830e-05, 1.780970519862612e+01, -3.451245967072944e+02, 9.695780298043752e+01, 4.114906678590794e+02
514, 1.000000000000948e-04, 6.699999999996424e-03, 2.923802924915297e-04, -1.429585935684193e-05, 1.530832721868902e+01, -7.065415837932269e+02, 5.735623740720548e+01, 7.309078231254319e+02
515, 1.500000000000538e-04, 6.699999999994629e-03, 2.922793746158436e-04, -1.766272137276076e-05, 1.120370951791151e+01, -1.066064936878543e+03, 7.737072510658606e+00, 1.077379777828130e+03
516, 2.000000000000187e-04, 6.699999999992831e-03, 2.921835267320924e-04, -2.103141295854969e-05, 5.354021015275052e+00, -1.423410966383150e+03, -5.187927366840991e+01, 1.432527565305837e+03
517, -1.999999999999557e-04, 6.600000000007607e-03, 2.863608495896178e-04, 6.068184095860241e-06, 1.164805849849239e+01, 1.562482405397680e+03, 1.503905933144914e+02, 1.579733045090900e+03
518, -1.499999999999103e-04, 6.600000000005753e-03, 2.862285816983038e-04, 2.714923706753159e-06, 1.506506517413624e+01, 1.175241133015681e+03, 1.608757399070067e+02, 1.203965333036951e+03
519, -9.999999999984406e-05, 6.600000000003900e-03, 2.861018672614446e-04, -6.371753791632189e-07, 1.755295512204691e+01, 7.885110034711495e+02, 1.609631572700669e+02, 8.354716418333123e+02
520, -4.999999999980367e-05, 6.600000000002050e-03, 2.859806901018458e-04, -3.988622120587245e-06, 1.897367585181217e+01, 4.025737800778245e+02, 1.506719713953552e+02, 4.878085811246646e+02
521, 2.051717086157256e-16, 6.600000000000198e-03, 2.858650275930505e-04, -7.339925284110022e-06, 1.918706847920122e+01, 1.771072610050584e+01, 1.300214464268023e+02, 2.600470836415790e+02
522, 5.000000000012958e-05, 6.599999999998345e-03, 2.857548506478644e-04, -1.069159344653278e-05, 1.805245380043674e+01, -3.657962316421344e+02, 9.903089448866406e+01, 4.319355108912551e+02
523, 1.000000000000872e-04, 6.599999999996491e-03, 2.856501237090102e-04, -1.404413499352699e-05, 1.542872238000525e+01, -7.476644881000025e+02, 5.771971187838511e+01, 7.717755557401263e+02
524, 1.500000000000495e-04, 6.599999999994639e-03, 2.855508047402973e-04, -1.739805811843617e-05, 1.117435725772202e+01, -1.127610748888079e+03, 6.107375481721760e+00, 1.138850612732242e+03
525, 2.000000000000168e-04, 6.599999999992787e-03, 2.854568452176778e-04, -2.075387082294496e-05, 5.147247156301816e+00, -1.505351184344255e+03, -5.578652133691413e+01, 1.514613500341634e+03
526, -1.999999999999576e-04, 6.500000000008018e-03, 2.796534060068123e-04, 6.237118677167934e-06, 1.207812998149814e+01, 1.646734946106416e+03, 1.568716767405546e+02, 1.664493255725966e+03
527, -1.499999999999147e-04, 6.500000000006126e-03, 2.795210047513438e-04, 2.897589446997968e-06, 1.550690955698533e+01, 1.238342234562336e+03, 1.670311718310178e+02, 1.267645014005859e+03
528, -9.999999999985163e-05, 6.500000000004228e-03, 2.793944579009243e-04, -4.407558723420253e-07, 1.798152884113436e+01, 8.304879555214147e+02, 1.665139464624403e+02, 8.781083480201880e+02
529, -4.999999999981387e-05, 6.500000000002332e-03, 2.792737487190961e-04, -3.778439992697346e-06, 1.936207426836522e+01, 4.234526902356473e+02, 1.553378969506679e+02, 5.097143070672460e+02
530, 1.923510179260846e-16, 6.500000000000438e-03, 2.791588540187597e-04, -7.115985468694736e-06, 1.950847765262080e+01, 1.751797249867430e+01, 1.335213230731352e+02, 2.670500645414078e+02
531, 5.000000000011942e-05, 6.499999999998543e-03, 2.790497441516686e-04, -1.045391468885077e-05, 1.828008277918484e+01, -3.870340705866000e+02, 1.010826650621137e+02, 4.529352973912067e+02
532, 1.000000000000796e-04, 6.499999999996646e-03, 2.789463829986824e-04, -1.379274987336475e-05, 1.553574045198235e+01, -7.899206316063265e+02, 5.804045146513862e+01, 8.137780676047009e+02
533, 1.500000000000451e-04, 6.499999999994751e-03, 2.788487279600421e-04, -1.713301307285348e-05, 1.113383413633676e+01, -1.190858209109400e+03, 4.413312937312426e+00, 1.202024451228173e+03
534, 2.000000000000149e-04, 6.499999999992855e-03, 2.787567299460590e-04, -2.047522616594417e-05, 4.932470489292953e+00, -1.589562451119892e+03, -5.978009775045744e+01, 1.598971136508004e+03
535, -1.999999999999595e-04, 6.400000000008258e-03, 2.729736294279929e-04, 6.401212231058263e-06, 1.251202554529357e+01, 1.733251265143581e+03, 1.634319006267129e+02, 1.751508913840615e+03
536, -1.499999999999190e-04, 6.400000000006336e-03, 2.728411125139919e-04, 3.076156513130862e-06, 1.594629633678460e+01, 1.303143161125673e+03, 1.732467091176038e+02, 1.333016675665635e+03
537, -9.999999999985919e-05, 6.400000000004416e-03, 2.727147588685894e-04, -2.476929364447689e-07, 1.840273834885656e+01, 8.735998626105024e+02, 1.721050409348428e+02, 9.218691348592405e+02
538, -4.999999999982406e-05, 6.400000000002495e-03, 2.725945512380890e-04, -3.570872603805107e-06, 1.974036638634072e+01, 4.449014526856106e+02, 1.600242777683131e+02, 5.321588364428952e+02
539, 1.795438797635995e-16, 6.400000000000575e-03, 2.724804659126028e-04, -6.893918834210090e-06, 1.981868696577158e+01, 1.732931043638128e+01, 1.370218296167802e+02, 2.740549655846887e+02
540, 5.000000000010922e-05, 6.399999999998654e-03, 2.723724727196281e-04, -1.021736782982688e-05, 1.849694760458505e+01, -4.088343125093294e+02, 1.031151934845054e+02, 4.744923375355328e+02
541, 1.000000000000720e-04, 6.399999999996736e-03, 2.722705350145796e-04, -1.354175564808091e-05, 1.563392540121974e+01, -8.333064307278413e+02, 5.832195826493906e+01, 8.569162920192182e+02
542, 1.500000000000408e-04, 6.399999999994814e-03, 2.721746096709310e-04, -1.686761820011880e-05, 1.108790621146785e+01, -1.255803329498075e+03, 2.659807806719733e+00, 1.266902404065888e+03
543, 2.000000000000129e-04, 6.399999999992895e-03, 2.720846470701104e-04, -2.019549125011482e-05, 4.716827325561269e+00, -1.676040468886921e+03, -6.385335404108612e+01, 1.685601996931861e+03
544, -1.999999999999615e-04, 6.300000000008254e-03, 2.663230195937178e-04, 6.560294183457773e-06, 1.294642846171004e+01, 1.822028920160327e+03, 1.700627644763764e+02, 1.840778323757607e+03
545, -1.499999999999234e-04, 6.300000000006307e-03, 2.661904054129641e-04, 3.250473858414930e-06, 1.638323860870548e+01, 1.369644119603745e+03, 1.795153582462747e+02, 1.400077879054099e+03
546, -9.999999999986685e-05, 6.300000000004357e-03, 2.660642712748555e-04, -5.811807404940353e-08, 1.881739541917207e+01, 9.178478922376643e+02, 1.777317160878640e+02, 9.667523394457618e+02
547, -4.999999999983422e-05, 6.300000000002410e-03, 2.659445994411068e-04, -3.366031880646584e-06, 2.010901925112466e+01, 4.669211374163459e+02, 1.647285596189492e+02, 5.551423802555759e+02
548, 1.667096365468024e-16, 6.300000000000461e-03, 2.658313657183640e-04, -6.673817701660107e-06, 2.011766767312420e+01, 1.714544000357621e+01, 1.405224241353698e+02, 2.810605644284567e+02
549, 5.000000000009904e-05, 6.299999999998514e-03, 2.657245394487851e-04, -9.982025556078748e-06, 1.870241219586688e+01, -4.311968781861660e+02, 1.051298597317874e+02, 4.966070087253682e+02
550, 1.000000000000644e-04, 6.299999999996569e-03, 2.656240835004924e-04, -1.329120534181009e-05, 1.572184583344618e+01, -8.778227267515616e+02, 5.856748805453465e+01, 9.011894949588552e+02
551, 1.500000000000364e-04, 6.299999999994618e-03, 2.655299542574534e-04, -1.660190683524597e-05, 1.103406959574956e+01, -1.322448234530489e+03, 8.520302856222273e-01, 1.333483392937554e+03
552, 2.000000000000111e-04, 6.299999999992672e-03, 2.654421016090729e-04, -1.991467968948381e-05, 4.496325800677795e+00, -1.764789016874698e+03, -6.799971236254186e+01, 1.774504569543701e+03
553, -1.999999999999633e-04, 6.200000000008235e-03, 2.597031160892872e-04, 6.714192603219939e-06, 1.337815192293144e+01, 1.913069632865384e+03, 1.767565336528683e+02, 1.932304119832393e+03
554, -1.499999999999277e-04, 6.200000000006244e-03, 2.595704235739275e-04, 3.420389109708767e-06, 1.681263563658896e+01, 1.437844800687226e+03, 1.858307449490582e+02, 1.468831058080468e+03
555, -9.999999999987445e-05, 6.200000000004252e-03, 2.594445357941365e-04, 1.278359018651767e-07, 1.922127337371117e+01, 9.632316538080120e+02, 1.833894357379479e+02, 1.012759763679840e+03
556, -4.999999999984441e-05, 6.200000000002263e-03, 2.593254345627940e-04, -3.164031054174815e-06, 2.046492582176094e+01, 4.895116286007659e+02, 1.694481201329912e+02, 5.786669776773812e+02
557, 1.538618408028491e-16, 6.200000000000271e-03, 2.592130952386463e-04, -6.455775694684595e-06, 2.040309572778366e+01, 1.696635306707574e+01, 1.440223413034603e+02, 2.880651842521717e+02
558, 5.000000000008886e-05, 6.199999999998280e-03, 2.591074867150079e-04, -9.747961858327998e-06, 1.889465947789580e+01, -4.541218514253043e+02, 1.071276801821473e+02, 5.192783252090068e+02
559, 1.000000000000568e-04, 6.199999999996288e-03, 2.590085714095500e-04, -1.304115328710138e-05, 1.579797204670693e+01, -9.234698721798468e+02, 5.877976509869605e+01, 9.465961791272080e+02
560, 1.500000000000321e-04, 6.199999999994299e-03, 2.589163052537884e-04, -1.633591362679833e-05, 1.097083766072441e+01, -1.390793800769248e+03, -1.005714654951184e+00, 1.401766081555899e+03
561, 2.000000000000091e-04, 6.199999999992307e-03, 2.588306376816661e-04, -1.963280642812821e-05, 4.270713368269142e+00, -1.855808716838175e+03, -7.221302076854947e+01, 1.865677991549240e+03
562, -1.999999999999653e-04, 6.100000000008216e-03, 2.531154981119265e-04, 6.862734257520717e-06, 1.379637269942839e+01, 2.006367535683250e+03, 1.835074807228796e+02, 2.026089786134793e+03
563, -1.499999999999321e-04, 6.100000000006179e-03, 2.529827466521289e-04, 3.585748605830316e-06, 1.722567486661546e+01, 1.507740864356086e+03, 1.921888057061559e+02, 1.539279597166761e+03
564, -9.999999999988203e-05, 6.100000000004146e-03, 2.528571325594130e-04, 3.100349267666156e-07, 1.960840261263860e+01, 1.009748770888356e+03, 1.890753935573311e+02, 1.059894318639652e+03
565, -4.999999999985460e-05, 6.100000000002112e-03, 2.527386372302911e-04, -2.964984579407467e-06, 2.080440312694435e+01, 5.126720234046367e+02, 1.741815101431478e+02, 6.027358872513153e+02
566, 1.410275975860520e-16, 6.100000000000079e-03, 2.526272356077168e-04, -6.239887641950549e-06, 2.067314057530479e+01, 1.679223160417769e+01, 1.475216622879032e+02, 2.950688476121917e+02
567, 5.000000000007866e-05, 6.099999999998046e-03, 2.525228961711732e-04, -9.515251918168740e-06, 1.907354858365375e+01, -4.776081746211075e+02, 1.091103919380913e+02, 5.425062623428292e+02
568, 1.000000000000492e-04, 6.099999999996011e-03, 2.524255809259050e-04, -1.279165499451880e-05, 1.586400806356562e+01, -9.702459257371435e+02, 5.896226762988714e+01, 9.931359411262250e+02
569, 1.500000000000277e-04, 6.099999999993980e-03, 2.523352453916045e-04, -1.606967438823335e-05, 1.090236553867456e+01, -1.460836871464358e+03, -2.908101332411896e+00, 1.471750729555690e+03
570, 2.000000000000072e-04, 6.099999999991945e-03, 2.522518385910395e-04, -1.934988754871748e-05, 4.045936940900020e+00, -1.949095984596242e+03, -7.648601070538407e+01, 1.959123223536564e+03
571, -1.999999999999672e-04, 6.000000000008407e-03, 2.465617839327478e-04, 7.005744910710013e-06, 1.421184438232333e+01, 2.101930858086311e+03, 1.903085169742329e+02, 2.122131006020335e+03
572, -1.499999999999365e-04, 6.000000000006308e-03, 2.464289934840072e-04, 3.746397667913971e-06, 1.763096232553380e+01, 1.579339315273680e+03, 1.985845096248485e+02, 1.611420556378681e+03
573, -9.999999999988962e-05, 6.000000000004209e-03, 2.463036809354207e-04, 4.883439023868028e-07, 1.998408938249594e+01, 1.057404256002704e+03, 1.947861236343268e+02, 1.108154834827809e+03
574, -4.999999999986476e-05, 6.000000000002106e-03, 2.461858273075032e-04, -2.769007953752932e-06, 2.113031739400549e+01, 5.364057408205672e+02, 1.789269268018043e+02, 6.273500956614060e+02
575, 1.282204594235670e-16, 6.000000000000007e-03, 2.460754071690695e-04, -6.026249418517748e-06, 2.092900728421685e+01, 1.662523724142876e+01, 1.510203614474993e+02, 3.020713834899203e+02
576, 5.000000000006848e-05, 5.999999999997906e-03, 2.459723886279719e-04, -9.283971963513317e-06, 1.923908202857359e+01, -5.016548112232666e+02, 1.110798501053222e+02, 5.662908973528913e+02
577, 1.000000000000416e-04, 5.999999999995806e-03, 2.458767333194903e-04, -1.254276701716194e-05, 1.591888655415323e+01, -1.018151058123185e+03, 5.911882448988182e+01, 1.040807759445161e+03
578, 1.500000000000234e-04, 5.999999999993707e-03, 2.457883963941796e-04, -1.580322596706596e-05, 1.082614825424369e+01, -1.532579275837237e+03, -4.849244432267817e+00, 1.543435895591799e+03
579, 2.000000000000053e-04, 5.999999999991606e-03, 2.457073265054409e-04, -1.906594016147284e-05, 3.817874018854752e+00, -2.044654423249279e+03, -8.081083482782849e+01, 2.054838270224026e+03
580, -1.999999999999690e-04, 5.900000000008779e-03, 2.400436315724958e-04, 7.143049537446752e-06, 1.462605954460724e+01, 2.199761690091878e+03, 1.971498296407200e+02, 2.220425622532013e+03
581, -1.499999999999408e-04, 5.900000000006594e-03, 2.399108225320660e-04, 3.902180793897330e-06, 1.803063280295862e+01, 1.652643311996017e+03, 2.050097717840638e+02, 1.685252098971108e+03
582, -9.999999999989724e-05, 5.900000000004408e-03, 2.397858398065280e-04, 6.626268685012997e-07, 2.034963393012146e+01, 1.106200982443165e+03, 2.005160313300410e+02, 1.157540438321269e+03
583, -4.999999999987495e-05, 5.900000000002220e-03, 2.396686640841767e-04, -2.576217566436959e-06, 2.144323836240972e+01, 5.607152037053631e+02, 1.836811916467956e+02, 6.525100560635054e+02
584, 1.153862162067698e-16, 5.900000000000033e-03, 2.395592696076717e-04, -5.814957810688375e-06, 2.117089426887907e+01, 1.646740571650241e+01, 1.545175596373663e+02, 3.090709105524338e+02
585, 5.000000000005830e-05, 5.899999999997847e-03, 2.394576241608275e-04, -9.054199146180788e-06, 1.939143349869926e+01, -5.262600012345520e+02, 1.130373704007051e+02, 5.906312526906109e+02
586, 1.000000000000340e-04, 5.899999999995659e-03, 2.393636890556459e-04, -1.229454684120779e-05, 1.596306099495209e+01, -1.067183657215101e+03, 5.925286500973976e+01, 1.089610215268129e+03
587, 1.500000000000191e-04, 5.899999999993472e-03, 2.392774191195032e-04, -1.553660615313778e-05, 1.074335031857512e+01, -1.606019264627914e+03, -6.823682505612013e+00, 1.616820213771574e+03
588, 2.000000000000034e-04, 5.899999999991286e-03, 2.391987626823155e-04, -1.878098233101764e-05, 3.589277576557350e+00, -2.142481557421647e+03, -8.517995442521791e+01, 2.152821991566748e+03
589, -1.999999999999710e-04, 5.800000000009150e-03, 2.335627390449061e-04, 7.274472264135010e-06, 1.502929573163226e+01, 2.299856676432299e+03, 2.040222555258326e+02, 2.320977484293818e+03
590, -1.499999999999452e-04, 5.800000000006880e-03, 2.334299320505333e-04, 4.052941644170024e-06, 1.841534329097794e+01, 1.727649854218237e+03, 2.114574017624598e+02, 1.760778107651633e+03
591, -9.999999999990477e-05, 5.800000000004606e-03, 2.333053076790674e-04, 8.327470323551477e-07, 2.069789558057158e+01, 1.156137229888961e+03, 2.062602101701098e+02, 1.208054460317228e+03
592, -4.999999999988512e-05, 5.800000000002332e-03, 2.331888463331252e-04, -2.386730632758847e-06, 2.173794172110246e+01, 5.855996261715256e+02, 1.884417194355431e+02, 6.782190838413236e+02
593, 1.025655255171287e-16, 5.800000000000059e-03, 2.330805219752446e-04, -5.606110424445048e-06, 2.139507161275679e+01, 1.631852819629177e+01, 1.580129200593208e+02, 3.160666115168643e+02
594, 5.000000000004811e-05, 5.799999999997786e-03, 2.329803021109171e-04, -8.826011431335567e-06, 1.952802870927144e+01, -5.514236675623724e+02, 1.149848016684052e+02, 6.155256760967468e+02
595, 1.000000000000264e-04, 5.799999999995513e-03, 2.328881477743883e-04, -1.204705276018568e-05, 1.599487580177387e+01, -1.117343580064882e+03, 5.936837723351029e+01, 1.139541343000585e+03
596, 1.500000000000147e-04, 5.799999999993240e-03, 2.328040135152968e-04, -1.526985353796173e-05, 1.065304845222650e+01, -1.681156827903264e+03, -8.825296516177339e+00, 1.691901947858792e+03
597, 2.000000000000015e-04, 5.799999999990969e-03, 2.327278473858417e-04, -1.849503291366164e-05, 3.359387079790736e+00, -2.242578030116405e+03, -8.958510870270680e+01, 2.253072757095745e+03
598, -1.999999999999729e-04, 5.700000000009518e-03, 2.271208438629597e-04, 7.399836458055306e-06, 1.541405540303759e+01, 2.402213431840083e+03, 2.109187900791568e+02, 2.423790050188772e+03
599, -1.499999999999495e-04, 5.700000000007160e-03, 2.269880597333780e-04, 4.198523113344842e-06, 1.877776638691313e+01, 1.804356799619254e+03, 2.179226934530081e+02, 1.838002634711440e+03
600, -9.999999999991239e-05, 5.700000000004800e-03, 2.268638224359028e-04, 9.985668611915517e-07, 2.102298833536955e+01, 1.207211632437502e+03, 2.120157983668479e+02, 1.259700874980002e+03
601, -4.999999999989533e-05, 5.700000000002444e-03, 2.267481121380576e-04, -2.200665083848935e-06, 2.201008959640856e+01, 6.110584139010264e+02, 1.932074627556400e+02, 7.044816697572523e+02
602, 8.974483482748763e-17, 5.700000000000083e-03, 2.266409025671392e-04, -5.399805562082712e-06, 2.159851718701930e+01, 1.617855461963956e+01, 1.615072874854649e+02, 3.230600433942308e+02
603, 5.000000000003792e-05, 5.699999999997726e-03, 2.265421609948200e-04, -8.599487465272392e-06, 1.964696861719275e+01, -5.771455138204358e+02, 1.169249513627342e+02, 6.409735127903322e+02
604, 1.000000000000188e-04, 5.699999999995369e-03, 2.264518482226911e-04, -1.180034373678587e-05, 1.601344193538267e+01, -1.168630331399836e+03, 5.947018523427862e+01, 1.190599715029826e+03
605, 1.500000000000104e-04, 5.699999999993010e-03, 2.263699185683719e-04, -1.500300737256856e-05, 1.055526866190414e+01, -1.757991404730604e+03, -1.084722024847758e+01, 1.768679729265924e+03
606, 1.999999999999996e-04, 5.699999999990651e-03, 2.262963198520218e-04, -1.820811142202658e-05, 3.129150312444722e+00, -2.344943201946536e+03, -9.401738998413114e+01, 2.355589278698801e+03
607, -1.999999999999748e-04, 5.600000000009672e-03, 2.207197226579330e-04, 7.518965012189987e-06, 1.578209610225858e+01, 2.506833227237641e+03, 2.178322245326000e+02, 2.528861255606988e+03
608, -1.499999999999538e-04, 5.600000000007281e-03, 2.205869824323056e-04, 4.338767608404740e-06, 1.912003352101573e+01, 1.882766019512276e+03, 2.244009370441604e+02, 1.916924485546190e+03
609, -9.999999999991998e-05, 5.600000000004890e-03, 2.204631611343867e-04, 1.159948327442835e-06, 2.132635380228740e+01, 1.259425997172654e+03, 2.177799929128820e+02, 1.312479801050808e+03
610, -4.999999999990553e-05, 5.600000000002499e-03, 2.203482387472914e-04, -2.018139347985701e-06, 2.226045426265779e+01, 6.370931354694765e+02, 1.979775023223386e+02, 7.312999327110130e+02
611, 7.692414413784654e-17, 5.600000000000110e-03, 2.202421888122314e-04, -5.196142023511762e-06, 2.178160921934025e+01, 1.604881717015309e+01, 1.650017033526577e+02, 3.300531977451408e+02
612, 5.000000000002774e-05, 5.599999999997718e-03, 2.201449784157625e-04, -8.374706390910848e-06, 1.974847278241265e+01, -6.034244603735508e+02, 1.188609066445907e+02, 6.669753857015287e+02
613, 1.000000000000112e-04, 5.599999999995330e-03, 2.200565681755883e-04, -1.155447922805027e-05, 1.601899436808517e+01, -1.221043127494096e+03, 5.956348455818264e+01, 1.242784747298185e+03
614, 1.500000000000060e-04, 5.599999999992939e-03, 2.199769122260665e-04, -1.473610739946137e-05, 1.045040474140126e+01, -1.836522550763437e+03, -1.288211794906944e+01, 1.847152645077740e+03
615, 1.999999999999977e-04, 5.599999999990549e-03, 2.199059582037433e-04, -1.792023785671797e-05, 2.899204090430231e+00, -2.449577047217878e+03, -9.846735811421992e+01, 2.460370509839368e+03
616, -1.999999999999767e-04, 5.500000000009695e-03, 2.143611913958261e-04, 7.631680650794140e-06, 1.614307971293107e+01, 2.613722957097581e+03, 2.247523892085128e+02, 2.636185836623320e+03
617, -1.499999999999582e-04, 5.500000000007305e-03, 2.142285163163622e-04, 4.473517343135317e-06, 1.945020904264058e+01, 1.962883421495396e+03, 2.308843964615868e+02, 1.997539253527239e+03
618, -9.999999999992762e-05, 5.500000000004914e-03, 2.141051401151031e-04, 1.316753172122443e-06, 2.161351108641813e+01, 1.312784741403701e+03, 2.235477103717191e+02, 1.366388473769008e+03
619, -4.999999999991570e-05, 5.500000000002524e-03, 2.139910426449873e-04, -1.839272117471065e-06, 2.249259138212804e+01, 6.637070700159360e+02, 2.027493410249868e+02, 7.586733083178107e+02
620, 6.410345344820545e-17, 5.500000000000133e-03, 2.138861973174409e-04, -4.995218896664768e-06, 2.194658027536579e+01, 1.593175522021983e+01, 1.684961814868950e+02, 3.370460366524172e+02
621, 5.000000000001756e-05, 5.499999999997745e-03, 2.137905710895278e-04, -8.151747655860657e-06, 1.983398299988136e+01, -6.302586996823129e+02, 1.207951373518829e+02, 6.935317994932699e+02
622, 1.000000000000036e-04, 5.499999999995354e-03, 2.137041244496563e-04, -1.130951900654975e-05, 1.601259791464670e+01, -1.274580665884593e+03, 5.965316191900028e+01, 1.296096050249252e+03
623, 1.500000000000017e-04, 5.499999999992964e-03, 2.136268114027050e-04, -1.446919368253053e-05, 1.033947817634578e+01, -1.916749402876235e+03, -1.492272205417314e+01, 1.927319980182459e+03
624, 1.999999999999958e-04, 5.499999999990576e-03, 2.135585794547683e-04, -1.763143254076120e-05, 2.670914283137847e+00, -2.556479054992543e+03, -1.029254006424533e+02, 2.567415649565407e+03
625, -1.999999999999786e-04, 5.400000000009719e-03, 2.080471059887682e-04, 7.737805996922198e-06, 1.649157562603406e+01, 2.722880237283300e+03, 2.316678962905144e+02, 2.745763945541149e+03
626, -1.499999999999625e-04, 5.400000000007331e-03, 2.079145172947093e-04, 4.602614433335972e-06, 1.976399501613247e+01, 2.044707473250009e+03, 2.373640252846681e+02, 2.079846824177029e+03
627, -9.999999999993521e-05, 5.400000000004939e-03, 2.077916152877194e-04, 1.468843025946851e-06, 2.188157035289899e+01, 1.367287342336590e+03, 2.293127497695660e+02, 1.421426762135337e+03
628, -4.999999999992589e-05, 5.400000000002551e-03, 2.076783797419938e-04, -1.664182210040753e-06, 2.270454669604243e+01, 6.909003126639236e+02, 2.075196302072513e+02, 7.866022942649105e+02
629, 5.128276275856436e-17, 5.400000000000158e-03, 2.075747839940679e-04, -4.797135408394497e-06, 2.209210541840704e+01, 1.582778061444526e+01, 1.719901420295587e+02, 3.440373200492073e+02
630, 5.000000000000737e-05, 5.399999999997771e-03, 2.074807949272897e-04, -7.930690857133959e-06, 1.990264521370142e+01, -6.576477242205574e+02, 1.227297463144038e+02, 7.206419815984164e+02
631, 9.999999999999598e-05, 5.399999999995381e-03, 2.073963729565792e-04, -1.106552300144456e-05, 1.599381457379710e+01, -1.329242505251628e+03, 5.974393529890152e+01, 1.350532527337810e+03
632, 1.499999999999973e-04, 5.399999999992991e-03, 2.073214720130008e-04, -1.420230644565759e-05, 1.022250502571876e+01, -1.998671693993366e+03, -1.696174214569784e+01, 2.009180605530274e+03
633, 1.999999999999938e-04, 5.399999999990601e-03, 2.072560395281227e-04, -1.734171595508262e-05, 2.444807036965898e+00, -2.665649276310708e+03, -1.073816624922991e+02, 2.676723617289111e+03
634, -1.999999999999805e-04, 5.300000000009745e-03, 2.017793620952255e-04, 7.837163623092998e-06, 1.682249425789269e+01, 2.834304212305061e+03, 2.385684205201750e+02, 2.857597381824107e+03
635, -1.499999999999669e-04, 5.300000000007331e-03, 2.016468809055844e-04, 4.725900955633726e-06, 2.005609035555378e+01, 2.128237171707032e+03, 2.438320145115936e+02, 2.163849273163779e+03
636, -9.999999999994280e-05, 5.300000000004915e-03, 2.015244820728610e-04, 1.616079495889028e-06, 2.212624795523470e+01, 1.422933299486648e+03, 2.350697622818143e+02, 1.477596551219935e+03
637, -4.999999999993605e-05, 5.300000000002501e-03, 2.014121453471708e-04, -1.492988456715822e-06, 2.289310473617570e+01, 7.186728211362172e+02, 2.122855742028645e+02, 8.150889974795891e+02
638, 3.846207206892327e-17, 5.300000000000087e-03, 2.013098440446502e-04, -4.601990792748341e-06, 2.221586738106032e+01, 1.573712736439822e+01, 1.754833844091995e+02, 3.510265615121326e+02
639, 4.999999999999720e-05, 5.299999999997673e-03, 2.012175450303489e-04, -7.711615595344864e-06, 1.995288836357534e+01, -6.855912039869810e+02, 1.246671354986875e+02, 7.483047807842489e+02
640, 9.999999999998842e-05, 5.299999999995259e-03, 2.011352087017602e-04, -1.082255114291344e-05, 1.596171045047555e+01, -1.385028385644558e+03, 5.984080049634747e+01, 1.406092790313834e+03
641, 1.499999999999930e-04, 5.299999999992844e-03, 2.010627889725669e-04, -1.393548591129183e-05, 1.009908310688965e+01, -2.082289414812310e+03, -1.899159240403542e+01, 2.092733224410777e+03
642, 1.999999999999920e-04, 5.299999999990430e-03, 2.010002332565407e-04, -1.705110857547672e-05, 2.220998794978641e+00, -2.777088048250245e+03, -1.118259530464258e+02, 2.788293197295865e+03
643, -1.999999999999824e-04, 5.200000000009989e-03, 1.955598948774922e-04, 7.929576274862188e-06, 1.713473602926970e+01, 2.947995999130020e+03, 2.454437278605421e+02, 2.971686093403683e+03
644, -1.499999999999712e-04, 5.200000000007502e-03, 1.954275421409479e-04, 4.843219144534655e-06, 2.032540615096318e+01, 2.213474005990644e+03, 2.502808979113068e+02, 2.249547263876870e+03
645, -9.999999999995044e-05, 5.200000000005017e-03, 1.953056752813610e-04, 1.758324347908216e-06, 2.234621384086887e+01, 1.479723978755444e+03, 2.408138177951611e+02, 1.534899061512426e+03
646, -4.999999999994625e-05, 5.200000000002529e-03, 1.951942740848497e-04, -1.325809524628775e-06, 2.305699121793251e+01, 7.470258464900512e+02, 2.170447821243237e+02, 8.441354471846344e+02
647, 2.564138137928218e-17, 5.200000000000042e-03, 1.950933119057855e-04, -4.409884114346789e-06, 2.231688351669669e+01, 1.566095307984776e+01, 1.789761052902959e+02, 3.580140869707677e+02
648, 4.999999999998700e-05, 5.199999999997556e-03, 1.950027556494132e-04, -7.494601296141968e-06, 1.998419621182811e+01, -7.140880713464575e+02, 1.266101260460226e+02, 7.765195361790468e+02
649, 9.999999999998081e-05, 5.199999999995069e-03, 1.949225657545110e-04, -1.058066318054976e-05, 1.591637889100014e+01, -1.441937342750288e+03, 5.994922482486998e+01, 1.462775824223167e+03
650, 1.499999999999887e-04, 5.199999999992581e-03, 1.948526961763509e-04, -1.366877211545694e-05, 9.970046718325023e+00, -2.167601717181420e+03, -2.100415580199967e+01, 2.177976924849588e+03
651, 1.999999999999900e-04, 5.199999999990096e-03, 1.947930943699191e-04, -1.675963068756280e-05, 2.001027748737641e+00, -2.890794767763339e+03, -1.162474771186580e+02, 2.902123604927633e+03
652, -1.999999999999843e-04, 5.100000000010360e-03, 1.893906790330255e-04, 8.014867111746598e-06, 1.742866913122867e+01, 3.063957317703980e+03, 2.522826857986322e+02, 3.088028986390769e+03
653, -1.499999999999755e-04, 5.100000000007788e-03, 1.892584754522460e-04, 4.954411631295905e-06, 2.057229273034713e+01, 2.300420020214237e+03, 2.567024026982423e+02, 2.336940340427555e+03
654, -9.999999999995803e-05, 5.100000000005215e-03, 1.891371691048558e-04, 1.895439729866842e-06, 2.254133856356697e+01, 1.537661235288002e+03, 2.465395122080999e+02, 1.593334624543600e+03
655, -4.999999999995644e-05, 5.100000000002642e-03, 1.890267398766078e-04, -1.162763706620934e-06, 2.319575806212177e+01, 7.759609693965324e+02, 2.217946744466496e+02, 8.737430822884500e+02
656, 1.282069068964109e-17, 5.100000000000066e-03, 1.889271612232567e-04, -4.220914066186749e-06, 2.239464982797614e+01, 1.560059203236148e+01, 1.824685290595816e+02, 3.650002953560443e+02
657, 4.999999999997683e-05, 5.099999999997495e-03, 1.888384001524745e-04, -7.279727012954072e-06, 1.999621338255690e+01, -7.431372358914564e+02, 1.285617483885834e+02, 8.052857592158019e+02
658, 9.999999999997324e-05, 5.099999999994921e-03, 1.887604172062016e-04, -1.033991848859533e-05, 1.585777718941299e+01, -1.499968545800706e+03, 6.007505547903993e+01, 1.520580642594461e+03
659, 1.499999999999843e-04, 5.099999999992348e-03, 1.886931664430819e-04, -1.340220471384836e-05, 9.835801108318208e+00, -2.254608061549594e+03, -2.299075707426584e+01, 2.264910661984812e+03
660, 1.999999999999881e-04, 5.099999999989774e-03, 1.886365954209090e-04, -1.646730218953364e-05, 1.785850499191497e+00, -3.006769218834764e+03, -1.206348021215590e+02, 3.018213814020913e+03
661, -1.999999999999862e-04, 5.000000000010596e-03, 1.832737289234102e-04, 8.092859890193467e-06, 1.770299221484470e+01, 3.182189320157084e+03, 2.590734101176169e+02, 3.206625928768935e+03
662, -1.499999999999799e-04, 5.000000000007969e-03, 1.831416948342504e-04, 5.059321635101825e-06, 2.079503970587186e+01, 2.389076044997347e+03, 2.630876380162547e+02, 2.426028718117799e+03
663, -9.999999999996564e-05, 5.000000000005344e-03, 1.830209771653646e-04, 2.027288368909457e-06, 2.270999629980182e+01, 1.596745874959664e+03, 2.522410089325957e+02, 1.652903824684866e+03
664, -4.999999999996662e-05, 5.000000000002718e-03, 1.829115559677158e-04, -1.003968722786381e-06, 2.330798807213327e+01, 8.054790323717712e+02, 2.265324080658698e+02, 9.039133089833743e+02
665, 0.000000000000000e+00, 5.000000000000093e-03, 1.828134048625291e-04, -4.035178772961113e-06, 2.244793886546114e+01, 1.555681779850522e+01, 1.859607611427727e+02, 3.719853576268250e+02
666, 4.999999999996663e-05, 4.999999999997467e-03, 1.827264910236848e-04, -7.067071233427945e-06, 1.998789644043859e+01, -7.727381142180054e+02, 1.305250345469137e+02, 8.346026998209049e+02
667, 9.999999999996559e-05, 4.999999999994841e-03, 1.826507751599024e-04, -1.010037587651351e-05, 1.578503630339054e+01, -1.559121734944382e+03, 6.022424012599654e+01, 1.579505990655654e+03
668, 1.499999999999799e-04, 4.999999999992216e-03, 1.825862114966956e-04, -1.313582279674107e-05, 9.695643781460689e+00, -2.343308647340990e+03, -2.494254840721605e+01, 2.353533028645414e+03
669, 1.999999999999863e-04, 4.999999999989590e-03, 1.825327477581043e-04, -1.617414241263444e-05, 1.575069370780113e+00, -3.125012114192866e+03, -1.249761764624284e+02, 3.136562385025543e+03
670, -1.999999999999881e-04, 4.900000000010410e-03, 1.772110985734747e-04, 8.163379123260036e-06, 1.795217788284720e+01, 3.302689409322541e+03, 2.658044271833140e+02, 3.327477521133254e+03
671, -1.499999999999843e-04, 4.900000000007836e-03, 1.770792538249262e-04, 5.157793139176874e-06, 2.098925889478596e+01, 2.479440311561030e+03, 2.694280727289114e+02, 2.516812969581456e+03
672, -9.999999999997321e-05, 4.900000000005265e-03, 1.769591525185328e-04, 2.153733762268113e-06, 2.284924640003828e+01, 1.656977311258011e+03, 2.579126253751275e+02, 1.713607370919029e+03
673, -4.999999999997681e-05, 4.900000000002690e-03, 1.768507749317864e-04, -8.495415225034441e-07, 2.339167276579099e+01, 8.355801662134695e+02, 2.312551878905687e+02, 9.346475253238616e+02
674, -1.282069068964109e-17, 4.900000000000120e-03, 1.767540949145943e-04, -3.852775589926113e-06, 2.247541570305489e+01, 1.553015056216228e+01, 1.894529469071442e+02, 3.789695410914736e+02
675, 4.999999999995644e-05, 4.899999999997547e-03, 1.766690798717564e-04, -6.856711677201419e-06, 1.995849405348736e+01, -8.028900147450012e+02, 1.325030974542466e+02, 8.644697517968887e+02
676, 9.999999999995801e-05, 4.899999999994974e-03, 1.765956907443590e-04, -9.862093386455171e-06, 1.569800463458867e+01, -1.619396189968113e+03, 6.040286756215018e+01, 1.639550868641281e+03
677, 1.499999999999756e-04, 4.899999999992402e-03, 1.765338819908362e-04, -1.286966468689566e-05, 9.550124543994571e+00, -2.433702804335982e+03, -2.685045609939358e+01, 2.443843011007779e+03
678, 1.999999999999843e-04, 4.899999999989829e-03, 1.764836015680941e-04, -1.588016991654886e-05, 1.370137316265470e+00, -3.245522837364242e+03, -1.292595181695057e+02, 3.257168414617102e+03
679, -1.999999999999901e-04, 4.800000000010084e-03, 1.712048814768185e-04, 8.226250356319322e-06, 1.818054547352574e+01, 3.425461500854291e+03, 2.724632465842707e+02, 3.450580877454899e+03
680, -1.499999999999886e-04, 4.800000000007600e-03, 1.710732453985933e-04, 5.249671154911142e-06, 2.115855141992711e+01, 2.571516676304223e+03, 2.757143112362111e+02, 2.609291108873284e+03
681, -9.999999999998080e-05, 4.800000000005114e-03, 1.709537875946015e-04, 2.274640421709813e-06, 2.296114521793942e+01, 1.718358594119729e+03, 2.635479785681542e+02, 1.775444355019931e+03
682, -4.999999999998701e-05, 4.800000000002629e-03, 1.708464886364057e-04, -6.995980519788647e-07, 2.344782058159007e+01, 8.662667531321313e+02, 2.359597558056066e+02, 9.659460536204904e+02
683, -2.564138137928218e-17, 4.800000000000143e-03, 1.707513226725607e-04, -3.673800877370242e-06, 2.247753335797461e+01, 1.552246661251024e+01, 1.929449918402155e+02, 3.859526557212907e+02
684, 4.999999999994627e-05, 4.799999999997659e-03, 1.706682574090901e-04, -6.648725073739124e-06, 1.990826906558917e+01, -8.335914839527309e+02, 1.344990188565011e+02, 8.948864579910564e+02
685, 9.999999999995042e-05, 4.799999999995174e-03, 1.705972540896805e-04, -9.625128071824061e-06, 1.559702917692974e+01, -1.680790854853776e+03, 6.061719645313374e+01, 1.700714447257248e+03
686, 1.499999999999713e-04, 4.799999999992687e-03, 1.705382674758423e-04, -1.260376771636929e-05, 9.399815815052534e+00, -2.525789952159183e+03, -2.870505590777356e+01, 2.535839719024042e+03
687, 1.999999999999824e-04, 4.799999999990203e-03, 1.704912458269340e-04, -1.558540226771575e-05, 1.171720230376906e+00, -3.368301552185511e+03, -1.334722157236365e+02, 3.380030985509710e+03
688, -1.999999999999919e-04, 4.700000000009747e-03, 1.652572109376707e-04, 8.281300428500924e-06, 1.839034967946048e+01, 3.550509471173201e+03, 2.790353557145460e+02, 3.575934620120548e+03
689, -1.499999999999929e-04, 4.700000000007334e-03, 1.651258021918965e-04, 5.334801952521214e-06, 2.130382493337481e+01, 2.665308421824153e+03, 2.819350825020542e+02, 2.703462570734303e+03
690, -9.999999999998839e-05, 4.700000000004922e-03, 1.650070143431092e-04, 2.389874093458339e-06, 2.304549421669191e+01, 1.780892146522998e+03, 2.691395104512074e+02, 1.838414849093683e+03
691, -4.999999999999717e-05, 4.700000000002511e-03, 1.649008283333679e-04, -5.542530388003627e-07, 2.347578748628160e+01, 8.975407001809111e+02, 2.406421693724385e+02, 9.978096443335090e+02
692, -3.846207206892327e-17, 4.700000000000096e-03, 1.648072186851520e-04, -3.498349786308738e-06, 2.245358131357955e+01, 1.553531954081873e+01, 1.964364710627223e+02, 3.929338506673349e+02
693, 4.999999999993608e-05, 4.699999999997685e-03, 1.647261534799106e-04, -6.443186947911395e-06, 1.983670687276867e+01, -8.648412392504317e+02, 1.365158207169149e+02, 9.258516866004056e+02
694, 9.999999999994281e-05, 4.699999999995272e-03, 1.646575943374337e-04, -9.389535782489363e-06, 1.548199134592900e+01, -1.743304686006263e+03, 6.087365362851112e+01, 1.762995457525599e+03
695, 1.499999999999669e-04, 4.699999999992859e-03, 1.646014963954370e-04, -1.233816801141957e-05, 9.245278378819876e+00, -2.619569180852864e+03, -3.049654243080209e+01, 2.629521937057476e+03
696, 1.999999999999805e-04, 4.699999999990447e-03, 1.645578082892323e-04, -1.528985582126603e-05, 9.812408965584325e-01, -3.493347492868229e+03, -1.376011910289779e+02, 3.505149019757162e+03
697, -1.999999999999939e-04, 4.600000000009572e-03, 1.593702602497574e-04, 8.328357537737627e-06, 1.856827594505825e+01, 3.677826459021535e+03, 2.855073320930253e+02, 3.703542654962633e+03
698, -1.499999999999973e-04, 4.600000000007185e-03, 1.592390966018172e-04, 5.413033169549096e-06, 2.141381603735442e+01, 2.760810174229129e+03, 2.880804187022006e+02, 2.799330941105909e+03
699, -9.999999999999598e-05, 4.600000000004799e-03, 1.591210042850491e-04, 2.499301904476601e-06, 2.309430680110438e+01, 1.844574867448435e+03, 2.746806111457332e+02, 1.902521796293984e+03
700, -5.000000000000737e-05, 4.600000000002412e-03, 1.590159646832831e-04, -4.136198186605686e-07, 2.346989920448590e+01, 9.294003434392644e+02, 2.452991613471467e+02, 1.030241080534977e+03
701, -5.126921023140829e-17, 4.600000000000025e-03, 1.589239527636433e-04, -3.326516067681010e-06, 2.239945929088725e+01, 1.556784128383828e+01, 1.999274612224123e+02, 3.999132781090806e+02
702, 4.999999999992590e-05, 4.599999999997638e-03, 1.588449370543405e-04, -6.240171418511181e-06, 1.974074540030932e+01, -8.966398540178726e+02, 1.385569258780130e+02, 9.573638231232089e+02
703, 9.999999999993524e-05, 4.599999999995251e-03, 1.587788796232642e-04, -9.155370957542461e-06, 1.535045850459494e+01, -1.806938382431381e+03, 6.117900168434028e+01, 1.826392099410243e+03
704, 1.499999999999625e-04, 4.599999999992864e-03, 1.587257360567312e-04, -1.207290028419894e-05, 9.084244816828829e+00, -2.715041809742511e+03, -3.221480900569109e+01, 2.724887876006300e+03
705, 1.999999999999786e-04, 4.599999999990477e-03, 1.586854554382350e-04, -1.499354551248637e-05, 7.968392272559015e-01, -3.620662494307844e+03, -1.416329787063762e+02, 3.632520792380609e+03
706, -1.999999999999958e-04, 4.500000000009600e-03, 1.535462420718812e-04, 8.367251506240962e-06, 1.871579109232653e+01, 3.807415156921961e+03, 2.918665818867063e+02, 3.833404138768412e+03
707, -1.500000000000016e-04, 4.500000000007212e-03, 1.534153403830285e-04, 5.484214070896863e-06, 2.148946043960046e+01, 2.858024446703499e+03, 2.941413374786882e+02, 2.896896137930068e+03
708, -1.000000000000036e-04, 4.500000000004825e-03, 1.532979682563043e-04, 2.602792616760073e-06, 2.310772693283417e+01, 1.909408811612986e+03, 2.801653847224547e+02, 1.967765827849503e+03
709, -5.000000000001756e-05, 4.500000000002437e-03, 1.531941075939240e-04, -2.778100856216879e-07, 2.343003043747922e+01, 9.618475300331178e+02, 2.499280018160634e+02, 1.063241942322824e+03
710, -6.409667718462742e-17, 4.500000000000053e-03, 1.531037338829426e-04, -3.158391825525155e-06, 2.231516942095914e+01, 1.562181377374424e+01, 2.034185008340269e+02, 4.068920580892089e+02
711, 4.999999999991571e-05, 4.499999999997665e-03, 1.530268161740362e-04, -6.039750952642383e-06, 1.962089003612016e+01, -9.289854837137423e+02, 1.406262238589189e+02, 9.894225546580889e+02
712, 9.999999999992765e-05, 4.499999999995279e-03, 1.529633170596763e-04, -8.922686379384270e-06, 1.520385631893771e+01, -1.871689877019036e+03, 6.154054521688796e+01, 1.890903729895439e+03
713, 1.499999999999582e-04, 4.499999999992891e-03, 1.529131926522127e-04, -1.180799758324627e-05, 8.919650420654307e+00, -2.812205241527301e+03, -3.384911694102341e+01, 2.821937048702382e+03
714, 1.999999999999767e-04, 4.499999999990504e-03, 1.528763925619094e-04, -1.469648460990047e-05, 6.228047587119079e-01, -3.750243798863807e+03, -1.455532116478449e+02, 3.762146093369412e+03
715, -1.999999999999977e-04, 4.400000000009622e-03, 1.477874085931428e-04, 8.397814177242309e-06, 1.883831845184375e+01, 3.939280104466506e+03, 2.980983566884552e+02, 3.965515643465710e+03
716, -1.500000000000059e-04, 4.400000000007235e-03, 1.476567847440281e-04, 5.548195911264930e-06, 2.153529966884179e+01, 2.956955562200300e+03, 3.001066573698082e+02, 2.996155560192256e+03
717, -1.000000000000112e-04, 4.400000000004850e-03, 1.475401564583896e-04, 2.700216954555142e-06, 2.308844204714052e+01, 1.975397263518249e+03, 2.855864461036886e+02, 2.034145571778590e+03
718, -5.000000000002772e-05, 4.400000000002464e-03, 1.474375062381771e-04, -1.469335917335551e-07, 2.335747775568296e+01, 9.948846864974605e+02, 2.545250307278397e+02, 1.096812236617380e+03
719, -7.691736787426851e-17, 4.400000000000076e-03, 1.473488101720866e-04, -2.994067235179293e-06, 2.220107149713766e+01, 1.569894690063447e+01, 2.069096277067970e+02, 4.138703344953947e+02
720, 4.999999999990552e-05, 4.399999999997690e-03, 1.472740379143491e-04, -5.841996096397746e-06, 1.947685438376419e+01, -9.618771140523771e+02, 1.427274458845843e+02, 1.022027449044452e+03
721, 9.999999999991999e-05, 4.399999999995304e-03, 1.472131526625633e-04, -8.691532912182822e-06, 1.504136800595876e+01, -1.937558949737491e+03, 6.196571646500450e+01, 1.956529325341153e+03
722, 1.499999999999539e-04, 4.399999999992917e-03, 1.471661111351690e-04, -1.154349103849050e-05, 8.750053487828040e+00, -2.911060306549397e+03, -3.538827744666918e+01, 2.920668050173329e+03
723, 1.999999999999748e-04, 4.399999999990530e-03, 1.471328635489250e-04, -1.439868445225724e-05, 4.570774940869455e-01, -3.882093354068053e+03, -1.493472185861069e+02, 3.894023140714624e+03
724, -1.999999999999997e-04, 4.300000000009517e-03, 1.420960519422080e-04, 8.419879602233754e-06, 1.893127053869955e+01, 4.073419362680731e+03, 3.041868282862667e+02, 4.099877095149680e+03
725, -1.500000000000103e-04, 4.300000000007164e-03, 1.419657206258334e-04, 5.604832154052533e-06, 2.154736742497488e+01, 3.057602178042432e+03, 3.059642363644836e+02, 3.097109179349318e+03
726, -1.000000000000188e-04, 4.300000000004808e-03, 1.418498586448336e-04, 2.791447838128114e-06, 2.303371055737023e+01, 2.042539947155060e+03, 2.909355844706990e+02, 2.101661127989522e+03
727, -5.000000000003792e-05, 4.300000000002456e-03, 1.417484491799988e-04, -2.109790574388859e-08, 2.325025827792570e+01, 1.028512130481056e+03, 2.590859768595658e+02, 1.130952521252083e+03
728, -8.973805856390960e-17, 4.300000000000101e-03, 1.416614690034455e-04, -2.833630299349195e-06, 2.205570631430487e+01, 1.579982741263242e+01, 2.104004555740757e+02, 4.208474104042305e+02
729, 4.999999999989533e-05, 4.299999999997747e-03, 1.415888884554763e-04, -5.646975231680486e-06, 1.930760417950609e+01, -9.953141178242913e+02, 1.448640310218340e+02, 1.055177515253965e+03
730, 9.999999999991241e-05, 4.299999999995395e-03, 1.415306714213431e-04, -8.461959263124884e-06, 1.486235390273862e+01, -2.004545108867337e+03, 6.246172291208006e+01, 2.023267745012522e+03
731, 1.499999999999495e-04, 4.299999999993039e-03, 1.414867753078990e-04, -1.127940962873357e-05, 8.575183704708650e+00, -3.011606812608810e+03, -3.682141337433558e+01, 3.021079700502429e+03
732, 1.999999999999729e-04, 4.299999999990687e-03, 1.414571510199621e-04, -1.410015424163482e-05, 3.003109339704224e-01, -4.016211013140548e+03, -1.530002570956804e+02, 4.028150882365781e+03
733, -2.000000000000014e-04, 4.200000000009198e-03, 1.364745040236047e-04, 8.433284245259519e-06, 1.899203675102814e+01, 4.209832898381582e+03, 3.101164706984042e+02, 4.236488643807045e+03
734, -1.500000000000147e-04, 4.200000000006931e-03, 1.363444786124201e-04, 5.653978676160636e-06, 2.152301426942881e+01, 3.159964578932495e+03, 3.117023962342290e+02, 3.199757645522141e+03
735, -1.000000000000264e-04, 4.200000000004664e-03, 1.362294040723577e-04, 2.876360605139476e-06, 2.294125369144103e+01, 2.110837483807928e+03, 2.962049182529721e+02, 2.170313360352287e+03
736, -5.000000000004811e-05, 4.200000000002396e-03, 1.361292643468241e-04, 9.959182288239498e-08, 2.310666883532349e+01, 1.062730802889887e+03, 2.636068390704399e+02, 1.165664017857434e+03
737, -1.025587492535507e-16, 4.200000000000129e-03, 1.360440369758537e-04, -2.677166599805366e-06, 2.187805242029816e+01, 1.592565096462010e+01, 2.138909027959624e+02, 4.278232161519252e+02
738, 4.999999999988515e-05, 4.199999999997860e-03, 1.359736930710528e-04, -5.454754316997817e-06, 1.911295504156487e+01, -1.029295068987012e+03, 1.470398296607740e+02, 1.088871999306706e+03
739, 9.999999999990481e-05, 4.199999999995591e-03, 1.359181972911559e-04, -8.234011711613925e-06, 1.466771796577552e+01, -2.072646653332836e+03, 6.303634869713746e+01, 2.091118267735707e+03
740, 1.499999999999452e-04, 4.199999999993324e-03, 1.358775078178231e-04, -1.101577989888163e-05, 8.397504056714752e+00, -3.113842576898102e+03, -3.813677471101967e+01, 3.123171589500356e+03
741, 1.999999999999710e-04, 4.199999999991056e-03, 1.358515763317702e-04, -1.380090072924565e-05, 1.562232195760771e-01, -4.152594568620152e+03, -1.564966993244386e+02, 4.164529265922291e+03
742, -2.000000000000034e-04, 4.100000000008875e-03, 1.309251364371221e-04, 8.437867292794611e-06, 1.902135020021404e+01, 4.348523148367254e+03, 3.158710220901991e+02, 4.375349566687998e+03
743, -1.500000000000190e-04, 4.100000000006694e-03, 1.307954288653483e-04, 5.695494054086266e-06, 2.146215745088875e+01, 3.264045075104443e+03, 3.173090082648205e+02, 3.304101088762668e+03
744, -1.000000000000340e-04, 4.100000000004513e-03, 1.306811614474591e-04, 2.954833283488376e-06, 2.281012583763112e+01, 2.180291627200495e+03, 3.013864201548034e+02, 2.240103016769066e+03
745, -5.000000000005830e-05, 4.100000000002334e-03, 1.305823189808771e-04, 2.150331322651102e-07, 2.292537891565030e+01, 1.097542051420528e+03, 2.680836572195748e+02, 1.200948117904493e+03
746, -1.153726636796137e-16, 4.100000000000152e-03, 1.304988798627607e-04, -2.524759030418402e-06, 2.166664318899944e+01, 1.607738782442954e+01, 2.173810695133740e+02, 4.347980649757354e+02
747, 4.999999999987496e-05, 4.099999999997971e-03, 1.304308160643248e-04, -5.265396620571527e-06, 1.889138581097342e+01, -1.063819457809946e+03, 1.492590074012986e+02, 1.123109868203466e+03
748, 9.999999999989721e-05, 4.099999999995790e-03, 1.303780931056530e-04, -8.007733842674993e-06, 1.445583439047186e+01, -2.141863714329527e+03, 6.369783944100391e+01, 2.160079548347659e+03
749, 1.499999999999408e-04, 4.099999999993610e-03, 1.303406700308183e-04, -1.075262569275643e-05, 8.214981354075519e+00, -3.217768751105044e+03, -3.932202417568215e+01, 3.226942194776963e+03
750, 1.999999999999691e-04, 4.099999999991429e-03, 1.303184993831309e-04, -1.350092796106998e-05, 2.258289083272302e-02, -4.291246076532809e+03, -1.598201265584743e+02, 4.303156585434027e+03
751, -2.000000000000054e-04, 4.000000000008551e-03, 1.254503605929621e-04, 8.433470912549786e-06, 1.901500708640577e+01, 4.489488986268745e+03, 3.214338721255835e+02, 4.516460620346972e+03
752, -1.500000000000234e-04, 4.000000000006458e-03, 1.253209811832875e-04, 5.729239834043290e-06, 2.136109220341416e+01, 3.369843091574948e+03, 3.227717350903869e+02, 3.410140476873089e+03
753, -1.000000000000416e-04, 4.000000000004365e-03, 1.252075389563143e-04, 3.026746865731425e-06, 2.263749950330111e+01, 2.250902548048736e+03, 3.064719874979388e+02, 2.311031250990115e+03
754, -5.000000000006849e-05, 4.000000000002271e-03, 1.251100196548291e-04, 3.251265230955877e-07, 2.270421491686801e+01, 1.132946478394095e+03, 2.725124899599918e+02, 1.236806416682827e+03
755, -1.282069068964109e-16, 4.000000000000177e-03, 1.250284026236254e-04, -2.376487522813326e-06, 2.141988760661656e+01, 1.625587224638610e+01, 2.208711494327373e+02, 4.417724817840003e+02
756, 4.999999999986478e-05, 3.999999999998083e-03, 1.249626607837195e-04, -5.078962447957181e-06, 1.864190340263076e+01, -1.098886347417741e+03, 1.515258792141062e+02, 1.157890219177997e+03
757, 9.999999999988963e-05, 3.999999999995989e-03, 1.249127606066981e-04, -7.783166278054193e-06, 1.422638684728622e+01, -2.212195325795725e+03, 6.445461509109145e+01, 2.230150495404829e+03
758, 1.499999999999365e-04, 3.999999999993896e-03, 1.248786620891704e-04, -1.048996789142193e-05, 8.028196798142574e+00, -3.323384284722009e+03, -4.036466602065845e+01, 3.332390485384343e+03
759, 1.999999999999672e-04, 3.999999999991804e-03, 1.248603187273316e-04, -1.320023702182215e-05, -9.901676632216549e-02, -4.432164481878426e+03, -1.629539148079798e+02, 4.444031975632530e+03
760, -2.000000000000072e-04, 3.900000000008219e-03, 1.200526275747993e-04, 8.419940528116762e-06, 1.897109191658649e+01, 4.632730428089227e+03, 3.267884329593989e+02, 4.659821663088024e+03
761, -1.500000000000277e-04, 3.900000000006203e-03, 1.199235849151486e-04, 5.755080823649011e-06, 2.121836061923051e+01, 3.477359199380141e+03, 3.280783335606727e+02, 3.517875931461876e+03
762, -1.000000000000492e-04, 3.900000000004186e-03, 1.198109842062850e-04, 3.091985605446953e-06, 2.242210530799690e+01, 2.322671150041965e+03, 3.114535301995512e+02, 2.383098586650285e+03
763, -5.000000000007867e-05, 3.900000000002170e-03, 1.197148122286144e-04, 4.297757561883103e-07, 2.244206079675371e+01, 1.168945153862926e+03, 2.768894447977638e+02, 1.273240119133841e+03
764, -1.410275975860520e-16, 3.900000000000153e-03, 1.196350493673049e-04, -2.232428748626330e-06, 2.113686278713180e+01, 1.646219796374032e+01, 2.243614770519745e+02, 4.487473030904874e+02
765, 4.999999999985460e-05, 3.899999999998138e-03, 1.195716695862935e-04, -4.895508843316485e-06, 1.836386459527250e+01, -1.134494734620162e+03, 1.538450278661612e+02, 1.193212520962437e+03
766, 9.999999999988204e-05, 3.899999999996121e-03, 1.195246404019200e-04, -7.560346374982470e-06, 1.397912100191223e+01, -2.283640668552248e+03, 6.531551979707118e+01, 2.301330303510635e+03
767, 1.499999999999321e-04, 3.899999999994104e-03, 1.194939228566046e-04, -1.022782410617126e-05, 7.837397127644749e+00, -3.430688631990196e+03, -4.125157813638293e+01, 3.439515667025791e+03
768, 1.999999999999652e-04, 3.899999999992088e-03, 1.194794714928087e-04, -1.289882571731731e-05, -2.078989814053216e-01, -4.575349728233210e+03, -1.658807251336514e+02, 4.587154719175387e+03
769, -2.000000000000091e-04, 3.800000000007874e-03, 1.147344281479729e-04, 8.397125179272070e-06, 1.889292453187346e+01, 4.778251172055229e+03, 3.319169346133781e+02, 4.805430920760506e+03
770, -1.500000000000321e-04, 3.800000000005924e-03, 1.146057289731224e-04, 5.772885431423381e-06, 2.103615032996055e+01, 3.586596620856132e+03, 3.332153780635963e+02, 3.627306358951650e+03
771, -1.000000000000568e-04, 3.800000000003971e-03, 1.144939842370500e-04, 3.150437344035584e-06, 2.216491010932702e+01, 2.395599973396200e+03, 3.163221301417648e+02, 2.456304696023939e+03
772, -5.000000000008884e-05, 3.800000000002021e-03, 1.143991818552273e-04, 5.288881696194085e-07, 2.213910991951042e+01, 1.205540117736034e+03, 2.812101017816727e+02, 1.310249758892327e+03
773, -1.538415120121150e-16, 3.800000000000070e-03, 1.143213033511733e-04, -2.092655809042651e-06, 2.081734839760225e+01, 1.669799764865638e+01, 2.278521204181021e+02, 4.557228589468539e+02
774, 4.999999999984441e-05, 3.799999999998119e-03, 1.142603238295048e-04, -4.715089283657677e-06, 1.805689823177272e+01, -1.170643381816386e+03, 1.562209927464293e+02, 1.229076218175786e+03
775, 9.999999999987444e-05, 3.799999999996168e-03, 1.142162119486972e-04, -7.339307923729904e-06, 1.371368601236986e+01, -2.356198962052139e+03, 6.628954351548578e+01, 2.373618160904170e+03
776, 1.499999999999278e-04, 3.799999999994218e-03, 1.141889298937933e-04, -9.966208379162759e-06, 7.642303961007940e+00, -3.539681617348875e+03, -4.196934958808743e+01, 3.548316883807972e+03
777, 1.999999999999633e-04, 3.799999999992265e-03, 1.141784333493339e-04, -1.259668828200020e-05, -3.039248224319522e-01, -4.720802109198228e+03, -1.685827372874648e+02, 4.732524026979740e+03
778, -2.000000000000110e-04, 3.700000000007529e-03, 1.094982930128952e-04, 8.364877801170530e-06, 1.877703918697563e+01, 4.926050205479625e+03, 3.368006389953266e+02, 4.953288666161759e+03
779, -1.500000000000364e-04, 3.700000000005644e-03, 1.093699420004653e-04, 5.782525955610555e-06, 2.081143501241462e+01, 3.697555043620262e+03, 3.381687142515044e+02, 3.738432275785228e+03
780, -1.000000000000644e-04, 3.700000000003758e-03, 1.092590656302601e-04, 3.201993803967005e-06, 2.186351240111850e+01, 2.469689367392614e+03, 3.210683247511525e+02, 2.530650290537769e+03
781, -5.000000000009902e-05, 3.700000000001873e-03, 1.091656530515761e-04, 6.223749763155403e-07, 2.179343922047002e+01, 1.242732103661355e+03, 2.854696984749142e+02, 1.347836420830112e+03
782, -1.666825314924902e-16, 3.699999999999988e-03, 1.090896870260068e-04, -1.957237934273157e-06, 2.045985907164510e+01, 1.696420107958716e+01, 2.313429947877864e+02, 4.626991944820356e+02
783, 4.999999999983423e-05, 3.699999999998102e-03, 1.090311438989508e-04, -4.537753376174458e-06, 1.771999171637799e+01, -1.207331305456035e+03, 1.586583467876017e+02, 1.265480369158412e+03
784, 9.999999999986681e-05, 3.699999999996217e-03, 1.089899935713869e-04, -7.120080842884320e-06, 1.342965227974685e+01, -2.429869270930293e+03, 6.738589404718117e+01, 2.447013090080535e+03
785, 1.499999999999234e-04, 3.699999999994331e-03, 1.089661994715292e-04, -9.705130876038959e-06, 7.443231671197168e+00, -3.650362441901313e+03, -4.250417992513798e+01, 3.658793348477566e+03
786, 1.999999999999614e-04, 3.699999999992445e-03, 1.089597185261414e-04, -1.229381506718346e-05, -3.862189090036736e-01, -4.868521364535196e+03, -1.710415799574908e+02, 4.880139412391655e+03
787, -2.000000000000130e-04, 3.600000000007325e-03, 1.043467927062854e-04, 8.323055507512062e-06, 1.862193028955585e+01, 5.076128414745257e+03, 3.414206970371461e+02, 5.103395360911477e+03
788, -1.500000000000407e-04, 3.600000000005489e-03, 1.042187923156109e-04, 5.783878867113194e-06, 2.054210089018545e+01, 3.810235205285817e+03, 3.429242224191509e+02, 3.851254589713710e+03
789, -1.000000000000720e-04, 3.600000000003653e-03, 1.041087944781708e-04, 3.246550880892655e-06, 2.151577266981411e+01, 2.544940159644144e+03, 3.256826837473590e+02, 2.606136504243072e+03
790, -5.000000000010923e-05, 3.600000000001818e-03, 1.040167896795872e-04, 7.101515629042979e-07, 2.140307644524319e+01, 1.280522053018188e+03, 2.896635100772548e+02, 1.386001584936758e+03
791, -1.794761171278192e-16, 3.599999999999982e-03, 1.039427620214216e-04, -1.826240179935841e-06, 2.006265523327301e+01, 1.726178487218749e+01, 2.348341090599592e+02, 4.696765695526218e+02
792, 4.999999999982404e-05, 3.599999999998146e-03, 1.038866891921667e-04, -4.363546551477360e-06, 1.735171343414805e+01, -1.244557575211270e+03, 1.611618613855024e+02, 1.302423754018078e+03
793, 9.999999999985923e-05, 3.599999999996311e-03, 1.038485424382395e-04, -6.902690870220307e-06, 1.312601666010062e+01, -2.504650775187030e+03, 6.861414142054568e+01, 2.521513746775048e+03
794, 1.499999999999191e-04, 3.599999999994474e-03, 1.038282865348008e-04, -9.444597573000507e-06, 7.239875871737297e+00, -3.762730371280948e+03, -4.284166034369161e+01, 3.770943820300230e+03
795, 1.999999999999595e-04, 3.599999999992638e-03, 1.038258797561307e-04, -1.199019221878982e-05, -4.540896141122062e-01, -5.018506886224032e+03, -1.732380948253779e+02, 5.029999962182857e+03
796, -2.000000000000149e-04, 3.500000000007369e-03, 9.928253757857519e-05, 8.271519928656609e-06, 1.842588432101661e+01, 5.228485945516893e+03, 3.457577655043938e+02, 5.255751094838372e+03
797, -1.500000000000451e-04, 3.500000000005565e-03, 9.915488789405623e-05, 5.776825146100890e-06, 2.022655732917951e+01, 3.924637724986015e+03, 3.474674528023818e+02, 3.965773706245897e+03
798, -1.000000000000796e-04, 3.500000000003764e-03, 9.904577637250655e-05, 3.284008975318037e-06, 2.112001111246775e+01, 2.621353167997166e+03, 3.301555216870859e+02, 2.682764086565282e+03
799, -5.000000000011939e-05, 3.500000000001962e-03, 9.895519494005133e-05, 7.921378177912903e-07, 2.096620860234736e+01, 1.318910782995692e+03, 2.937866149861779e+02, 1.424746440170064e+03
800, -1.923239128717724e-16, 3.500000000000160e-03, 9.888312914245147e-05, -1.699723102429039e-06, 1.962377591702312e+01, 1.759138743360603e+01, 2.383253216210569e+02, 4.766549761683690e+02
801, 4.999999999981385e-05, 3.499999999998358e-03, 9.882955811572823e-05, -4.192509743066985e-06, 1.694988448761643e+01, -1.282321952823849e+03, 1.637361876017158e+02, 1.339905020422003e+03
802, 9.999999999985163e-05, 3.499999999996555e-03, 9.879445455636305e-05, -6.687159248001314e-06, 1.280022549141631e+01, -2.580543925422343e+03, 6.998373705817238e+01, 2.597118553106330e+03
803, 1.499999999999148e-04, 3.499999999994753e-03, 9.877778469129440e-05, -9.184609951698875e-06, 7.028996761709379e+00, -3.876786966301270e+03, -4.296750665430751e+01, 3.884766564602714e+03
804, 1.999999999999576e-04, 3.499999999992950e-03, 9.877950824773532e-05, -1.168580138361833e-05, -5.110531345389973e-01, -5.170761194414353e+03, -1.751530668233220e+02, 5.182103907745810e+03
805, -2.000000000000167e-04, 3.400000000007423e-03, 9.430817780696116e-05, 8.210137573029006e-06, 1.818922031249633e+01, 5.383123983725563e+03, 3.497918406175345e+02, 5.410355103200568e+03
806, -1.500000000000494e-04, 3.400000000005649e-03, 9.418087638548583e-05, 5.761250644081830e-06, 1.986506332737883e+01, 4.040764225463136e+03, 3.517832712452998e+02, 4.081989215048984e+03
807, -1.000000000000872e-04, 3.400000000003875e-03, 9.407265642329786e-05, 3.314273350343642e-06, 2.067616247509295e+01, 2.698930113696320e+03, 3.344766502222093e+02, 2.760533054576162e+03
808, -5.000000000012958e-05, 3.400000000002102e-03, 9.398351139471143e-05, 8.682584853936280e-07, 2.048264904259480e+01, 1.357900076706670e+03, 2.978337879809828e+02, 1.464071458936345e+03
809, -2.051242747706794e-16, 3.400000000000329e-03, 9.391342839849214e-05, -1.577742406019678e-06, 1.914319402613341e+01, 1.795486474493345e+01, 2.418163718023597e+02, 4.836342035186395e+02
810, 4.999999999980369e-05, 3.399999999998554e-03, 9.386238812750177e-05, -4.024679033756092e-06, 1.651496245258284e+01, -1.320622463899938e+03, 1.663860221536740e+02, 1.377923702686450e+03
811, 9.999999999984403e-05, 3.399999999996781e-03, 9.383036483805629e-05, -6.473502367309670e-06, 1.245359913625578e+01, -2.657546540022416e+03, 7.150432372900502e+01, 2.673827260006729e+03
812, 1.499999999999104e-04, 3.399999999995008e-03, 9.381732631921922e-05, -8.925164640431896e-06, 6.813239751375932e+00, -3.992529666406432e+03, -4.286715277157538e+01, 4.000261747958720e+03
813, 1.999999999999557e-04, 3.399999999993234e-03, 9.382323386230485e-05, -1.138061935602700e-05, -5.533246907825742e-01, -5.325281700724690e+03, -1.767667934935063e+02, 5.336451843282070e+03
814, -2.000000000000187e-04, 3.300000000007353e-03, 8.942640348974507e-05, 8.138780184290421e-06, 1.791196291102193e+01, 5.540043549932868e+03, 3.535020161729455e+02, 5.567206837017802e+03
815, -1.500000000000538e-04, 3.300000000005614e-03, 8.929944517568252e-05, 5.737046437943746e-06, 1.945701384633264e+01, 4.158615780682159e+03, 3.558558450913973e+02, 4.199901049669711e+03
816, -1.000000000000948e-04, 3.300000000003875e-03, 8.919211929257894e-05, 3.337254486134149e-06, 2.018340911669748e+01, 2.777672227843523e+03, 3.386354559597191e+02, 2.839443690854891e+03
817, -5.000000000013977e-05, 3.300000000002137e-03, 8.910442097483162e-05, 9.384435223352309e-07, 1.995155707637167e+01, 1.397491272082250e+03, 3.017996581630466e+02, 1.503977327318402e+03
818, -2.179652942510546e-16, 3.300000000000398e-03, 8.903633898690870e-05, -1.460348583574041e-06, 1.862021427917813e+01, 1.835359400182688e+01, 2.453071428287640e+02, 4.906143581038154e+02
819, 4.999999999979350e-05, 3.299999999998659e-03, 8.898785569169879e-05, -3.860085291450209e-06, 1.604656783232383e+01, -1.359457761153877e+03, 1.691165221783185e+02, 1.416479350839445e+03
820, 9.999999999983644e-05, 3.299999999996922e-03, 8.895894701902332e-05, -6.261731396166952e-06, 1.208624963524863e+01, -2.735657364972435e+03, 7.318636234436067e+01, 2.751639501488176e+03
821, 1.499999999999061e-04, 3.299999999995182e-03, 8.894958243419665e-05, -8.666253032463368e-06, 6.593341922248669e+00, -4.109957398246607e+03, -4.252478067175717e+01, 4.117429225168233e+03
822, 1.999999999999538e-04, 3.299999999993444e-03, 8.895972490677828e-05, -1.107461767847199e-05, -5.797393038010910e-01, -5.482067749791379e+03, -1.780583205337702e+02, 5.493043771094884e+03
823, -2.000000000000206e-04, 3.200000000007042e-03, 8.463994468353257e-05, 8.057325076255739e-06, 1.759195728216162e+01, 5.699244203701541e+03, 3.568668301621486e+02, 5.726306661987489e+03
824, -1.500000000000580e-04, 3.200000000005365e-03, 8.451332140849569e-05, 5.704109165744188e-06, 1.900003501866354e+01, 4.278192326988785e+03, 3.596690834240886e+02, 4.319509969691260e+03
825, -1.000000000001024e-04, 3.200000000003689e-03, 8.440688920368736e-05, 3.352868419758227e-06, 1.963948970387423e+01, 2.857579855660704e+03, 3.426211786831283e+02, 2.919496978771523e+03
826, -5.000000000014997e-05, 3.200000000002012e-03, 8.432064497841661e-05, 1.002628439881948e-06, 1.937078466780679e+01, 1.437684947474476e+03, 3.056788123398714e+02, 1.544465347514162e+03
827, -2.307656561499616e-16, 3.200000000000335e-03, 8.425457927763386e-05, -1.347586574031528e-06, 1.805274416641743e+01, 1.878817363133930e+01, 2.487975857315395e+02, 4.975957149331863e+02
828, 4.999999999978330e-05, 3.199999999998658e-03, 8.420867624936008e-05, -3.698753829394719e-06, 1.554258201950103e+01, -1.398827452702662e+03, 1.719330185118062e+02, 1.455570831851991e+03
829, 9.999999999982882e-05, 3.199999999996980e-03, 8.418291361218653e-05, -6.051851946283751e-06, 1.169590431886144e+01, -2.814876468654574e+03, 7.504057787193101e+01, 2.830553962207061e+03
830, 1.499999999999017e-04, 3.199999999995303e-03, 8.417726262283968e-05, -8.407860962260016e-06, 6.366693006782498e+00, -4.229070969693933e+03, -4.192429183246428e+01, 4.236267552882646e+03
831, 1.999999999999519e-04, 3.199999999993626e-03, 8.419168804361646e-05, -1.076776233705669e-05, -5.927238883993482e-01, -5.641120616656521e+03, -1.790061470266926e+02, 5.651878246369834e+03
832, -2.000000000000225e-04, 3.100000000006703e-03, 7.995157134301478e-05, 7.965655496226599e-06, 1.722807378165504e+01, 5.860726041506879e+03, 3.598644910369230e+02, 5.887654737367492e+03
833, -1.500000000000624e-04, 3.100000000005093e-03, 7.982527194763787e-05, 5.662341389878404e-06, 1.849291476150501e+01, 4.399494508631788e+03, 3.632066637354671e+02, 4.440816511388571e+03
834, -1.000000000001100e-04, 3.100000000003483e-03, 7.971972991912385e-05, 3.361037107550005e-06, 1.904303554646742e+01, 2.938653952576686e+03, 3.464229059724930e+02, 3.000693790771018e+03
835, -5.000000000016015e-05, 3.100000000001875e-03, 7.963494405967912e-05, 1.060754665152086e-06, 1.873889866432120e+01, 1.478482246456100e+03, 3.094657598038865e+02, 1.585536775791195e+03
836, -2.436134518939148e-16, 3.100000000000265e-03, 7.957090681294361e-05, -1.239495402630279e-06, 1.743941112691414e+01, 1.925984629427364e+01, 2.522876490204604e+02, 5.045785819644772e+02
837, 4.999999999977311e-05, 3.099999999998656e-03, 7.952760423053214e-05, -3.540704048437948e-06, 1.500182977424964e+01, -1.438730269679888e+03, 1.748409042003193e+02, 1.495197105437834e+03
838, 9.999999999982122e-05, 3.099999999997047e-03, 7.950501593846601e-05, -5.843863717727777e-06, 1.128174508754995e+01, -2.895202607340857e+03, 7.707779456338453e+01, 2.910569572535623e+03
839, 1.499999999998973e-04, 3.099999999995438e-03, 7.950311510361933e-05, -8.149968353837289e-06, 6.133093130485634e+00, -4.349869138083951e+03, -4.104944030751172e+01, 4.356775833634706e+03
840, 1.999999999999499e-04, 3.099999999993829e-03, 7.952186840034049e-05, -1.046001340249721e-05, -5.917822955362908e-01, -5.802439246110869e+03, -1.795885709812374e+02, 5.812954688683608e+03
841, -2.000000000000244e-04, 3.000000000006373e-03, 7.536409333059246e-05, 7.863661021418830e-06, 1.682048065384305e+01, 6.024489787376244e+03, 3.624724856442463e+02, 6.051250755862864e+03
842, -1.500000000000668e-04, 3.000000000004845e-03, 7.523810338235323e-05, 5.611651991716378e-06, 1.793548269625256e+01, 4.522523520914108e+03, 3.664516411334757e+02, 4.563820835135080e+03
843, -1.000000000001176e-04, 3.000000000003318e-03, 7.513344474143826e-05, 3.361688814650611e-06, 1.839339506502427e+01, 3.020895864093716e+03, 3.500293123293017e+02, 3.083034731313011e+03
844, -5.000000000017031e-05, 3.000000000001789e-03, 7.505011822511735e-05, 1.112769927587633e-06, 1.805495380602548e+01, 1.519884594014038e+03, 3.131548089322301e+02, 1.627192676248530e+03
845, -2.564273663199779e-16, 3.000000000000262e-03, 7.498811829826080e-05, -1.136107795489457e-06, 1.677918353558448e+01, 1.977006886438613e+01, 2.557772807104218e+02, 5.115633046901641e+02
846, 4.999999999976296e-05, 2.999999999998735e-03, 7.494743303871129e-05, -3.385949050385249e-06, 1.442338808715016e+01, -1.479164782095042e+03, 1.778457733846415e+02, 1.535357319502960e+03
847, 9.999999999981362e-05, 2.999999999997206e-03, 7.492804410276788e-05, -5.637760108394181e-06, 1.084315753272273e+01, -2.976634442176527e+03, 7.930926013412812e+01, 2.991685518856657e+03
848, 1.499999999998930e-04, 2.999999999995678e-03, 7.492992669066080e-05, -7.892548821566394e-06, 5.892361049447004e+00, -4.472350801522854e+03, -3.988332613702265e+01, 4.478953509687343e+03
849, 1.999999999999481e-04, 2.999999999994151e-03, 7.495304951195855e-05, -1.015132462727076e-05, -5.768226536562793e-01, -5.966023121762511e+03, -1.797830385442089e+02, 5.976272861185663e+03
850, -2.000000000000263e-04, 2.900000000006043e-03, 7.088036048663230e-05, 7.751237950358880e-06, 1.636909238201463e+01, 6.190536123595481e+03, 3.646674351106001e+02, 6.217094810459615e+03
851, -1.500000000000711e-04, 2.900000000004594e-03, 7.075466207295831e-05, 5.551956560172139e-06, 1.732684684175717e+01, 4.647280106296839e+03, 3.693864188050434e+02, 4.688523487232329e+03
852, -1.000000000001252e-04, 2.900000000003146e-03, 7.065087653968165e-05, 3.354758504361803e-06, 1.768934289954245e+01, 3.104306552953767e+03, 3.534286510876630e+02, 3.166520653184108e+03
853, -5.000000000018052e-05, 2.900000000001698e-03, 7.056900684522130e-05, 1.158628648506575e-06, 1.731757911109310e+01, 1.561893155227428e+03, 3.167400516433255e+02, 1.669434260938469e+03
854, -2.692480570096190e-16, 2.900000000000249e-03, 7.050904960142424e-05, -1.037449790155704e-06, 1.607066895204156e+01, 2.032013019035230e+01, 2.592664119601107e+02, 5.185502361425508e+02
855, 4.999999999975274e-05, 2.899999999998802e-03, 7.047099503833068e-05, -3.234495248719434e-06, 1.380598107351733e+01, -1.520129654264312e+03, 1.809534105936796e+02, 1.576050468919448e+03
856, 9.999999999980604e-05, 2.899999999997354e-03, 7.045482696892038e-05, -5.433527824636200e-06, 1.037913674635126e+01, -3.059170665024501e+03, 8.174663804675401e+01, 3.073900785139180e+03
857, 1.499999999998886e-04, 2.899999999995905e-03, 7.046052275373198e-05, -7.635569281407566e-06, 5.644005472251081e+00, -4.596514686860306e+03, -3.840837427024461e+01, 4.602799739535541e+03
858, 1.999999999999462e-04, 2.899999999994458e-03, 7.048805326534088e-05, -9.841643053926564e-06, -5.474130421693530e-01, -6.131870896504848e+03, -1.795661208715908e+02, 6.141832269438853e+03
859, -2.000000000000283e-04, 2.800000000005697e-03, 6.650326265046165e-05, 7.628289679710096e-06, 1.587164258974974e+01, 6.358863932906754e+03, 3.664255323780470e+02, 6.385187693258131e+03
860, -1.500000000000755e-04, 2.800000000004316e-03, 6.637783416353704e-05, 5.483177776944276e-06, 1.666471371409585e+01, 4.773763737324150e+03, 3.719931775139966e+02, 4.814925421738073e+03
861, -1.000000000001328e-04, 2.800000000002934e-03, 6.627490775677084e-05, 3.340188229074700e-06, 1.692875313995683e+01, 3.188886144735672e+03, 3.566089850095590e+02, 3.251152652038486e+03
862, -5.000000000019071e-05, 2.800000000001552e-03, 6.619448865649752e-05, 1.198292334660806e-06, 1.652465907342042e+01, 1.604508436187188e+03, 3.202154422293906e+02, 1.712262886984696e+03
863, -2.820416426449479e-16, 2.800000000000171e-03, 6.613657574884651e-05, -9.435403418104116e-07, 1.531166288495649e+01, 2.091067113761341e+01, 2.627549097226095e+02, 5.255396457230985e+02
864, 4.999999999974258e-05, 2.799999999998790e-03, 6.610116154393919e-05, -3.086341976640351e-06, 1.314721919268601e+01, -1.561624365389956e+03, 1.841696130050208e+02, 1.617275279297437e+03
865, 9.999999999979847e-05, 2.799999999997408e-03, 6.608823213975896e-05, -5.231146493472919e-06, 9.886983375073498e+00, -3.142811158374203e+03, 8.440166825819657e+01, 3.157213983785136e+03
866, 1.499999999998843e-04, 2.799999999996027e-03, 6.609776718581947e-05, -7.378989569734211e-06, 5.384784026608486e+00, -4.722361463974675e+03, -3.660688916317531e+01, 4.728313107528628e+03
867, 1.999999999999443e-04, 2.799999999994645e-03, 6.612973984650425e-05, -9.530908642578602e-06, -5.073178237320803e-01, -6.299984225580049e+03, -1.789140998642898e+02, 6.309631552783101e+03
868, -2.000000000000301e-04, 2.700000000005420e-03, 6.223572959131683e-05, 7.494727130457706e-06, 1.532878617838401e+01, 6.529473612465237e+03, 3.677225252345454e+02, 6.555529135020245e+03
869, -1.500000000000799e-04, 2.700000000004097e-03, 6.211054554571658e-05, 5.405245843120334e-06, 1.594962921433387e+01, 4.901975574601513e+03, 3.742536428515427e+02, 4.943026673582420e+03
870, -1.000000000001404e-04, 2.700000000002773e-03, 6.200846039303951e-05, 3.317927553320055e-06, 1.611157827341026e+01, 3.274636027819586e+03, 3.595580179848144e+02, 3.336931144251987e+03
871, -5.000000000020087e-05, 2.700000000001450e-03, 6.192948175812301e-05, 1.231729998837888e-06, 1.567577418022165e+01, 1.647732029138835e+03, 3.235747149171743e+02, 1.755679356797378e+03
872, -2.948962146524792e-16, 2.700000000000125e-03, 6.187361093311491e-05, -8.543909040138748e-07, 1.450163740985397e+01, 2.154348917403291e+01, 2.662425706012173e+02, 5.325317016644599e+02
873, 4.999999999973239e-05, 2.699999999998801e-03, 6.184084284069283e-05, -2.941481068213840e-06, 1.244676059432038e+01, -1.603646888398457e+03, 1.875002607828276e+02, 1.659031064654699e+03
874, 9.999999999979085e-05, 2.699999999997478e-03, 6.183116599702461e-05, -5.030588243313374e-06, 9.366896722427214e+00, -3.227553593732909e+03, 8.728633150095979e+01, 3.241624573604598e+03
875, 1.499999999998800e-04, 2.699999999996155e-03, 6.184456247460986e-05, -7.122762022341296e-06, 5.115958010670170e+00, -4.849888293921670e+03, -3.446077761328911e+01, 4.855493431882692e+03
876, 1.999999999999424e-04, 2.699999999994831e-03, 6.188100786514671e-05, -9.219053849088846e-06, -4.540168482284912e-01, -6.470359853755225e+03, -1.778026840749230e+02, 6.479671034574227e+03
877, -2.000000000000321e-04, 2.600000000005380e-03, 5.808073109578441e-05, 7.350469202380680e-06, 1.474252770303860e+01, 6.702366406012168e+03, 3.685330634517297e+02, 6.728118579005494e+03
878, -1.500000000000841e-04, 2.600000000004088e-03, 5.795576191585299e-05, 5.318098921766930e-06, 1.518234597263017e+01, 5.031916849813724e+03, 3.761485623146070e+02, 5.072827224118236e+03
879, -1.000000000001480e-04, 2.600000000002797e-03, 5.785449603860491e-05, 3.287933990408573e-06, 1.523769459268544e+01, 3.361557477481482e+03, 3.622628112635425e+02, 3.423856519635598e+03
880, -5.000000000021105e-05, 2.600000000001504e-03, 5.777694362300584e-05, 1.258918593232512e-06, 1.477019539419746e+01, 1.691565256505818e+03, 3.268112541755563e+02, 1.799684433558151e+03
881, -3.077169053421203e-16, 2.600000000000212e-03, 5.772310850335960e-05, -7.700049964290501e-07, 1.363944348465327e+01, 2.221988631308255e+01, 2.697291082482803e+02, 5.395264510149452e+02
882, 4.999999999972220e-05, 2.599999999998920e-03, 5.769298815137654e-05, -2.799896425469926e-06, 1.170315639312309e+01, -1.646196061247595e+03, 1.909514068060359e+02, 1.701317011875954e+03
883, 9.999999999978321e-05, 2.599999999997628e-03, 5.768657363812674e-05, -4.831817268823932e-06, 8.817165681689801e+00, -3.313397132393385e+03, 9.041303456345601e+01, 3.327131784226521e+03
884, 1.499999999998756e-04, 2.599999999996335e-03, 5.770384959597931e-05, -6.866831036797112e-06, 4.835424891113121e+00, -4.979094972052233e+03, -3.195123593885177e+01, 4.984340049343336e+03
885, 1.999999999999405e-04, 2.599999999995043e-03, 5.774479418073206e-05, -8.906003181379306e-06, -3.900005590120941e-01, -6.642998326318689e+03, -1.762067437107432e+02, 6.651950137784283e+03
886, -2.000000000000340e-04, 2.500000000005436e-03, 5.404127706923021e-05, 7.195443178976509e-06, 1.411073533309536e+01, 6.877540442731768e+03, 3.688310971937426e+02, 6.902956820191706e+03
887, -1.500000000000885e-04, 2.500000000004174e-03, 5.391648883989868e-05, 5.221683550514464e-06, 1.436054000355955e+01, 5.163586480798966e+03, 3.776583565032400e+02, 5.204328114781701e+03
888, -1.000000000001556e-04, 2.500000000002911e-03, 5.381601591384214e-05, 3.250173421396546e-06, 1.430507361630248e+01, 3.449650385319807e+03, 3.647102077156925e+02, 3.511929890116165e+03
889, -5.000000000022121e-05, 2.500000000001650e-03, 5.373987112174548e-05, 1.279843432906599e-06, 1.380606889123681e+01, 1.736008683123097e+03, 3.299183505948431e+02, 1.844279348879648e+03
890, -3.205375960317614e-16, 2.500000000000388e-03, 5.368806097864111e-05, -6.903777788044260e-07, 1.272337617947858e+01, 2.294088409543571e+01, 2.732142783225474e+02, 5.465240753939887e+02
891, 4.999999999971200e-05, 2.499999999999127e-03, 5.366058564457941e-05, -2.661563591554265e-06, 1.091488592326203e+01, -1.689270577254676e+03, 1.945292828886115e+02, 1.744132213109491e+03
892, 9.999999999977564e-05, 2.499999999997865e-03, 5.365743888548816e-05, -4.634789405225792e-06, 8.236539291541931e+00, -3.400340318085362e+03, 9.379449012350415e+01, 3.413734878129163e+03
893, 1.499999999998713e-04, 2.499999999996604e-03, 5.367860803400268e-05, -6.611132649300564e-06, 4.542318141230680e+00, -5.109979998344983e+03, -2.905910692721295e+01, 5.114852515236107e+03
894, 1.999999999999386e-04, 2.499999999995341e-03, 5.372407395020532e-05, -8.591672789934784e-06, -3.156603263049078e-01, -6.817898228277869e+03, -1.741005853146905e+02, 6.826468788917497e+03
895, -2.000000000000358e-04, 2.400000000005491e-03, 5.012041741804772e-05, 7.029585171759241e-06, 1.343419575063069e+01, 7.054995737074462e+03, 3.685902208011038e+02, 7.080044063685740e+03
896, -1.500000000000929e-04, 2.400000000004260e-03, 4.999577167846542e-05, 5.115955084007600e-06, 1.348450073348113e+01, 5.296985207114940e+03, 3.787632115931559e+02, 5.337529952717719e+03
897, -1.000000000001632e-04, 2.400000000003029e-03, 4.989606081885697e-05, 3.204620537410229e-06, 1.331322343717193e+01, 3.538915727011185e+03, 3.668869248743057e+02, 3.601152187256496e+03
898, -5.000000000023145e-05, 2.400000000001797e-03, 4.982130048458209e-05, 1.294498638678423e-06, 1.278243270017981e+01, 1.781063560394494e+03, 3.328892943037213e+02, 1.889465341203165e+03
899, -3.333650629849805e-16, 2.400000000000566e-03, 4.977150001418133e-05, -6.154956073274476e-07, 1.175221565206061e+01, 2.370797397567628e+01, 2.766979855836336e+02, 5.535251042737407e+02
900, 4.999999999970184e-05, 2.399999999999334e-03, 4.974666239939806e-05, -2.526449305897719e-06, 1.008067662678104e+01, -1.732868746791583e+03, 1.982404513040013e+02, 1.787475817662232e+03
901, 9.999999999976805e-05, 2.399999999998102e-03, 4.974678424507634e-05, -4.439451680985809e-06, 7.623922880883072e+00, -3.488381290255363e+03, 9.744395622273271e+01, 3.501433099274233e+03
902, 1.499999999998670e-04, 2.399999999996872e-03, 4.977185572897868e-05, -6.355594083361047e-06, 4.236053487286142e+00, -5.242541305069051e+03, -2.576438860545767e+01, 5.247030385383743e+03
903, 1.999999999999366e-04, 2.399999999995640e-03, 4.982186056143222e-05, -8.275969997954767e-06, -2.309622269626743e-01, -6.995057470441398e+03, -1.714575859453805e+02, 7.003227020105249e+03
904, -2.000000000000378e-04, 2.300000000005451e-03, 4.632124210456242e-05, 6.852840598287575e-06, 1.271385496077266e+01, 7.234732049684069e+03, 3.677832326268739e+02, 7.259380471481037e+03
905, -1.500000000000972e-04, 2.300000000004251e-03, 4.619669561544051e-05, 5.000878164958462e-06, 1.255422211923690e+01, 5.432113185550211e+03, 3.794425768184330e+02, 5.472433282783396e+03
906, -1.000000000001708e-04, 2.300000000003051e-03, 4.609771114564198e-05, 3.151259305298518e-06, 1.226147544654680e+01, 3.629354116216422e+03, 3.687791923923553e+02, 3.691524284476241e+03
907, -5.000000000024163e-05, 2.300000000001851e-03, 4.602430730102036e-05, 1.302887597656530e-06, 1.169800473654868e+01, 1.826730795868713e+03, 3.357170875802562e+02, 1.935243624058349e+03
908, -3.461857536746216e-16, 2.300000000000652e-03, 4.597649638992378e-05, -5.453355785371592e-07, 1.072415071877572e+01, 2.452222172889509e+01, 2.801800239873761e+02, 5.605299011916018e+02
909, 4.999999999969163e-05, 2.299999999999453e-03, 4.595428438238620e-05, -2.394511052550668e-06, 9.198230724785844e+00, -1.776989513609102e+03, 2.020915206320856e+02, 1.831346659934743e+03
910, 9.999999999976044e-05, 2.299999999998253e-03, 4.595767086914927e-05, -4.245741871303995e-06, 6.976524623117939e+00, -3.577519209316518e+03, 1.013748868800524e+02, 3.590225220984225e+03
911, 1.499999999998626e-04, 2.299999999997052e-03, 4.598664902053786e-05, -6.100133308090477e-06, 3.913258244889278e+00, -5.376778545333143e+03, -2.204675143875288e+01, 5.380872468483883e+03
912, 1.999999999999347e-04, 2.299999999995853e-03, 4.604120554514869e-05, -7.958792871384908e-06, -1.394301237269246e-01, -7.174476078287219e+03, -1.682504428810734e+02, 7.182223832999114e+03
913, -2.000000000000396e-04, 2.200000000005174e-03, 4.264688118514476e-05, 6.665164638876459e-06, 1.194969913072703e+01, 7.416748080405253e+03, 3.663821194754979e+02, 7.440966502895391e+03
914, -1.500000000001016e-04, 2.200000000004032e-03, 4.252238568683520e-05, 4.876427191861840e-06, 1.156925668325607e+01, 5.568969963202394e+03, 3.796754082574754e+02, 5.609038801377767e+03
915, -1.000000000001784e-04, 2.200000000002889e-03, 4.242408689870875e-05, 3.090083436748769e-06, 1.114900868514189e+01, 3.720965847883562e+03, 3.703728377129623e+02, 3.783047070294310e+03
916, -5.000000000025179e-05, 2.200000000001748e-03, 4.235200653564861e-05, 1.305023432759334e-06, 1.055161673907435e+01, 1.873011260067314e+03, 3.383944710818718e+02, 1.981615299512363e+03
917, -3.590132206278407e-16, 2.200000000000606e-03, 4.230616002524261e-05, -4.798650604543108e-07, 9.637731408116679e+00, 2.538491829507291e+01, 2.836600614731704e+02, 5.675386293413903e+02
918, 4.999999999968146e-05, 2.199999999999464e-03, 4.228655646598020e-05, -2.265696592545423e-06, 8.265921962111406e+00, -1.821631296210017e+03, 2.060890966225908e+02, 1.875743770364427e+03
919, 9.999999999975283e-05, 2.199999999998322e-03, 4.229319858525483e-05, -4.053588032223197e-06, 6.292665311024734e+00, -3.667752322157581e+03, 1.056008268164226e+02, 3.680110420685829e+03
920, 1.499999999998582e-04, 2.199999999997180e-03, 4.232608269725494e-05, -5.844658576632996e-06, 3.572339498575843e+00, -5.512689901035779e+03, -1.788570330436465e+01, 5.516378223062290e+03
921, 1.999999999999328e-04, 2.199999999996038e-03, 4.238519866084391e-05, -7.640029760259820e-06, -4.267566561304648e-02, -7.356152477498705e+03, -1.644516315810337e+02, 7.363459022303549e+03
922, -2.000000000000416e-04, 2.100000000004828e-03, 3.910050479404455e-05, 6.466522732492495e-06, 1.114354469127898e+01, 7.601043545054327e+03, 3.643582999761383e+02, 7.624802285866632e+03
923, -1.500000000001059e-04, 2.100000000003754e-03, 3.897600677262527e-05, 4.742586805407321e-06, 1.053054360587009e+01, 5.707555918872849e+03, 3.794400739263357e+02, 5.747346971015475e+03
924, -1.000000000001860e-04, 2.100000000002678e-03, 3.887834768884010e-05, 3.021096875257311e-06, 9.975902723253171e+00, 3.813751751398618e+03, 3.716533165978605e+02, 3.875721282280080e+03
925, -5.000000000026199e-05, 2.100000000001603e-03, 3.880755251969956e-05, 1.300929490033122e-06, 9.342748047788405e+00, 1.919906231458057e+03, 3.409140112880999e+02, 2.028581345795862e+03
926, -3.718339113174818e-16, 2.100000000000528e-03, 3.876363996596909e-05, -4.190412036888619e-07, 8.492074410282839e+00, 2.629776131111078e+01, 2.871378106916040e+02, 5.745515919402540e+02
927, 4.999999999967128e-05, 2.099999999999452e-03, 3.874662240932599e-05, -2.139943472010143e-06, 7.282747201669508e+00, -1.866792013898993e+03, 2.102400681267135e+02, 1.920666487232545e+03
928, 9.999999999974523e-05, 2.099999999998377e-03, 3.875650586937973e-05, -3.862908003960198e-06, 5.571493901419672e+00, -3.759078187012554e+03, 1.101358741660709e+02, 3.771088286306618e+03
929, 1.499999999998539e-04, 2.099999999997302e-03, 3.879328996060121e-05, -5.589067921302294e-06, 3.212906221759795e+00, -5.650272563139426e+03, -1.325991155033680e+01, 5.653547669675684e+03
930, 1.999999999999309e-04, 2.099999999996226e-03, 3.885696784931422e-05, -7.319558788031750e-06, 5.937469931154737e-02, -7.540083703221849e+03, -1.600326002603736e+02, 7.546933110085632e+03
931, -2.000000000000435e-04, 2.000000000004496e-03, 3.568532320068625e-05, 6.256891067215209e-06, 1.029605430603181e+01, 7.787616916914907e+03, 3.616823377885146e+02, 7.810888314003979e+03
932, -1.500000000001103e-04, 2.000000000003499e-03, 3.556076362914271e-05, 4.599352383675196e-06, 9.437936123978488e+00, 5.847870340864513e+03, 3.787143843395145e+02, 5.887358599945053e+03
933, -1.000000000001936e-04, 2.000000000002501e-03, 3.546369274640736e-05, 2.944314289104200e-06, 8.741419029798749e+00, 3.907711896190740e+03, 3.726056974040432e+02, 3.969547934554315e+03
934, -5.000000000027220e-05, 2.000000000001505e-03, 3.539413894799273e-05, 1.290639831146219e-06, 8.070108694031092e+00, 1.967416380750253e+03, 3.432680851483023e+02, 2.076142992894791e+03
935, -3.846512138753339e-16, 2.000000000000507e-03, 3.535212436505758e-05, -3.628104497960625e-07, 7.285390204229429e+00, 2.726185262927919e+01, 2.906129927934086e+02, 5.815691750534811e+02
936, 4.999999999966107e-05, 1.999999999999510e-03, 3.533766482053352e-05, -2.017178531664656e-06, 6.246462298519191e+00, -1.912470315548602e+03, 2.145515417944851e+02, 1.966113814085442e+03
937, 9.999999999973761e-05, 1.999999999998513e-03, 3.535076978511101e-05, -3.673608921802906e-06, 4.810331102043051e+00, -3.851495410196374e+03, 1.149945602190429e+02, 3.863157900719438e+03
938, 1.499999999998495e-04, 1.999999999997515e-03, 3.539144233304529e-05, -5.333248667481604e-06, 2.831795488413832e+00, -5.789525358927403e+03, -8.147376872406852e+00, 5.792380074141518e+03
939, 1.999999999999290e-04, 1.999999999996517e-03, 3.545967909779110e-05, -6.997247365238493e-06, 1.634388054503688e-01, -7.726268702024997e+03, -1.549639335815643e+02, 7.732645660425806e+03
940, -2.000000000000454e-04, 1.900000000004165e-03, 3.240458679401419e-05, 6.036257089265119e-06, 9.408926052813058e+00, 7.976467118848981e+03, 3.583241329168949e+02, 7.999225023983457e+03
941, -1.500000000001146e-04, 1.900000000003247e-03, 3.227990088008426e-05, 4.446730544688195e-06, 8.291987831951928e+00, 5.989912810326875e+03, 3.774756169050536e+02, 6.029074475368193e+03
942, -1.000000000002012e-04, 1.900000000002328e-03, 3.218336091507399e-05, 2.859761574439919e-06, 7.445235242059198e+00, 4.002846531967295e+03, 3.732146785918135e+02, 4.064528054662590e+03
943, -5.000000000028235e-05, 1.900000000001409e-03, 3.211499887315371e-05, 1.274199734863526e-06, 6.732645817012440e+00, 2.015542542956659e+03, 3.454488360866811e+02, 2.124301484314495e+03
944, -3.974685164331859e-16, 1.900000000000491e-03, 3.207484047676055e-05, -3.111080319214254e-07, 6.016014802494738e+00, 2.827849909830502e+01, 2.940852360745916e+02, 5.885916432597512e+02
945, 4.999999999965091e-05, 1.899999999999572e-03, 3.206290515183880e-05, -1.897317410560323e-06, 5.154908265937479e+00, -1.958664543538579e+03, 2.190306631887981e+02, 2.012084631657797e+03
946, 9.999999999973007e-05, 1.899999999998654e-03, 3.207920598275511e-05, -3.485586724298795e-06, 4.006638866387902e+00, -3.945002112886288e+03, 1.201915748979922e+02, 3.956318260722342e+03
947, 1.499999999998452e-04, 1.899999999997735e-03, 3.212374966694117e-05, -5.077076946365120e-06, 2.426239625995322e+00, -5.930446304204566e+03, -2.525867194234166e+00, 5.932874694560711e+03
948, 1.999999999999271e-04, 1.899999999996817e-03, 3.219653646913060e-05, -6.672951711189656e-06, 2.664864963237505e-01, -7.914705718935386e+03, -1.492157374872469e+02, 7.920596338534868e+03
949, -2.000000000000473e-04, 1.800000000003828e-03, 2.926158610330202e-05, 5.804620022849497e-06, 8.483497538876009e+00, 8.167592263408241e+03, 3.542527883588670e+02, 8.189812940814121e+03
950, -1.500000000001189e-04, 1.800000000002982e-03, 2.913670302829650e-05, 4.284739670980485e-06, 7.093382855439700e+00, 6.133682613574674e+03, 3.757004785620770e+02, 6.172495362520089e+03
951, -1.000000000002088e-04, 1.800000000002135e-03, 2.904063065662789e-05, 2.767476377073758e-06, 6.087220078880932e+00, 4.099155807265226e+03, 3.734645421475666e+02, 4.160662629483143e+03
952, -5.000000000029254e-05, 1.800000000001289e-03, 2.897340470471439e-05, 1.251666217657179e-06, 5.329509237325055e+00, 2.064285590678781e+03, 3.474481741254656e+02, 2.173058002014036e+03
953, -4.102858189910380e-16, 1.800000000000442e-03, 2.893505465105567e-05, -2.638574551050493e-07, 4.682532300253115e+00, 2.934920462980574e+01, 2.975541182711939e+02, 5.956192222589899e+02
954, 4.999999999964072e-05, 1.799999999999596e-03, 2.892560369042360e-05, -1.780264026592472e-06, 4.006286539594726e+00, -2.005372636753840e+03, 2.236847212881329e+02, 2.058577925541533e+03
955, 9.999999999972246e-05, 1.799999999998750e-03, 2.894506868780563e-05, -3.298725632648564e-06, 3.158466828951532e+00, -4.039595722579542e+03, 1.257419629511448e+02, 4.050568552804304e+03
956, 1.499999999998409e-04, 1.799999999997903e-03, 2.899346013204926e-05, -4.820417172125351e-06, 1.994455732279334e+00, -6.073032312196789e+03, 3.627489156349327e+00, 6.075031099983359e+03
957, 1.999999999999252e-04, 1.799999999997057e-03, 2.907078208927963e-05, -6.346516318823500e-06, 3.672194114312788e-01, -8.105391178534400e+03, -1.427573686969626e+02, 8.110785280793623e+03
958, -2.000000000000492e-04, 1.700000000003484e-03, 2.625965180685267e-05, 5.561991411119594e-06, 7.522020753962465e+00, 8.360990679756032e+03, 3.494367815717129e+02, 8.382652497520734e+03
959, -1.500000000001233e-04, 1.700000000002704e-03, 2.613449445942960e-05, 4.113410444280423e-06, 5.843176118573979e+00, 6.279178984181359e+03, 3.733650546043430e+02, 6.317622022305669e+03
960, -1.000000000002164e-04, 1.700000000001925e-03, 2.603882004780264e-05, 2.667508626781329e-06, 4.667349569748694e+00, 4.196639711059441e+03, 3.733391470294530e+02, 4.257952648199858e+03
961, -5.000000000030273e-05, 1.700000000001145e-03, 2.597266819838084e-05, 1.223108566727794e-06, 3.859737278125522e+00, 2.113646166168219e+03, 3.492577626982304e+02, 2.222413713679050e+03
962, -4.231031215488901e-16, 1.700000000000365e-03, 2.593607231425668e-05, -2.209699644052539e-07, 3.283139505220788e+00, 3.047512772874347e+01, 3.010191440926792e+02, 6.026520593714957e+02
963, 4.999999999963053e-05, 1.699999999999585e-03, 2.592905952837056e-05, -1.665910046091561e-06, 2.798019119247556e+00, -2.052593078318232e+03, 2.285210997937734e+02, 2.105592585385185e+03
964, 9.999999999971485e-05, 1.699999999998805e-03, 2.595165065652745e-05, -3.112897622529955e-06, 2.262481705904861e+00, -4.135274562886439e+03, 1.316610342475938e+02, 4.145907778416029e+03
965, 1.499999999998365e-04, 1.699999999998025e-03, 2.600386015021581e-05, -4.563121516239584e-06, 1.532246974183863e+00, -6.217281859304938e+03, 1.033597404684647e+01, 6.218848463975801e+03
966, 1.999999999999232e-04, 1.699999999997246e-03, 2.608569604902871e-05, -6.017773441452517e-06, 4.607085199316998e-01, -8.298323823987321e+03, -1.355574118634482e+02, 8.303211906523045e+03
967, -2.000000000000511e-04, 1.600000000003144e-03, 2.340215475422290e-05, 5.308395659375170e-06, 6.526593065169891e+00, 8.556660063259904e+03, 3.438437371983746e+02, 8.577744250126978e+03
968, -1.500000000001277e-04, 1.600000000002436e-03, 2.327663945269532e-05, 3.932786391396118e-06, 4.542208843396111e+00, 6.426400584706345e+03, 3.704449329059543e+02, 6.464455336136519e+03
969, -1.000000000002240e-04, 1.600000000001727e-03, 2.318128678307502e-05, 2.559921082927601e-06, 3.185640651728363e+00, 4.295297982032447e+03, 3.728220182501884e+02, 4.356399130038620e+03
970, -5.000000000031292e-05, 1.600000000001018e-03, 2.311614045348704e-05, 1.188608886359324e-06, 2.322611487011613e+00, 2.163624917570283e+03, 3.508691032390878e+02, 2.272369725355466e+03
971, -4.359339766338982e-16, 1.600000000000309e-03, 2.308123796408443e-05, -1.823439982376276e-07, 1.816508855739812e+00, 3.165770889431292e+01, 3.044798200774692e+02, 6.096903644944491e+02
972, 4.999999999962034e-05, 1.599999999999600e-03, 2.307661055914146e-05, -1.554134337415176e-06, 1.528343870238359e+00, -2.100323694029467e+03, 2.335473438978951e+02, 2.153127826347101e+03
973, 9.999999999970728e-05, 1.599999999998891e-03, 2.310228317937440e-05, -2.927961878734121e-06, 1.316722396423756e+00, -4.232035722792517e+03, 1.379644148675852e+02, 4.242335399784675e+03
974, 1.499999999998322e-04, 1.599999999998182e-03, 2.315827441425938e-05, -4.305029365225107e-06, 1.037815476504761e+00, -6.363191193075983e+03, 1.762335381302242e+01, 6.364326610388523e+03
975, 1.999999999999214e-04, 1.599999999997473e-03, 2.324459645427110e-05, -5.686542550071518e-06, 5.453127794011152e-01, -8.493499301958067e+03, -1.275839077244571e+02, 8.497876471871754e+03
976, -2.000000000000531e-04, 1.500000000002802e-03, 2.069250594048521e-05, 5.043870601148267e-06, 5.500036933782667e+00, 8.754598066144192e+03, 3.374405766474353e+02, 8.775088654583842e+03
977, -1.500000000001320e-04, 1.500000000002160e-03, 2.056654215773421e-05, 3.742924445853309e-06, 3.192213666199905e+00, 6.575346358109582e+03, 3.669151744902216e+02, 6.612996074353068e+03
978, -1.000000000002316e-04, 1.500000000001518e-03, 2.047142814942485e-05, 2.444789896009040e-06, 1.642629662522722e+00, 4.395130485590051e+03, 3.718963728492645e+02, 4.456003050799721e+03
979, -5.000000000032311e-05, 1.500000000000877e-03, 2.040721188227272e-05, 1.148262659762908e-06, 7.176152327823502e-01, 2.214222469048917e+03, 3.522735915566828e+02, 2.322927134264131e+03
980, -4.487512791917503e-16, 1.500000000000236e-03, 2.037393513051574e-05, -1.478646254959888e-07, 2.811828349947518e-01, 3.289817623414251e+01, 3.079357391258920e+02, 6.167345830926281e+02
981, 4.999999999961016e-05, 1.499999999999595e-03, 2.037163342670500e-05, -1.444802407309561e-06, 1.949706761200787e-01, -2.148562746482221e+03, 2.387712655141420e+02, 2.201182999204842e+03
982, 9.999999999969963e-05, 1.499999999998952e-03, 2.040033601321758e-05, -2.743764231775687e-06, 3.181751673242843e-01, -4.329876994951173e+03, 1.446681836066119e+02, 4.339850889686156e+03
983, 1.499999999998278e-04, 1.499999999998311e-03, 2.046006579501166e-05, -4.045966757847043e-06, 5.074779741331668e-01, -6.510757713303885e+03, 2.551406398170499e+01, 6.511465139351682e+03
984, 1.999999999999195e-04, 1.499999999997670e-03, 2.055083929256501e-05, -5.352629772897189e-06, 6.169724437293098e-01, -8.690914520635035e+03, -1.188040018910426e+02, 8.694778735461947e+03
985, -2.000000000000549e-04, 1.400000000002461e-03, 1.813415652804455e-05, 4.768468073142290e-06, 4.445439046572687e+00, 8.954802036854366e+03, 3.301933980641137e+02, 8.974686286908418e+03
986, -1.500000000001364e-04, 1.400000000001890e-03, 1.800764660221775e-05, 3.543895522263726e-06, 1.794989105004902e+00, 6.726014960098453e+03, 3.627501797720320e+02, 6.763245152292329e+03
987, -1.000000000002392e-04, 1.400000000001320e-03, 1.791268102221638e-05, 2.322205179279548e-06, 3.891748271951201e-02, 4.496136961149936e+03, 3.705450127041772e+02, 4.556765524363518e+03
988, -5.000000000033329e-05, 1.400000000000748e-03, 1.784931219562343e-05, 1.102179320527566e-06, -9.557150637662062e-01, 2.265439418024515e+03, 3.534624494001759e+02, 2.374087132316364e+03
989, -4.615719698813914e-16, 1.400000000000178e-03, 1.781758635353682e-05, -1.174029732109887e-07, -1.324224371185437e+00, 3.419782192593493e+01, 3.113865212998408e+02, 6.237852822582458e+02
990, 4.999999999959998e-05, 1.399999999999606e-03, 1.781754349760257e-05, -1.337765828663402e-06, -1.204302474339784e+00, -2.197308333573198e+03, 2.442008519843418e+02, 2.249757573572799e+03
991, 9.999999999969204e-05, 1.399999999999035e-03, 1.784921735083023e-05, -2.560136589027030e-06, -7.360944488193581e-01, -4.428795862322797e+03, 1.517887017955254e+02, 4.438453846536565e+03
992, 1.499999999998235e-04, 1.399999999998463e-03, 1.791263531164083e-05, -3.785745824312858e-06, -6.230289866368821e-02, -6.659978192140423e+03, 3.403290477220051e+01, 6.660263703953755e+03
993, 1.999999999999176e-04, 1.399999999997893e-03, 1.800781841080892e-05, -5.015827347335942e-06, 6.717672840812838e-01, -8.890565435530119e+03, -1.091842411027413e+02, 8.893918359796653e+03
994, -2.000000000000568e-04, 1.300000000002126e-03, 1.573059785890815e-05, 4.482254497437405e-06, 3.365880681446015e+00, 9.157268743937533e+03, 3.220675250225091e+02, 9.176537887058739e+03
995, -1.500000000001407e-04, 1.300000000001629e-03, 1.560343669616101e-05, 3.335785095490047e-06, 3.518409145245869e-01, 6.878404137108202e+03, 3.579237578068934e+02, 6.915203616292550e+03
996, -1.000000000002468e-04, 1.300000000001133e-03, 1.550852186138679e-05, 2.192271587491444e-06, -1.625558789754564e+00, 4.598316216908565e+03, 3.687503040948909e+02, 4.658687743012501e+03
997, -5.000000000034346e-05, 1.300000000000637e-03, 1.544591039123012e-05, 1.050482831975834e-06, -2.698334805877380e+00, 2.317275860154960e+03, 3.544266432228456e+02, 2.425851035613902e+03
998, -4.743892724392434e-16, 1.300000000000140e-03, 1.541565316067488e-05, -9.081564521308437e-08, -3.001148945996988e+00, 3.555820358948586e+01, 3.148317465935191e+02, 6.308430377839315e+02
999, 4.999999999958981e-05, 1.299999999999644e-03, 1.541779482619795e-05, -1.232861656808348e-06, -2.671318987362952e+00, -2.246557618525821e+03, 2.498443040570078e+02, 2.298850675954252e+03
1000, 9.999999999968445e-05, 1.299999999999148e-03, 1.545237377293671e-05, -2.376896349781289e-06, -1.848580837618556e+00, -4.528788685183389e+03, 1.593427838195057e+02, 4.538143585140900e+03
1001, 1.499999999998191e-04, 1.299999999998652e-03, 1.551942207310763e-05, -3.524164203145637e-06, -6.748895208723980e-01, -6.810848530866087e+03, 4.320534578008827e+01, 6.810721829064013e+03
1002, 1.999999999999157e-04, 1.299999999998155e-03, 1.561896544790851e-05, -4.675913039842662e-06, 7.054102148032371e-01, -9.092447514488964e+03, -9.869042402866117e+01, 9.095294899629616e+03
1003, -2.000000000000587e-04, 1.200000000001781e-03, 1.348536142756313e-05, 4.185311485855760e-06, 2.265610823396059e+00, 9.361995000368619e+03, 3.130278104997086e+02, 9.380643895069334e+03
1004, -1.500000000001450e-04, 1.200000000001350e-03, 1.335743621433983e-05, 3.118693811720031e-06, -1.136613294808058e+00, 7.032508998981539e+03, 3.524092548252315e+02, 7.068871177963296e+03
1005, -1.000000000002543e-04, 1.200000000000919e-03, 1.326246671207888e-05, 2.055108928663463e-06, -3.352815226876942e+00, 4.701663067911941e+03, 3.664938032587715e+02, 4.761769134670104e+03
1006, -5.000000000035367e-05, 1.200000000000488e-03, 1.320051476481057e-05, 9.933122866573098e-07, -4.512833890213983e+00, 2.369729437428334e+03, 3.551560021422263e+02, 2.478219019043001e+03
1007, -4.872353741173022e-16, 1.200000000000057e-03, 1.317163607116953e-05, -6.794414430378043e-08, -4.751324864656794e+00, 3.698183533183999e+01, 3.182700074086545e+02, 6.379066131681083e+02
1008, 4.999999999957962e-05, 1.199999999999626e-03, 1.317588012590222e-05, -1.129911868557235e-06, -4.206909273163433e+00, -2.296303733329012e+03, 2.557095265141120e+02, 2.348458494129115e+03
1009, 9.999999999967686e-05, 1.199999999999196e-03, 1.321329017507408e-05, -2.193845845021975e-06, -3.020556115696422e+00, -4.629847156337617e+03, 1.673479194014067e+02, 4.638916435228496e+03
1010, 1.499999999998148e-04, 1.199999999998765e-03, 1.328390316286877e-05, -3.261004467868111e-06, -1.333987861158676e+00, -6.963362504547007e+03, 5.305820707201849e+01, 6.962837191870693e+03
1011, 1.999999999999137e-04, 1.199999999998334e-03, 1.338774969430944e-05, -4.332649564397398e-06, 7.111101548429133e-01, -9.296557593443860e+03, -8.728685447240258e+01, 9.298907534047787e+03
1012, -2.000000000000607e-04, 1.100000000001707e-03, 1.140201882535684e-05, 3.877736469935186e-06, 1.152531020097513e+00, 9.568979806490499e+03, 3.030400131311699e+02, 9.587004316858813e+03
1013, -1.500000000001494e-04, 1.100000000001301e-03, 1.127320877827270e-05, 2.892738201566855e-06, -2.671966907366595e+00, 7.188315502422383e+03, 3.461803555522926e+02, 7.224241423038043e+03
1014, -1.000000000002619e-04, 1.100000000000895e-03, 1.117807126675327e-05, 1.910852908657438e-06, -5.149651552650994e+00, 4.806158873293061e+03, 3.637549680875820e+02, 4.866000455043814e+03
1015, -5.000000000036384e-05, 1.100000000000489e-03, 1.111667305009909e-05, 9.308225842772030e-07, -6.406012092276228e+00, 2.422789022493957e+03, 3.556359464000074e+02, 2.531184746624736e+03
1016, -5.000628410705213e-16, 1.100000000000083e-03, 1.108907473741822e-05, -4.861432423992011e-08, -6.577294562744783e+00, 3.847387724946850e+01, 3.216950567873913e+02, 6.449654613445786e+02
1017, 4.999999999956943e-05, 1.099999999999677e-03, 1.109533083389612e-05, -1.028722927934641e-06, -5.809164920536546e+00, -2.346526524261379e+03, 2.618018273156695e+02, 2.398565934774956e+03
1018, 9.999999999966927e-05, 1.099999999999272e-03, 1.113548969560813e-05, -2.010771926673173e-06, -4.249734573059641e+00, -4.731947157528259e+03, 1.758225742772988e+02, 4.740757031690110e+03
1019, 1.499999999998105e-04, 1.099999999998866e-03, 1.120959345599092e-05, -2.996033633308056e-06, -2.042291471375165e+00, -7.117505337620743e+03, 6.362208237892790e+01, 7.116600694052054e+03
1020, 1.999999999999118e-04, 1.099999999998460e-03, 1.131767787070327e-05, -3.985783967874349e-06, 6.764530318370134e-01, -9.502898256057384e+03, -7.493409363337241e+01, 9.504756321168623e+03
1021, -2.000000000000626e-04, 1.000000000002109e-03, 9.484181656065972e-06, 3.559643316819724e-06, 4.195075988809549e-02, 9.778229385432471e+03, 2.920748967432326e+02, 9.795620474927509e+03
1022, -1.500000000001537e-04, 1.000000000001674e-03, 9.354357853689373e-06, 2.658051678677533e-06, -4.255883283605499e+00, 7.345791234730200e+03, 3.392135773378201e+02, 7.381290946794085e+03
1023, -1.000000000002696e-04, 1.000000000001239e-03, 9.258931104883096e-06, 1.759656266859376e-06, -7.028010444054416e+00, 4.911755300815724e+03, 3.605084149452171e+02, 4.971347355809385e+03
1024, -5.000000000037402e-05, 1.000000000000804e-03, 9.197972852894584e-06, 8.631853574729865e-07, -8.389190482055710e+00, 2.476425083152516e+03, 3.558392093173936e+02, 2.584722063589936e+03
1025, -5.128852258260569e-16, 1.000000000000369e-03, 9.171548437017886e-06, -3.263592161944440e-08, -8.483953853946559e+00, 4.004485970796759e+01, 3.250861551066471e+02, 6.519808883041120e+02
1026, 4.999999999955924e-05, 9.999999999999337e-04, 9.179717403749936e-06, -9.290857358469340e-07, -7.476012841998454e+00, -2.397178327411028e+03, 2.681174787371134e+02, 2.449127412339742e+03
1027, 9.999999999966167e-05, 9.999999999994987e-04, 9.222533704824336e-06, -1.827446021024640e-06, -5.532155554688302e+00, -4.835030323220936e+03, 1.847865564327911e+02, 4.843618155598643e+03
1028, 1.499999999998061e-04, 9.999999999990637e-04, 9.300045312178540e-06, -2.729002929744824e-06, -2.805446186135214e+00, -7.273245948244638e+03, 7.493712431954438e+01, 7.271985106171343e+03
1029, 1.999999999999099e-04, 9.999999999986283e-04, 9.412293748892419e-06, -3.635046900315637e-06, 5.776892845431121e-01, -9.711488422651064e+03, -6.158275184582880e+01, 9.712847054489617e+03
1030, -2.000000000000644e-04, 9.000000000025380e-04, 7.735501804504409e-06, 3.231162825407581e-06, -1.042852568668650e+00, 9.989766330311328e+03, 2.801133757868509e+02, 1.000650399199931e+04
1031, -1.500000000001581e-04, 9.000000000020734e-04, 7.604527119961112e-06, 2.414786024132413e-06, -5.877251202842785e+00, 7.504890136692547e+03, 3.314910740800617e+02, 7.539971623544211e+03
1032, -1.000000000002772e-04, 9.000000000016087e-04, 7.508682272734487e-06, 1.601690656565703e-06, -8.973063331860317e+00, 5.018395097144485e+03, 3.567192522355571e+02, 5.077738189453380e+03
1033, -5.000000000038420e-05, 9.000000000011442e-04, 7.448042526926718e-06, 7.905903485500046e-07, -1.045658328092463e+01, 2.530606367970647e+03, 3.557161295934736e+02, 2.638775621691846e+03
1034, -5.256991402521199e-16, 9.000000000006796e-04, 7.422676903330216e-06, -1.980222944508335e-08, -1.048066759721507e+01, 4.171429314801253e+01, 3.283958869901116e+02, 6.588624653865816e+02
1035, 4.999999999954906e-05, 9.000000000002148e-04, 7.432649977475254e-06, -8.307762830153258e-07, -9.230839109444673e+00, -2.448194665311553e+03, 2.746362100226583e+02, 2.500048946909813e+03
1036, 9.999999999965402e-05, 8.999999999997502e-04, 7.478022026545202e-06, -1.643625078211122e-06, -6.897951842111070e+00, -4.939022518223986e+03, 1.942602969065904e+02, 4.947403459404190e+03
1037, 1.499999999998018e-04, 8.999999999992857e-04, 7.558848524331018e-06, -2.459648066842149e-06, -3.647820685240958e+00, -7.430544546983572e+03, 8.706047302979306e+01, 7.428937547654950e+03
1038, 1.999999999999080e-04, 8.999999999988212e-04, 7.675178046636311e-06, -3.280151590890409e-06, 3.767751893174136e-01, -9.922381907968815e+03, -4.716505546697263e+01, 9.923207044802548e+03
1039, -2.000000000000664e-04, 8.000000000027327e-04, 6.159674190388143e-06, 2.892442708550047e-06, -2.152206288354705e+00, 1.020356966656767e+04, 2.671281873408092e+02, 1.021969612170440e+04
1040, -1.500000000001624e-04, 8.000000000022627e-04, 6.027402518985890e-06, 2.163112778630264e-06, -7.433620183435096e+00, 7.665704610863799e+03, 3.229793499734953e+02, 7.700280056906752e+03
1041, -1.000000000002848e-04, 8.000000000017928e-04, 5.931002486234826e-06, 1.437148179690682e-06, -1.079842394239665e+01, 5.126268039615131e+03, 3.523445242854745e+02, 5.185174877107163e+03
1042, -5.000000000039436e-05, 8.000000000013229e-04, 5.870550955789109e-06, 7.132464688851994e-07, -1.245793986813214e+01, 2.585512435084583e+03, 3.552198324073480e+02, 2.693357493255206e+03
1043, -5.385198309417610e-16, 8.000000000008525e-04, 5.846119833825760e-06, -9.889924127002429e-09, -1.257974215848253e+01, 4.351373815250724e+01, 3.315910205230387e+02, 6.655500718198747e+02
1044, 4.999999999953886e-05, 8.000000000003829e-04, 5.857778018037547e-06, -7.335562517325268e-07, -1.124982552656013e+01, -2.499703400435118e+03, 2.813460011478607e+02, 2.551278793844912e+03
1045, 9.999999999964645e-05, 7.999999999999128e-04, 5.905593890027970e-06, -1.459052352503937e-06, -8.559149104945959e+00, -5.044090645285212e+03, 2.042667466614641e+02, 5.052076510128296e+03
1046, 1.499999999997974e-04, 7.999999999994429e-04, 5.989632096978679e-06, -2.187689394126626e-06, -4.694943528062709e+00, -7.589509754838327e+03, 1.000474743753558e+02, 7.587453704002885e+03
1047, 1.999999999999061e-04, 7.999999999989728e-04, 6.109951032129515e-06, -2.920792041902354e-06, 1.030153912452079e-01, -1.013561764791219e+04, -3.160924688990315e+01, 1.013591781450856e+04
1048, -2.000000000000683e-04, 7.000000000024487e-04, 4.760448541387977e-06, 2.543647591976241e-06, -3.677806695963341e+00, 1.041932603059784e+04, 2.529313622544157e+02, 1.043527220959227e+04
1049, -1.500000000001667e-04, 7.000000000020254e-04, 4.626721232952915e-06, 1.903218636558263e-06, -8.644023156359367e+00, 7.828996987269726e+03, 3.134952188728548e+02, 7.862679798728763e+03
1050, -1.000000000002923e-04, 7.000000000016023e-04, 4.529610928429931e-06, 1.266233748943199e-06, -1.166927786664303e+01, 5.236990909202107e+03, 3.473558135507049e+02, 5.294436514318635e+03
1051, -5.000000000040459e-05, 7.000000000011791e-04, 4.469199544007523e-06, 6.313756801333122e-07, -1.369294068903071e+01, 2.642464677643707e+03, 3.545485090094500e+02, 2.749180218608874e+03
1052, -5.513337453678241e-16, 7.000000000007558e-04, 4.445564084372903e-06, -2.658843404308306e-09, -1.478185255922881e+01, 4.548291965441035e+01, 3.349692757669222e+02, 6.726436691155484e+02
1053, 4.999999999952868e-05, 7.000000000003326e-04, 4.458782617002702e-06, -6.371663719656150e-07, -1.424502587219899e+01, -2.552965846551659e+03, 2.884742043763820e+02, 2.603454027194207e+03
1054, 9.999999999963887e-05, 6.999999999999092e-04, 4.508928300232795e-06, -1.273448914698279e-06, -1.138626403323406e+01, -5.151839844279815e+03, 2.148381576859284e+02, 5.158380050622620e+03
1055, 1.499999999997930e-04, 6.999999999994860e-04, 4.596073970359390e-06, -1.912825956737567e-06, -6.266996272127471e+00, -7.750941375924076e+03, 1.138065872554750e+02, 7.748018392082472e+03
1056, 1.999999999999042e-04, 6.999999999990628e-04, 4.720285158019860e-06, -2.556640870869319e-06, 1.250462725961370e-01, -1.035097261095727e+04, -1.499225967740733e+01, 1.035114108593398e+04
1057, -2.000000000000702e-04, 6.000000000020976e-04, 3.541664484918978e-06, 2.184961293010098e-06, -7.498081852790392e+00, 1.063510948749340e+04, 2.365770476610193e+02, 1.065312023179242e+04
1058, -1.500000000001711e-04, 6.000000000017323e-04, 3.406292924785689e-06, 1.635275144372058e-06, -8.656799730277271e+00, 7.998146767249421e+03, 3.021431188376255e+02, 8.029574410717079e+03
1059, -1.000000000003000e-04, 6.000000000013669e-04, 3.308261802691371e-06, 1.089111810030680e-06, -9.284801783931698e+00, 5.356927064015295e+03, 3.418862175033923e+02, 5.409600219195456e+03
1060, -5.000000000041474e-05, 6.000000000010013e-04, 3.247677425404486e-06, 5.451722187230769e-07, -1.224647801577532e+01, 2.706433696397577e+03, 3.550362721466136e+02, 2.809879874462122e+03
1061, -5.641662945187267e-16, 6.000000000006360e-04, 3.224668780627155e-06, 2.148887126621555e-09, -1.702954611282928e+01, 4.764352390640408e+01, 3.404468192148427e+02, 6.839581513804245e+02
1062, 4.999999999951849e-05, 6.000000000002706e-04, 3.239333498841136e-06, -5.412837638704804e-07, -2.006500258420226e+01, -2.612942178346821e+03, 2.973450333586264e+02, 2.660200805210559e+03
1063, 9.999999999963128e-05, 5.999999999999052e-04, 3.291740764527036e-06, -1.086458473402560e-06, -1.769139134634418e+01, -5.268675051454326e+03, 2.261094846422812e+02, 5.270420419179271e+03
1064, 1.499999999997888e-04, 5.999999999995398e-04, 3.381926067192456e-06, -1.634703097507307e-06, -9.283328312115259e+00, -7.918306495382649e+03, 1.274875715533221e+02, 7.913132109402742e+03
1065, 1.999999999999023e-04, 5.999999999991742e-04, 3.509943971338927e-06, -2.187348993053909e-06, 2.299216733513731e+00, -1.056662673668480e+04, 1.844290737285036e+00, 1.056892659708036e+04
1066, -2.000000000000721e-04, 5.000000000017480e-04, 2.507308956569096e-06, 1.816614787038592e-06, -1.672714111394441e+01, 1.084712643612700e+04, 2.147551129617129e+02, 1.087234075909616e+04
1067, -1.500000000001754e-04, 5.000000000014432e-04, 2.370041332442744e-06, 1.359322224930933e-06, -6.031523049903171e+00, 8.183122744792756e+03, 2.862263713880129e+02, 8.209138186511262e+03
1068, -1.000000000003076e-04, 5.000000000011384e-04, 2.270688842092438e-06, 9.057148014857468e-07, -1.508308527817690e+00, 5.500969316931283e+03, 3.366650481309315e+02, 5.543521754012519e+03
1069, -5.000000000042491e-05, 5.000000000008338e-04, 2.209538989207511e-06, 4.546590587212736e-07, -6.483795878804244e+00, 2.788267603251975e+03, 3.615882275160884e+02, 2.886800922830730e+03
1070, -5.769852911424733e-16, 5.000000000005289e-04, 2.186894616460751e-06, 4.811831275740070e-09, -1.919182167791473e+01, 4.985024817561873e+01, 3.545215407809328e+02, 7.123965882290612e+02
1071, 4.999999999950832e-05, 5.000000000002242e-04, 2.202971669104332e-06, -4.453726891734871e-07, -3.004458134544757e+01, -2.690657092285317e+03, 3.127645822931270e+02, 2.733156722384893e+03
1072, 9.999999999962365e-05, 4.999999999999196e-04, 2.257736777942959e-06, -8.974502328113217e-07, -2.944048167513211e+01, -5.409608971503470e+03, 2.386628664588908e+02, 5.401301031626292e+03
1073, 1.499999999997844e-04, 4.999999999996149e-04, 2.351066743789897e-06, -1.352791456743203e-06, -1.519474078021881e+01, -8.101717895825629e+03, 1.382766140771991e+02, 8.091250733050372e+03
1074, 1.999999999999003e-04, 4.999999999993100e-04, 2.482850005964572e-06, -1.812569469528510e-06, 9.720565277281366e+00, -1.077888804668708e+04, 1.560353538470727e+01, 1.078865374657179e+04
1075, -2.000000000000740e-04, 4.000000000013997e-04, 1.661503912830834e-06, 1.438923941940475e-06, -3.613382145065827e+01, 1.104824738019014e+04, 1.792812793691438e+02, 1.109017915688547e+04
1076, -1.500000000001797e-04, 4.000000000011572e-04, 1.521864882951781e-06, 1.074965833089533e-06, 4.940750684101090e+00, 8.410390491938990e+03, 2.604459997741185e+02, 8.421574308165620e+03
1077, -1.000000000003152e-04, 4.000000000009148e-04, 1.420437918906224e-06, 7.153347091282584e-07, 5.543273266367009e+00, 5.687159357061199e+03, 3.358910070051066e+02, 5.721193266966582e+03
1078, -5.000000000043512e-05, 4.000000000006724e-04, 1.357935318611978e-06, 3.594050535432023e-07, -2.010923387457717e+01, 2.875910054579599e+03, 3.847766197302232e+02, 2.996521301019350e+03
1079, -5.898025937003254e-16, 4.000000000004300e-04, 1.335287155888679e-06, 5.637505932255427e-09, -2.115807175731914e+01, 5.143761069590778e+01, 3.903432156873112e+02, 7.840544861444852e+02
1080, 4.999999999949812e-05, 4.000000000001875e-04, 1.352851860756277e-06, -3.483869054600636e-07, -2.010921330426959e+01, -2.775034768345754e+03, 3.451489900723357e+02, 2.840092624407247e+03
1081, 9.999999999961606e-05, 3.999999999999452e-04, 1.410462297476185e-06, -7.050984795588872e-07, -3.963504422798906e+01, -5.592733810921757e+03, 2.563400582723859e+02, 5.576714697252874e+03
1082, 1.499999999997800e-04, 3.999999999997027e-04, 1.507383845961910e-06, -1.066072327178653e-06, -2.920752685130958e+01, -8.327610033812291e+03, 1.404229553420523e+02, 8.303153533030949e+03
1083, 1.999999999998984e-04, 3.999999999994603e-04, 1.643096299534888e-06, -1.431986730338519e-06, 2.716748040399682e+01, -1.098075728181786e+04, 1.778782756575529e+01, 1.100798224916697e+04
1084, -2.000000000000760e-04, 3.000000000010516e-04, 1.007600478558737e-06, 1.052402957890273e-06, -1.049123682232255e+01, 1.129622821770506e+04, 1.218771618182650e+02, 1.130934662098919e+04
1085, -1.500000000001842e-04, 3.000000000008717e-04, 8.649909352238895e-07, 7.807830770976749e-07, 4.990419514525001e+00, 8.681240223259620e+03, 2.336659898739435e+02, 8.688826723803502e+03
1086, -1.000000000003227e-04, 3.000000000006917e-04, 7.601190962306716e-07, 5.163445923491482e-07, -1.226541703325272e+02, 5.761236327248655e+03, 3.532493173624905e+02, 5.926154546448683e+03
1087, -5.000000000044532e-05, 3.000000000005118e-04, 6.957846064261688e-07, 2.589546508313953e-07, -9.367159699113733e+01, 2.902179084660408e+03, 4.314330134775060e+02, 3.117636779232814e+03
1088, -6.026207432911247e-16, 3.000000000003319e-04, 6.729450382576449e-07, 4.983292542188212e-09, -2.298540765216126e+01, 5.091863299622173e+01, 4.466571873007409e+02, 8.963662081391703e+02
1089, 4.999999999948792e-05, 3.000000000001520e-04, 6.919247057242697e-07, -2.491620120561134e-07, 5.019766888395509e+01, -2.801970528040170e+03, 4.011905087388399e+02, 2.962883514543549e+03
1090, 9.999999999960845e-05, 2.999999999999720e-04, 7.525889606456603e-07, -5.070809024729594e-07, 8.668676791597466e+01, -5.665893095317018e+03, 2.924479036351822e+02, 5.782238164260979e+03
1091, 1.499999999997756e-04, 2.999999999997920e-04, 8.541704709997371e-07, -7.724285958275619e-07, -2.919449340336132e+01, -8.595853291905212e+03, 1.418011835477004e+02, 8.571351892937968e+03
1092, 1.999999999998966e-04, 2.999999999996122e-04, 9.940826047158247e-07, -1.045406997059717e-06, 4.414622245927831e-01, -1.122937024880067e+04, -1.201171848070686e+00, 1.122981196798661e+04
1093, -2.000000000000778e-04, 2.000000000007014e-04, 5.437848163851010e-07, 6.565610788851114e-07, 1.411817351803121e+02, 1.163866557523873e+04, 9.799081825565595e+01, 1.149915403211271e+04
1094, -1.500000000001885e-04, 2.000000000005817e-04, 3.968170393758915e-07, 4.752453436378291e-07, -5.670227693766226e+02, 8.175051647094149e+03, 2.664823796502465e+02, 8.758305574582850e+03
1095, -1.000000000003304e-04, 2.000000000004620e-04, 2.917149155407308e-07, 3.111381380673593e-07, -4.076015021015126e+02, 5.416049949413653e+03, 3.858237654148801e+02, 5.874551569317470e+03
1096, -5.000000000045550e-05, 2.000000000003424e-04, 2.284403339786779e-07, 1.552742975410930e-07, -2.117210801206596e+02, 2.723096709291755e+03, 4.184977049234851e+02, 3.051838261303582e+03
1097, -6.154388928819240e-16, 2.000000000002227e-04, 2.064693614872660e-07, 3.305703156192578e-09, -2.453374318428996e+01, 4.550755437070268e+01, 4.198130281131244e+02, 8.425424011034880e+02
1098, 4.999999999947777e-05, 2.000000000001030e-04, 2.256291337488706e-07, -1.487620981129346e-07, 1.653135775799096e+02, -2.633354603604013e+03, 3.973140004224118e+02, 2.909291537144047e+03
1099, 9.999999999960084e-05, 1.999999999999833e-04, 2.862587267252881e-07, -3.049283616059113e-07, 3.693984362896517e+02, -5.329921492500307e+03, 3.430965472471705e+02, 5.740479824338214e+03
1100, 1.499999999997714e-04, 1.999999999998636e-04, 3.890556714677200e-07, -4.695451369912249e-07, 5.436920353429886e+02, -8.093071784441584e+03, 2.015985667656369e+02, 8.646170088960060e+03
1101, 1.999999999998946e-04, 1.999999999997439e-04, 5.342264114511933e-07, -6.515599491027018e-07, -1.458620703250485e+02, -1.156711211808644e+04, 1.034292205519094e+01, 1.142126878055306e+04
1102, -2.000000000000798e-04, 1.000000000003506e-04, 2.389537168300128e-07, 2.532738856999996e-07, -3.636273580281351e+03, 6.484331821592416e+03, 6.291307565668972e+02, 1.019852321347901e+04
1103, -1.500000000001928e-04, 1.000000000002906e-04, 1.109110619232408e-07, 1.820519599934194e-07, -1.679130302552106e+03, 5.473832112761240e+03, 5.084693308270772e+02, 7.224890003069409e+03
1104, -1.000000000003380e-04, 1.000000000002307e-04, 2.539077358291738e-08, 1.182323714813299e-07, -6.794763842934763e+02, 3.928625291273433e+03, 1.829757211944998e+02, 4.622609815953445e+03
1105, -5.000000000046567e-05, 1.000000000001708e-04, -2.418704461741293e-08, 5.887700703349101e-08, -2.384400110552854e+02, 2.043756845601877e+03, -2.040443420523201e+01, 2.282561687288380e+03
1106, -6.282434899455673e-16, 1.000000000001108e-04, -4.096442786678627e-08, 1.273169296102467e-09, -2.086736607671924e+01, 3.098928237627024e+01, -9.529176048327935e+01, 1.975125070793939e+02
1107, 4.999999999946757e-05, 1.000000000000509e-04, -2.590482271845956e-08, -5.637612840856669e-08, 1.973027726025329e+02, -1.983884363217759e+03, -3.561530421125008e+01, 2.182349908022123e+03
1108, 9.999999999959325e-05, 9.999999999999091e-05, 2.205163007801463e-08, -1.158735059292659e-07, 6.410976232233650e+02, -3.874493256309065e+03, 1.521064864643413e+02, 4.525826612257099e+03
1109, 1.499999999997670e-04, 9.999999999993101e-05, 1.061578674409072e-07, -1.799490967112631e-07, 1.649658600393038e+03, -5.426369775319103e+03, 4.612048306478429e+02, 7.135896380773409e+03
1110, 1.999999999998927e-04, 9.999999999987105e-05, 2.331461266383254e-07, -2.515200475395683e-07, 3.625586918464821e+03, -6.437155736732796e+03, 5.637303193754743e+02, 1.012570774003804e+04
