"PointID","x","y","Displacement_x","Displacement_y","Sxx","Syy","Sxy","Von_Mises_Stress"
0, -2.500000000000000e-04, 0.000000000000000e+00, 0.000000000000000e+00, 0.000000000000000e+00, 5.119443976157631e+04, 6.255992978161910e+04, 6.452010320939637e+03, 1.719558408783311e+04
1, 2.500000000000000e-04, 0.000000000000000e+00, 0.000000000000000e+00, 0.000000000000000e+00, -5.187340622798138e+04, -6.340945056164292e+04, 6.315179282982587e+03, 1.710573811248885e+04
2, 2.500000000000000e-04, 1.000000000000000e-02, 9.823583764892866e-04, -8.826696709505845e-05, 2.374030669392560e+01, 2.076235597248213e+01, 3.138340193544921e+00, 6.947294954226717e+00
3, -2.500000000000000e-04, 1.000000000000000e-02, 9.867088945337366e-04, -2.247949715382204e-05, 1.486206875232399e+01, 4.745303813747766e+01, 3.981972060490825e+00, 3.354989853078758e+01
4, -2.000000000000817e-04, 0.000000000000000e+00, 0.000000000000000e+00, 0.000000000000000e+00, 3.459856173785531e+04, 4.228193046186861e+04, 3.679103373826992e+03, 1.063848492457297e+04
5, -1.500000000001972e-04, 0.000000000000000e+00, 0.000000000000000e+00, 0.000000000000000e+00, 2.491827912143583e+04, 3.046006359992892e+04, 1.726056048186420e+03, 6.529046877760235e+03
6, -1.000000000003456e-04, 0.000000000000000e+00, 0.000000000000000e+00, 0.000000000000000e+00, 1.623451064532038e+04, 1.984525184725819e+04, 4.181972108105169e+02, 3.706346942191206e+03
7, -5.000000000047588e-05, 0.000000000000000e+00, 0.000000000000000e+00, 0.000000000000000e+00, 8.137070733118246e+03, 9.945118434265281e+03, -3.437968037789279e+02, 1.934378830213337e+03
8, -6.410887445906788e-16, 0.000000000000000e+00, 0.000000000000000e+00, 0.000000000000000e+00, 2.535692240844389e+02, 3.081852501099764e+02, -6.070347683271084e+02, 1.215297391641489e+03
9, 4.999999999945738e-05, 0.000000000000000e+00, 0.000000000000000e+00, 0.000000000000000e+00, -7.664030845179004e+03, -9.367497705127174e+03, -3.854107186912348e+02, 1.869749991648631e+03
10, 9.999999999958566e-05, 0.000000000000000e+00, 0.000000000000000e+00, 0.000000000000000e+00, -1.586545113875656e+04, -1.938812875383458e+04, 3.381486599052276e+02, 3.587009289722358e+03
11, 1.499999999997626e-04, 0.000000000000000e+00, 0.000000000000000e+00, 0.000000000000000e+00, -2.473041966473499e+04, -3.022131573342494e+04, 1.614432515121237e+03, 6.369890817013884e+03
12, 1.999999999998909e-04, 0.000000000000000e+00, 0.000000000000000e+00, 0.000000000000000e+00, -3.465990454741592e+04, -4.236612898866874e+04, 3.547946183925364e+03, 1.047557080235176e+04
13, 2.500000000000000e-04, 9.999999999981111e-05, 7.962712418842755e-07, -7.210191504043362e-07, 2.759135118644072e+03, -2.125270403432576e+04, 1.581223909575681e+03, 2.421919684293742e+04
14, 2.500000000000000e-04, 1.999999999996242e-04, 1.366792060835492e-06, -1.626971019392175e-06, -5.567926164540801e+03, -3.087540865053505e+04, -2.934995274346713e+02, 2.531428919936965e+04
15, 2.500000000000000e-04, 2.999999999994322e-04, 2.248157402170904e-06, -2.544201351703377e-06, -5.931988756871648e+03, -3.134988938492936e+04, -2.372643291878163e+02, 2.542232974739798e+04
16, 2.500000000000000e-04, 3.999999999992179e-04, 3.485203972460975e-06, -3.468146912517865e-06, -6.467175234718925e+03, -3.163902895412549e+04, -2.831295868102776e+02, 2.517822211997725e+04
17, 2.500000000000000e-04, 4.999999999990053e-04, 5.085157942607579e-06, -4.384184944187414e-06, -6.483795372933478e+03, -3.120634195106285e+04, -3.461410721609169e+02, 2.473223734066781e+04
18, 2.500000000000000e-04, 5.999999999988090e-04, 7.042070613458890e-06, -5.289235199226229e-06, -6.391003714288652e+03, -3.060310005330601e+04, -4.198729146560773e+02, 2.422665437462847e+04
19, 2.500000000000000e-04, 6.999999999986395e-04, 9.348412643825443e-06, -6.183238310879991e-06, -6.260597037568870e+03, -2.995130038539371e+04, -4.918093635587030e+02, 2.371111408000424e+04
20, 2.500000000000000e-04, 7.999999999985029e-04, 1.199660501098791e-05, -7.067226771206173e-06, -6.126040039174846e+03, -2.929886315519438e+04, -5.593652874469129e+02, 2.319981226789414e+04
21, 2.500000000000000e-04, 8.999999999983563e-04, 1.497929792053367e-05, -7.942379009701827e-06, -5.993222370606682e+03, -2.865414856651919e+04, -6.218958932194195e+02, 2.269503456848230e+04
22, 2.500000000000000e-04, 9.999999999981935e-04, 1.828929960250118e-05, -8.809817637646138e-06, -5.862992098539551e+03, -2.801784752639467e+04, -6.795439273056854e+02, 2.219650285125370e+04
23, 2.500000000000000e-04, 1.099999999998054e-03, 2.191952259013616e-05, -9.670576718150104e-06, -5.734909011763919e+03, -2.738920659741146e+04, -7.325314186799114e+02, 2.170380181086239e+04
24, 2.500000000000000e-04, 1.199999999997903e-03, 2.586295940766225e-05, -1.052561262638821e-05, -5.608658984752150e+03, -2.676780982338379e+04, -7.810673952439171e+02, 2.121673700915432e+04
25, 2.500000000000000e-04, 1.299999999997659e-03, 3.011267624900667e-05, -1.137581407662037e-05, -5.484086526456465e+03, -2.615352877889769e+04, -8.253370150667333e+02, 2.073524940242484e+04
26, 2.500000000000000e-04, 1.399999999997322e-03, 3.466181248529589e-05, -1.222200797630950e-05, -5.361121827884426e+03, -2.554636365060101e+04, -8.655134190240756e+02, 2.025932973608924e+04
27, 2.500000000000000e-04, 1.499999999997028e-03, 3.950358141375553e-05, -1.306496278337747e-05, -5.239722627761540e+03, -2.494634708558275e+04, -9.017633871304199e+02, 1.978898067983979e+04
28, 2.500000000000000e-04, 1.599999999996764e-03, 4.463127096288909e-05, -1.390539098760585e-05, -5.119855294552975e+03, -2.435351434182284e+04, -9.342493833275018e+02, 1.932420575308640e+04
29, 2.500000000000000e-04, 1.699999999996466e-03, 5.003824423651401e-05, -1.474395137221718e-05, -5.001489511396635e+03, -2.376789620209851e+04, -9.631302832931252e+02, 1.886500728468466e+04
30, 2.500000000000000e-04, 1.799999999996210e-03, 5.571793995461319e-05, -1.558125118429183e-05, -4.884595465641842e+03, -2.318951689652782e+04, -9.885614523781235e+02, 1.841138679109807e+04
31, 2.500000000000000e-04, 1.899999999995898e-03, 6.166387272557568e-05, -1.641784827924112e-05, -4.769150189668653e+03, -2.261840065702398e+04, -1.010694386684836e+03, 1.796334475590470e+04
32, 2.500000000000000e-04, 1.999999999995521e-03, 6.786963351525326e-05, -1.725425326209280e-05, -4.655127483545728e+03, -2.205456337815127e+04, -1.029677351437779e+03, 1.752088214796114e+04
33, 2.500000000000000e-04, 2.099999999995151e-03, 7.432888978027368e-05, -1.809093150905500e-05, -4.542507987344417e+03, -2.149802153543723e+04, -1.045654759033919e+03, 1.708399880531253e+04
34, 2.500000000000000e-04, 2.199999999994897e-03, 8.103538582923718e-05, -1.892830522220801e-05, -4.431272476790869e+03, -2.094878728514675e+04, -1.058767489271230e+03, 1.665269497197396e+04
35, 2.500000000000000e-04, 2.299999999994653e-03, 8.798294303671919e-05, -1.976675538532726e-05, -4.321402369158978e+03, -2.040686866056900e+04, -1.069153136060816e+03, 1.622697074396459e+04
36, 2.500000000000000e-04, 2.399999999994409e-03, 9.516545994295606e-05, -2.060662367647626e-05, -4.212887074404820e+03, -1.987227641956321e+04, -1.076945463992894e+03, 1.580682513324291e+04
37, 2.500000000000000e-04, 2.499999999994080e-03, 1.025769126364914e-04, -2.144821437024243e-05, -4.105714780458577e+03, -1.934501713329296e+04, -1.082274399215078e+03, 1.539225804428607e+04
38, 2.500000000000000e-04, 2.599999999993751e-03, 1.102113549497994e-04, -2.229179618911039e-05, -3.999871829795329e+03, -1.882509194715782e+04, -1.085267109640503e+03, 1.498326968072454e+04
39, 2.500000000000000e-04, 2.699999999993507e-03, 1.180629184567096e-04, -2.313760403847538e-05, -3.895350845141274e+03, -1.831250380772110e+04, -1.086047138815574e+03, 1.457985915903656e+04
40, 2.500000000000000e-04, 2.799999999993264e-03, 1.261258126994012e-04, -2.398584077571371e-05, -3.792146913662976e+03, -1.780725496629890e+04, -1.084734328934443e+03, 1.418202552474560e+04
41, 2.500000000000000e-04, 2.899999999993009e-03, 1.343943254440526e-04, -2.483667889977428e-05, -3.690251432831739e+03, -1.730934178098751e+04, -1.081445370230835e+03, 1.378976860815309e+04
42, 2.500000000000000e-04, 2.999999999992623e-03, 1.428628226068237e-04, -2.569026219140006e-05, -3.589666308533790e+03, -1.681876698784529e+04, -1.076293338124752e+03, 1.340308674082679e+04
43, 2.500000000000000e-04, 3.099999999992220e-03, 1.515257486830156e-04, -2.654670735038001e-05, -3.490383016567802e+03, -1.633552246971544e+04, -1.069388258924303e+03, 1.302198036260654e+04
44, 2.500000000000000e-04, 3.199999999991949e-03, 1.603776265536416e-04, -2.740610552784299e-05, -3.392401080794614e+03, -1.585960425023289e+04, -1.060837319320419e+03, 1.264644843979144e+04
45, 2.500000000000000e-04, 3.299999999991705e-03, 1.694130576572123e-04, -2.826852383922816e-05, -3.295720767754681e+03, -1.539100705176887e+04, -1.050744133981868e+03, 1.227648985796229e+04
46, 2.500000000000000e-04, 3.399999999991461e-03, 1.786267221168279e-04, -2.913400684576858e-05, -3.200343551191900e+03, -1.492972527022590e+04, -1.039208863952031e+03, 1.191210375049155e+04
47, 2.500000000000000e-04, 3.499999999991149e-03, 1.880133788873532e-04, -3.000257801222934e-05, -3.106266034706182e+03, -1.447574720826117e+04, -1.026329265179242e+03, 1.155328997290705e+04
48, 2.500000000000000e-04, 3.599999999990803e-03, 1.975678655827178e-04, -3.087424103495224e-05, -3.013492473577377e+03, -1.402906575840666e+04, -1.012199985247519e+03, 1.120004687641908e+04
49, 2.500000000000000e-04, 3.699999999990560e-03, 2.072850986117870e-04, -3.174898121980503e-05, -2.922033580770242e+03, -1.358967823711225e+04, -9.969117905000764e+02, 1.085237185992695e+04
50, 2.500000000000000e-04, 3.799999999990315e-03, 2.171600736190255e-04, -3.262676681384468e-05, -2.831884996757922e+03, -1.315756820340913e+04, -9.805528023459716e+02, 1.051026492895745e+04
51, 2.500000000000000e-04, 3.899999999990071e-03, 2.271878651154309e-04, -3.350755023316418e-05, -2.743050695430419e+03, -1.273272469559326e+04, -9.632088813555570e+02, 1.017372458964849e+04
52, 2.500000000000000e-04, 3.999999999989709e-03, 2.373636265546916e-04, -3.439126928861960e-05, -2.655536140909262e+03, -1.231513708176467e+04, -9.449626439395938e+02, 9.842749002709555e+03
53, 2.500000000000000e-04, 4.099999999989249e-03, 2.476825904303277e-04, -3.527784837737310e-05, -2.569345454106425e+03, -1.190479279281968e+04, -9.258939426624738e+02, 9.517336569971911e+03
54, 2.500000000000000e-04, 4.199999999988788e-03, 2.581400682255480e-04, -3.616719962553227e-05, -2.484484259380331e+03, -1.150168019698768e+04, -9.060799797102586e+02, 9.197485868199497e+03
55, 2.500000000000000e-04, 4.299999999988333e-03, 2.687314504369560e-04, -3.705922402869980e-05, -2.400960485176876e+03, -1.110578962855289e+04, -8.855950384848713e+02, 8.883195635812850e+03
56, 2.500000000000000e-04, 4.399999999988144e-03, 2.794522067309787e-04, -3.795381255258750e-05, -2.318774757086853e+03, -1.071710445520906e+04, -8.645114183589419e+02, 8.574465679460929e+03
57, 2.500000000000000e-04, 4.499999999988117e-03, 2.902978856627393e-04, -3.885084711048948e-05, -2.237939426081030e+03, -1.033561724186686e+04, -8.428982428559589e+02, 8.271293478018333e+03
58, 2.500000000000000e-04, 4.599999999988090e-03, 3.012641150261130e-04, -3.975020161806849e-05, -2.158460563703898e+03, -9.961314911557693e+03, -8.208216109890307e+02, 7.973677222090657e+03
59, 2.500000000000000e-04, 4.699999999988035e-03, 3.123466018523525e-04, -4.065174291658269e-05, -2.080338831973371e+03, -9.594179990274646e+03, -7.983457426736095e+02, 7.681616538956012e+03
60, 2.500000000000000e-04, 4.799999999987717e-03, 3.235411320223197e-04, -4.155533173844764e-05, -2.003588999706539e+03, -9.234206467862270e+03, -7.755328576098304e+02, 7.395108777004477e+03
61, 2.500000000000000e-04, 4.899999999987257e-03, 3.348435707051757e-04, -4.246082359848355e-05, -1.928211569219858e+03, -8.881376256786552e+03, -7.524420896248687e+02, 7.114153186808716e+03
62, 2.500000000000000e-04, 4.999999999986965e-03, 3.462498621127692e-04, -4.336806964328485e-05, -1.854214612874288e+03, -8.535677506731603e+03, -7.291303025881281e+02, 6.838747721228001e+03
63, 2.500000000000000e-04, 5.099999999987202e-03, 3.577560295804894e-04, -4.427691748931383e-05, -1.781604709710754e+03, -8.197096804156354e+03, -7.056521373034576e+02, 6.568890208354661e+03
64, 2.500000000000000e-04, 5.199999999987608e-03, 3.693581755099752e-04, -4.518721199644860e-05, -1.710389487984347e+03, -7.865621530002266e+03, -6.820598414122139e+02, 6.304578019197881e+03
65, 2.500000000000000e-04, 5.299999999988015e-03, 3.810524814259295e-04, -4.609879604962672e-05, -1.640572563868957e+03, -7.541235862530695e+03, -6.584036923687280e+02, 6.045809214048416e+03
66, 2.500000000000000e-04, 5.399999999988211e-03, 3.928352078218276e-04, -4.701151127474373e-05, -1.572160367735161e+03, -7.223926336025368e+03, -6.347320086835990e+02, 5.792581242564786e+03
67, 2.500000000000000e-04, 5.499999999988184e-03, 4.047026941422765e-04, -4.792519874635334e-05, -1.505161246718900e+03, -6.913681352918100e+03, -6.110906669211719e+02, 5.544891067636375e+03
68, 2.500000000000000e-04, 5.599999999988157e-03, 4.166513588905182e-04, -4.883969967272111e-05, -1.439579864443476e+03, -6.610486477395897e+03, -5.875232481874046e+02, 5.302736036096630e+03
69, 2.500000000000000e-04, 5.699999999988293e-03, 4.286776995688821e-04, -4.975485603046944e-05, -1.375421005762599e+03, -6.314326956067313e+03, -5.640715192161515e+02, 5.066112780142047e+03
70, 2.500000000000000e-04, 5.799999999988694e-03, 4.407782925957957e-04, -5.067051114112988e-05, -1.312690763159985e+03, -6.025188918308756e+03, -5.407754155273535e+02, 4.835017172920454e+03
71, 2.500000000000000e-04, 5.899999999989099e-03, 4.529497932123362e-04, -5.158651025744653e-05, -1.251393900386391e+03, -5.743058303427106e+03, -5.176733521532758e+02, 4.609445943674961e+03
72, 2.500000000000000e-04, 5.999999999989505e-03, 4.651889353777126e-04, -5.250270116125258e-05, -1.191537100915526e+03, -5.467924125614330e+03, -4.948017372704981e+02, 4.389396430243673e+03
73, 2.500000000000000e-04, 6.099999999989911e-03, 4.774925318970859e-04, -5.341893474760865e-05, -1.133122941104747e+03, -5.199772459953634e+03, -4.721949741251773e+02, 4.174866546790472e+03
74, 2.500000000000000e-04, 6.199999999990317e-03, 4.898574743626423e-04, -5.433506549801366e-05, -1.076159900935657e+03, -4.938593919060810e+03, -4.498848762091885e+02, 3.965852008300037e+03
75, 2.500000000000000e-04, 6.299999999990723e-03, 5.022807333402009e-04, -5.525095195511811e-05, -1.020641442778845e+03, -4.684365767916881e+03, -4.279029404969872e+02, 3.762350280948337e+03
76, 2.500000000000000e-04, 6.399999999990975e-03, 5.147593576409367e-04, -5.616645707191935e-05, -9.665847507887918e+02, -4.437084035149455e+03, -4.062784038374541e+02, 3.564353216005214e+03
77, 2.500000000000000e-04, 6.499999999990961e-03, 5.272904750243455e-04, -5.708144868049973e-05, -9.139891490111538e+02, -4.196729575234657e+03, -3.850373239472504e+02, 3.371854040330321e+03
78, 2.500000000000000e-04, 6.599999999990934e-03, 5.398712919870979e-04, -5.799579981975707e-05, -8.628466571727554e+02, -3.963277803161303e+03, -3.642054515992826e+02, 3.184847835441185e+03
79, 2.500000000000000e-04, 6.699999999991035e-03, 5.524990929990381e-04, -5.890938913940295e-05, -8.131745510388334e+02, -3.736724418238898e+03, -3.438079711276359e+02, 3.003324742689195e+03
80, 2.500000000000000e-04, 6.799999999991401e-03, 5.651712410706213e-04, -5.982210122023750e-05, -7.649674799073846e+02, -3.517047167043665e+03, -3.238672397537341e+02, 2.827278295515130e+03
81, 2.500000000000000e-04, 6.899999999991809e-03, 5.778851773687369e-04, -6.073382695673434e-05, -7.182317755164460e+02, -3.304235221322268e+03, -3.044036114355047e+02, 2.656700972322534e+03
82, 2.500000000000000e-04, 6.999999999992214e-03, 5.906384215201620e-04, -6.164446392684346e-05, -6.729524365362279e+02, -3.098260815759310e+03, -2.854376545566868e+02, 2.491589724028614e+03
83, 2.500000000000000e-04, 7.099999999992620e-03, 6.034285705481388e-04, -6.255391661268610e-05, -6.291433624580633e+02, -2.899119345167884e+03, -2.669896616376717e+02, 2.331935865276961e+03
84, 2.500000000000000e-04, 7.199999999993026e-03, 6.162532993866669e-04, -6.346209669075506e-05, -5.868219808357658e+02, -2.706808704197108e+03, -2.490748300156018e+02, 2.177727437265180e+03
85, 2.500000000000000e-04, 7.299999999993359e-03, 6.291103617385010e-04, -6.436892330360683e-05, -5.459539959262189e+02, -2.521284712233027e+03, -2.317087316125589e+02, 2.028962095261312e+03
86, 2.500000000000000e-04, 7.399999999993427e-03, 6.419975881698379e-04, -6.527432319850047e-05, -5.065652520282740e+02, -2.342550737657662e+03, -2.149068971036755e+02, 1.885625254692113e+03
87, 2.500000000000000e-04, 7.499999999993399e-03, 6.549128873097742e-04, -6.617823090522089e-05, -4.686462165139787e+02, -2.170577130363104e+03, -1.986817164749961e+02, 1.747703216613485e+03
88, 2.500000000000000e-04, 7.599999999993372e-03, 6.678542452478813e-04, -6.708058870885371e-05, -4.322032697019057e+02, -2.005345322143693e+03, -1.830419975308327e+02, 1.615175968308428e+03
89, 2.500000000000000e-04, 7.699999999993440e-03, 6.808197259918167e-04, -6.798134684664990e-05, -3.972109930350997e+02, -1.846811285402278e+03, -1.679967386181514e+02, 1.488029779398366e+03
90, 2.500000000000000e-04, 7.799999999993771e-03, 6.938074698593704e-04, -6.888046359050961e-05, -3.636618594153784e+02, -1.694948905757001e+03, -1.535581273099591e+02, 1.366252390156654e+03
91, 2.500000000000000e-04, 7.899999999994177e-03, 7.068156928648786e-04, -6.977790557273309e-05, -3.315846936899421e+02, -1.549761609977633e+03, -1.397365419974595e+02, 1.249824069240875e+03
92, 2.500000000000000e-04, 7.999999999994584e-03, 7.198426881515269e-04, -7.067364784480981e-05, -3.009602279065136e+02, -1.411213159251470e+03, -1.265383488411864e+02, 1.138731481285155e+03
93, 2.500000000000000e-04, 8.099999999994990e-03, 7.328868249564265e-04, -7.156767400765099e-05, -2.717823584084225e+02, -1.279279365811967e+03, -1.139699272091769e+02, 1.032960210830677e+03
94, 2.500000000000000e-04, 8.199999999995398e-03, 7.459465486038415e-04, -7.245997631792372e-05, -2.440509413398505e+02, -1.153937806685994e+03, -1.020363047897199e+02, 9.324911461831657e+02
95, 2.500000000000000e-04, 8.299999999995804e-03, 7.590203803104082e-04, -7.335055555767073e-05, -2.177637841440294e+02, -1.035159449515774e+03, -9.074073081080036e+01, 8.372999430794381e+02
96, 2.500000000000000e-04, 8.399999999996209e-03, 7.721069170331953e-04, -7.423942095650886e-05, -1.929124976701026e+02, -9.229058838848606e+02, -8.008397564055741e+01, 7.473580912353050e+02
97, 2.500000000000000e-04, 8.499999999996616e-03, 7.852048312902560e-04, -7.512659005762757e-05, -1.694707717607975e+02, -8.171211397177030e+02, -7.006606010774584e+01, 6.626371633336032e+02
98, 2.500000000000000e-04, 8.599999999997021e-03, 7.983128698080481e-04, -7.601208860738611e-05, -1.474272509455933e+02, -7.177611735498544e+02, -6.068835597958832e+01, 5.831064135123058e+02
99, 2.500000000000000e-04, 8.699999999997429e-03, 8.114298528241733e-04, -7.689595058948144e-05, -1.267908905260727e+02, -6.247955425617231e+02, -5.195156655899823e+01, 5.087283111061201e+02
100, 2.500000000000000e-04, 8.799999999997834e-03, 8.245546743842813e-04, -7.777821806516490e-05, -1.075493761869008e+02, -5.381762380887442e+02, -4.385242789526973e+01, 4.394674458030636e+02
101, 2.500000000000000e-04, 8.899999999997930e-03, 8.376863018171372e-04, -7.865894128022518e-05, -8.967335585691683e+01, -4.578459671933159e+02, -3.638851041023040e+01, 3.752966380048787e+02
102, 2.500000000000000e-04, 8.999999999997496e-03, 8.508237744839140e-04, -7.953817877050538e-05, -7.314282902054768e+01, -3.837536491078577e+02, -2.955988479682589e+01, 3.161870154072076e+02
103, 2.500000000000000e-04, 9.099999999997034e-03, 8.639662031491458e-04, -8.041599709219983e-05, -5.795933855778716e+01, -3.158574059933495e+02, -2.336170098162225e+01, 2.620963362544711e+02
104, 2.500000000000000e-04, 9.199999999996832e-03, 8.771127706734902e-04, -8.129247045660841e-05, -4.409359677931864e+01, -2.540722643191655e+02, -1.778201025484412e+01, 2.129691066249353e+02
105, 2.500000000000000e-04, 9.299999999997156e-03, 8.902627316203923e-04, -8.216767974557993e-05, -3.147051515618924e+01, -1.982510139610423e+02, -1.280377957413776e+01, 1.687349456014610e+02
106, 2.500000000000000e-04, 9.399999999997563e-03, 9.034154093952738e-04, -8.304171125676808e-05, -2.004536305045989e+01, -1.482487415636273e+02, -8.405769739555803e+00, 1.293009440098880e+02
107, 2.500000000000000e-04, 9.499999999997968e-03, 9.165701941031392e-04, -8.391465568593831e-05, -9.705287573483012e+00, -1.038370537134581e+02, -4.571870355835445e+00, 9.457482429713119e+01
108, 2.500000000000000e-04, 9.599999999998375e-03, 9.297265367542577e-04, -8.478660639099227e-05, -4.993457406866533e-01, -6.492954429184262e+01, -1.282641845150739e+00, 6.448124662065015e+01
109, 2.500000000000000e-04, 9.699999999998783e-03, 9.428839465397463e-04, -8.565766062447999e-05, 7.529831620574043e+00, -3.171623142917865e+01, 1.427477777720945e+00, 3.934976792979486e+01
110, 2.500000000000000e-04, 9.799999999999188e-03, 9.560419717536262e-04, -8.652793629853573e-05, 1.326431956022277e+01, -5.872731940065728e+00, 3.308984881602193e+00, 2.024905587703737e+01
111, 2.500000000000000e-04, 9.899999999999593e-03, 9.692002153955404e-04, -8.739760338690118e-05, 1.544595376844009e+01, 9.351343655442676e+00, 3.868910271691464e+00, 9.849778636652154e+00
112, 2.000000000000817e-04, 1.000000000000000e-02, 9.827929913224470e-04, -8.168809503158112e-05, 2.263652893664708e+01, 2.030043882667980e+01, 4.661950577533394e+00, 9.612099133453770e+00
113, 1.500000000001972e-04, 1.000000000000000e-02, 9.832276335989942e-04, -7.510939259798699e-05, 1.957910240441809e+01, 2.050187597129005e+01, 7.553701753144355e+00, 1.513555918218888e+01
114, 1.000000000003456e-04, 1.000000000000000e-02, 9.836623645550942e-04, -6.853082920581214e-05, 1.324408259926106e+01, 2.038740971771812e+01, 1.011504542092564e+01, 2.145422330896271e+01
115, 5.000000000047588e-05, 1.000000000000000e-02, 9.840972317526316e-04, -6.195234550566252e-05, 4.981624562697547e+00, 2.040260307553228e+01, 1.198902665042876e+01, 2.850883404125947e+01
116, 6.410887445906788e-16, 1.000000000000000e-02, 9.845322633202239e-04, -5.537386349871184e-05, -3.259792803955281e+00, 2.153814289314279e+01, 1.282713966687832e+01, 3.568024191302273e+01
117, -4.999999999945738e-05, 1.000000000000000e-02, 9.849674668346547e-04, -4.879528960098583e-05, -8.854524497970210e+00, 2.552070826421114e+01, 1.235243370626493e+01, 4.233186862547915e+01
118, -9.999999999958566e-05, 1.000000000000000e-02, 9.854028258396068e-04, -4.221653492892294e-05, -8.566095563168169e+00, 3.446995407313248e+01, 1.059080822232261e+01, 4.796626359751401e+01
119, -1.499999999997626e-04, 1.000000000000000e-02, 9.858382906470318e-04, -3.563755396457800e-05, 1.987519794785659e+00, 5.057949028283718e+01, 8.335677975583060e+00, 5.137230484572550e+01
120, -1.999999999998909e-04, 1.000000000000000e-02, 9.862737465242209e-04, -2.905843375675916e-05, 3.196212952569708e+01, 7.674634854958242e+01, 7.401159721451042e+00, 4.716709588758938e+01
121, -2.500000000000000e-04, 9.899999999999590e-03, 9.735507939675053e-04, -2.161130398716152e-05, -2.038665951238094e+01, 3.895547771925931e+01, -6.149722479444596e-01, 5.935488197850106e+01
122, -2.500000000000000e-04, 9.799999999999181e-03, 9.603922428708571e-04, -2.074426265914804e-05, 6.719647138885955e+00, 8.823103054392394e+01, 4.947212747054417e+00, 8.210971489696925e+01
123, -2.500000000000000e-04, 9.699999999999055e-03, 9.472338768779377e-04, -1.987806569133638e-05, 1.611699342778630e+01, 1.190336879812073e+02, 1.012291650424302e+01, 1.048891785267177e+02
124, -2.500000000000000e-04, 9.599999999999458e-03, 9.340759857912899e-04, -1.901285358409158e-05, 2.315680948517088e+01, 1.520952305920207e+02, 1.556173311748785e+01, 1.326415718694822e+02
125, -2.500000000000000e-04, 9.499999999999916e-03, 9.209189010662274e-04, -1.814885983579222e-05, 3.135337592522611e+01, 1.913285710846095e+02, 2.148121411176169e+01, 1.656436938284830e+02
126, -2.500000000000000e-04, 9.400000000000373e-03, 9.077630411935997e-04, -1.728632094501461e-05, 4.075733740449937e+01, 2.365847015254282e+02, 2.789749734830566e+01, 2.036208191019419e+02
127, -2.500000000000000e-04, 9.300000000000832e-03, 8.946088891041351e-04, -1.642547814116087e-05, 5.198523954474558e+01, 2.882368965121252e+02, 3.482681221737186e+01, 2.463056491774574e+02
128, -2.500000000000000e-04, 9.200000000001289e-03, 8.814570197888249e-04, -1.556658054443870e-05, 6.427110483911258e+01, 3.455576133899236e+02, 4.230786158956850e+01, 2.937378431558212e+02
129, -2.500000000000000e-04, 9.100000000001746e-03, 8.683080582791002e-04, -1.470988231196386e-05, 7.812723621888335e+01, 4.089578437208369e+02, 5.035931669832392e+01, 3.458224023590722e+02
130, -2.500000000000000e-04, 9.000000000002204e-03, 8.551627080137512e-04, -1.385564977041096e-05, 9.346528901218750e+01, 4.784388865220399e+02, 5.897068728960102e+01, 4.026348700961076e+02
131, -2.500000000000000e-04, 8.900000000002661e-03, 8.420217457057787e-04, -1.300416165010432e-05, 1.101939856370023e+02, 5.539956880867376e+02, 6.816166635624140e+01, 4.642671667683616e+02
132, -2.500000000000000e-04, 8.800000000003118e-03, 8.288860171671969e-04, -1.215570829068016e-05, 1.283369917127648e+02, 6.357012379418979e+02, 7.795198035634822e+01, 5.307772822169036e+02
133, -2.500000000000000e-04, 8.700000000003576e-03, 8.157564403251819e-04, -1.131059117547462e-05, 1.478304398372183e+02, 7.235457389374467e+02, 8.835444215085643e+01, 6.022243231630731e+02
134, -2.500000000000000e-04, 8.600000000004033e-03, 8.026340031123251e-04, -1.046912241434281e-05, 1.686901767680764e+02, 8.175857429401781e+02, 9.937826135875713e+01, 6.786527912862146e+02
135, -2.500000000000000e-04, 8.500000000004490e-03, 7.895197649841337e-04, -9.631625076024674e-06, 1.909292747127977e+02, 9.178722167497637e+02, 1.110310965214900e+02, 7.601037156575525e+02
136, -2.500000000000000e-04, 8.400000000004949e-03, 7.764148575878491e-04, -8.798432757549137e-06, 2.146238467647891e+02, 1.024518189754697e+03, 1.233063677250768e+02, 8.466089345697117e+02
137, -2.500000000000000e-04, 8.300000000005149e-03, 7.633204885942234e-04, -7.969890748123269e-06, 2.397142039251210e+02, 1.137515211164432e+03, 1.362102994985499e+02, 9.382215257378506e+02
138, -2.500000000000000e-04, 8.200000000005172e-03, 7.502379383145861e-04, -7.146354445348907e-06, 2.663018436491247e+02, 1.256995704092373e+03, 1.497322542934955e+02, 1.034965369963263e+03
139, -2.500000000000000e-04, 8.100000000005195e-03, 7.371685653346094e-04, -6.328191189461402e-06, 2.943035101142853e+02, 1.382935456900616e+03, 1.638766556709775e+02, 1.136900060981357e+03
140, -2.500000000000000e-04, 8.000000000005220e-03, 7.241138020958639e-04, -5.515778456635284e-06, 3.237221512686433e+02, 1.515354623293898e+03, 1.786511086511746e+02, 1.244046953645318e+03
141, -2.500000000000000e-04, 7.900000000005243e-03, 7.110751552196935e-04, -4.709503284669104e-06, 3.547188075272709e+02, 1.654430338289594e+03, 1.940310387230801e+02, 1.356407843957108e+03
142, -2.500000000000000e-04, 7.800000000005240e-03, 6.980542145581291e-04, -3.909764729746165e-06, 3.870701560384254e+02, 1.800005170536695e+03, 2.100226853511954e+02, 1.474050022436055e+03
143, -2.500000000000000e-04, 7.700000000005121e-03, 6.850526416944897e-04, -3.116970331059406e-06, 4.208727690840281e+02, 1.952177937288503e+03, 2.266211189680299e+02, 1.596973401287268e+03
144, -2.500000000000000e-04, 7.600000000005145e-03, 6.720721759689394e-04, -2.331538037183800e-06, 4.561196416119096e+02, 2.110965541096392e+03, 2.438201207175224e+02, 1.725197946934622e+03
145, -2.500000000000000e-04, 7.500000000005337e-03, 6.591146346344725e-04, -1.553894893998025e-06, 4.927169692955255e+02, 2.276297183988626e+03, 2.616176665146226e+02, 1.858745167034715e+03
146, -2.500000000000000e-04, 7.400000000005796e-03, 6.461819079402230e-04, -7.844763720418320e-07, 5.308484002862301e+02, 2.448358460643366e+03, 2.799907912402399e+02, 1.997604616606642e+03
147, -2.500000000000000e-04, 7.300000000006254e-03, 6.332759688525525e-04, -2.372872615905078e-08, 5.704289620717203e+02, 2.627119212743333e+03, 2.989260278362929e+02, 2.141822090576059e+03
148, -2.500000000000000e-04, 7.200000000006711e-03, 6.203988681884212e-04, 7.278926465571308e-07, 6.114371923040686e+02, 2.812577229942235e+03, 3.184192978250989e+02, 2.291414598496629e+03
149, -2.500000000000000e-04, 7.100000000007169e-03, 6.075527339889366e-04, 1.469924004446446e-06, 6.539359056658409e+02, 3.004804698467044e+03, 3.384505972778416e+02, 2.446380859179023e+03
150, -2.500000000000000e-04, 7.000000000007627e-03, 5.947397755878297e-04, 2.201892589093472e-06, 6.978452193495334e+02, 3.203759181975362e+03, 3.590054067675365e+02, 2.606749760992870e+03
151, -2.500000000000000e-04, 6.900000000008085e-03, 5.819622796950627e-04, 2.923317503330448e-06, 7.432008208617480e+02, 3.409486870097307e+03, 3.800695537781906e+02, 2.772524618318976e+03
152, -2.500000000000000e-04, 6.800000000008542e-03, 5.692226129407445e-04, 3.633709884179908e-06, 7.899654566252518e+02, 3.621970565032017e+03, 4.016262800458664e+02, 2.943716631969853e+03
153, -2.500000000000000e-04, 6.700000000009001e-03, 5.565232202584141e-04, 4.332573537560882e-06, 8.381825712612999e+02, 3.841269022812739e+03, 4.236517670268896e+02, 3.120328750999138e+03
154, -2.500000000000000e-04, 6.600000000009459e-03, 5.438666275377362e-04, 5.019404292687097e-06, 8.878349435058259e+02, 4.067390080540929e+03, 4.461240960468313e+02, 3.302374555640339e+03
155, -2.500000000000000e-04, 6.500000000009916e-03, 5.312554414000543e-04, 5.693691027968071e-06, 9.388414003828273e+02, 4.300279112015117e+03, 4.690262088067674e+02, 3.489871892688086e+03
156, -2.500000000000000e-04, 6.400000000010177e-03, 5.186923454675428e-04, 6.354916389775311e-06, 9.912762608721466e+02, 4.540014023839217e+03, 4.923350575980547e+02, 3.682813455236206e+03
157, -2.500000000000000e-04, 6.300000000010201e-03, 5.061801046770611e-04, 7.002556490123133e-06, 1.045138492945022e+03, 4.786616947979936e+03, 5.160202486292831e+02, 3.881207108294037e+03
158, -2.500000000000000e-04, 6.200000000010225e-03, 4.937215654271988e-04, 7.636081271105520e-06, 1.100407345547133e+03, 5.040091680284124e+03, 5.400530817840570e+02, 4.085063277594348e+03
159, -2.500000000000000e-04, 6.100000000010248e-03, 4.813196551065848e-04, 8.254955096278168e-06, 1.157041109153476e+03, 5.300419261809860e+03, 5.644086183791806e+02, 4.294392957091028e+03
160, -2.500000000000000e-04, 6.000000000010509e-03, 4.689773804880677e-04, 8.858637546627059e-06, 1.215073356320651e+03, 5.567644449875634e+03, 5.890562321322026e+02, 4.509193287374756e+03
161, -2.500000000000000e-04, 5.900000000010967e-03, 4.566978299903691e-04, 9.446583448575571e-06, 1.274512562417523e+03, 5.841796006177105e+03, 6.139591630540428e+02, 4.729467355974925e+03
162, -2.500000000000000e-04, 5.800000000011424e-03, 4.444841746758948e-04, 1.001824328162068e-05, 1.335316518031076e+03, 6.122859600981788e+03, 6.390818910001010e+02, 4.955226677431243e+03
163, -2.500000000000000e-04, 5.700000000011876e-03, 4.323396668732290e-04, 1.057306390855457e-05, 1.397450114384029e+03, 6.410822718963316e+03, 6.643925477081356e+02, 5.186479991491969e+03
164, -2.500000000000000e-04, 5.600000000012062e-03, 4.202676391918040e-04, 1.111048934134552e-05, 1.460916374587268e+03, 6.705702608328487e+03, 6.898570266062007e+02, 5.423227222445432e+03
165, -2.500000000000000e-04, 5.500000000012085e-03, 4.082715052306404e-04, 1.162996125893801e-05, 1.525746181189091e+03, 7.007543219407044e+03, 7.154329378626499e+02, 5.665463434047586e+03
166, -2.500000000000000e-04, 5.400000000012110e-03, 3.963547616703807e-04, 1.213091927510179e-05, 1.591918026059484e+03, 7.316347731701524e+03, 7.410753964278911e+02, 5.913194266012240e+03
167, -2.500000000000000e-04, 5.300000000012160e-03, 3.845209877273030e-04, 1.261280164143708e-05, 1.659405954493467e+03, 7.632113913518859e+03, 7.667410982375601e+02, 6.166425870041043e+03
168, -2.500000000000000e-04, 5.200000000012475e-03, 3.727738445831144e-04, 1.307504601447656e-05, 1.728200563274065e+03, 7.954852653727290e+03, 7.923852508579968e+02, 6.425160993987207e+03
169, -2.500000000000000e-04, 5.100000000012934e-03, 3.611170756720278e-04, 1.351709010535193e-05, 1.798298403182691e+03, 8.284580399742594e+03, 8.179598034285927e+02, 6.689401101667987e+03
170, -2.500000000000000e-04, 5.000000000013221e-03, 3.495545072305650e-04, 1.393837235105580e-05, 1.869687845297832e+03, 8.621307707577495e+03, 8.434139098400226e+02, 6.959149291255060e+03
171, -2.500000000000000e-04, 4.900000000012981e-03, 3.380900484288977e-04, 1.433833262453758e-05, 1.942344922435588e+03, 8.965033221517493e+03, 8.686972554145025e+02, 7.234410178606178e+03
172, -2.500000000000000e-04, 4.800000000012570e-03, 3.267276907661064e-04, 1.471641318242159e-05, 2.016279989613867e+03, 9.315783371312562e+03, 8.937554163481487e+02, 7.515180942361755e+03
173, -2.500000000000000e-04, 4.700000000012160e-03, 3.154715093112384e-04, 1.507205932152040e-05, 2.091494443182368e+03, 9.673580029861852e+03, 9.185276561778312e+02, 7.801461021141291e+03
174, -2.500000000000000e-04, 4.600000000011960e-03, 3.043256636402012e-04, 1.540472008074596e-05, 2.167934086199782e+03, 1.003839816585055e+04, 9.429555491309566e+02, 8.093260498687808e+03
175, -2.500000000000000e-04, 4.500000000011985e-03, 2.932943958218424e-04, 1.571384938671773e-05, 2.245596146231996e+03, 1.041025277582839e+04, 9.669809498721897e+02, 8.390579628897834e+03
176, -2.500000000000000e-04, 4.400000000012010e-03, 2.823820310385189e-04, 1.599890691668192e-05, 2.324495833924596e+03, 1.078917444559657e+04, 9.905390264048546e+02, 8.693414418410135e+03
177, -2.500000000000000e-04, 4.300000000011870e-03, 2.715929790817291e-04, 1.625935892254571e-05, 2.404611906075422e+03, 1.117516402042917e+04, 1.013561524925903e+03, 9.001767173718472e+03
178, -2.500000000000000e-04, 4.200000000011467e-03, 2.609317339291882e-04, 1.649467925849808e-05, 2.485926641334477e+03, 1.156822400421424e+04, 1.035979759288744e+03, 9.315639625618660e+03
179, -2.500000000000000e-04, 4.100000000011056e-03, 2.504028736089303e-04, 1.670435044476684e-05, 2.568435458242256e+03, 1.196836790699191e+04, 1.057721431732068e+03, 9.635031320636061e+03
180, -2.500000000000000e-04, 4.000000000010646e-03, 2.400110608093588e-04, 1.688786463189845e-05, 2.652117547087363e+03, 1.237559603372798e+04, 1.078712212792338e+03, 9.959945483398602e+03
181, -2.500000000000000e-04, 3.900000000010236e-03, 2.297610425353093e-04, 1.704472473387012e-05, 2.736960804015697e+03, 1.278991463268501e+04, 1.098876668414589e+03, 1.029038388063831e+04
182, -2.500000000000000e-04, 3.800000000009824e-03, 2.196576501403100e-04, 1.717444557573847e-05, 2.822971314444465e+03, 1.321134405189111e+04, 1.118134910555637e+03, 1.062634419002781e+04
183, -2.500000000000000e-04, 3.700000000009415e-03, 2.097058003393583e-04, 1.727655501408731e-05, 2.910131902904185e+03, 1.363988517017855e+04, 1.136403334118519e+03, 1.096782819558036e+04
184, -2.500000000000000e-04, 3.600000000009160e-03, 1.999104949851898e-04, 1.735059515329947e-05, 2.998429605094079e+03, 1.407554131914048e+04, 1.153596723697253e+03, 1.131483740621862e+04
185, -2.500000000000000e-04, 3.500000000009170e-03, 1.902768210989357e-04, 1.739612361410892e-05, 3.087854837345338e+03, 1.451831787116168e+04, 1.169627135912649e+03, 1.166737312833077e+04
186, -2.500000000000000e-04, 3.400000000009196e-03, 1.808099509926506e-04, 1.741271479725649e-05, 3.178404522336727e+03, 1.496822397461732e+04, 1.184403727294198e+03, 1.202543518856126e+04
187, -2.500000000000000e-04, 3.300000000009092e-03, 1.715151426578604e-04, 1.739996125149851e-05, 3.270072615666244e+03, 1.542526424396759e+04, 1.197831803322201e+03, 1.238902286852872e+04
188, -2.500000000000000e-04, 3.200000000008720e-03, 1.623977400186114e-04, 1.735747506524271e-05, 3.362847001686497e+03, 1.588943721043899e+04, 1.209813606914352e+03, 1.275813693733980e+04
189, -2.500000000000000e-04, 3.100000000008311e-03, 1.534631728520497e-04, 1.728488926851152e-05, 3.456719636493485e+03, 1.636074346574356e+04, 1.220249145227157e+03, 1.313277818633835e+04
190, -2.500000000000000e-04, 3.000000000007901e-03, 1.447169568460227e-04, 1.718185930720259e-05, 3.551688799674560e+03, 1.683918674001594e+04, 1.229035081437714e+03, 1.351294603112862e+04
191, -2.500000000000000e-04, 2.900000000007490e-03, 1.361646939379058e-04, 1.704806456209648e-05, 3.647750640218777e+03, 1.732476711038019e+04, 1.236064120798287e+03, 1.389864013376726e+04
192, -2.500000000000000e-04, 2.800000000007079e-03, 1.278120725096705e-04, 1.688320989725934e-05, 3.744895023700999e+03, 1.781747792528405e+04, 1.241226415869468e+03, 1.428986219610729e+04
193, -2.500000000000000e-04, 2.700000000006744e-03, 1.196648671425817e-04, 1.668702725666260e-05, 3.843123883894121e+03, 1.831731975275724e+04, 1.244409721142563e+03, 1.468661187158259e+04
194, -2.500000000000000e-04, 2.600000000006672e-03, 1.117289389074060e-04, 1.645927735008679e-05, 3.942443217202429e+03, 1.882429308893436e+04, 1.245497103844607e+03, 1.508888689557679e+04
195, -2.500000000000000e-04, 2.500000000006697e-03, 1.040102358535375e-04, 1.619975137207223e-05, 4.042844312971244e+03, 1.933838389479261e+04, 1.244368151299598e+03, 1.549668801657113e+04
196, -2.500000000000000e-04, 2.400000000006722e-03, 9.651479261879330e-05, 1.590827274263264e-05, 4.144331880477174e+03, 1.985958690902263e+04, 1.240899880979064e+03, 1.591001479165493e+04
197, -2.500000000000000e-04, 2.300000000006651e-03, 8.924873066570196e-05, 1.558469888210855e-05, 4.246910400678493e+03, 2.038789288195337e+04, 1.234965788819838e+03, 1.632886638622057e+04
198, -2.500000000000000e-04, 2.200000000006315e-03, 8.221825840974472e-05, 1.522892312740562e-05, 4.350583311291310e+03, 2.092328854909119e+04, 1.226435460875409e+03, 1.675324251175784e+04
199, -2.500000000000000e-04, 2.100000000005904e-03, 7.542967115597661e-05, 1.484087657607340e-05, 4.455361004221004e+03, 2.146576261105238e+04, 1.215175570277996e+03, 1.718314201454708e+04
200, -2.500000000000000e-04, 2.000000000005494e-03, 6.888935129622344e-05, 1.442053010113767e-05, 4.561251139697270e+03, 2.201529719040430e+04, 1.201048726193206e+03, 1.761856395143948e+04
201, -2.500000000000000e-04, 1.900000000005083e-03, 6.260376824999308e-05, 1.396789634551280e-05, 4.668266224677210e+03, 2.257187437784691e+04, 1.183914117521124e+03, 1.805950706561251e+04
202, -2.500000000000000e-04, 1.800000000004675e-03, 5.657947853855134e-05, 1.348303179397625e-05, 4.776418595259686e+03, 2.313547192738047e+04, 1.163627363546027e+03, 1.850597076125507e+04
203, -2.500000000000000e-04, 1.700000000004264e-03, 5.082312568099779e-05, 1.296603887355894e-05, 4.885726063583636e+03, 2.370606662292982e+04, 1.140040954113643e+03, 1.895795327238667e+04
204, -2.500000000000000e-04, 1.600000000003854e-03, 4.534144025115155e-05, 1.241706819272851e-05, 4.996207200358171e+03, 2.428363065002640e+04, 1.113003058231524e+03, 1.941545277755177e+04
205, -2.500000000000000e-04, 1.500000000003443e-03, 4.014123980352570e-05, 1.183632072979783e-05, 5.107883946704930e+03, 2.486813409273622e+04, 1.082358563213560e+03, 1.987846790049918e+04
206, -2.500000000000000e-04, 1.400000000003032e-03, 3.522942879989577e-05, 1.122405012611561e-05, 5.220781838881649e+03, 2.545954406501840e+04, 1.047948663038522e+03, 2.034699688031521e+04
207, -2.500000000000000e-04, 1.300000000002622e-03, 3.061299856262047e-05, 1.058056504024909e-05, 5.334928167894292e+03, 2.605782277238555e+04, 1.009610801477610e+03, 2.082103783846266e+04
208, -2.500000000000000e-04, 1.200000000002211e-03, 2.629902712462387e-05, 9.906231564689905e-06, 5.450357335752042e+03, 2.666293243834226e+04, 9.671789533656788e+02, 2.130058879454661e+04
209, -2.500000000000000e-04, 1.100000000002113e-03, 2.229467906018036e-05, 9.201475632450914e-06, 5.567124156862501e+03, 2.727485273292287e+04, 9.204850295779152e+02, 2.178565240452110e+04
210, -2.500000000000000e-04, 1.000000000002544e-03, 1.860720538898811e-05, 8.466785049574937e-06, 5.685346265512925e+03, 2.789364356935710e+04, 8.693630801999883e+02, 2.227625726635405e+04
211, -2.500000000000000e-04, 9.000000000030026e-04, 1.524394446779857e-05, 7.702709959104533e-06, 5.805247658094859e+03, 2.851953894001675e+04, 8.136584925388094e+02, 2.277250950180754e+04
212, -2.500000000000000e-04, 8.000000000032027e-04, 1.221232740857061e-05, 6.909860686291471e-06, 5.927088478712987e+03, 2.915290930709794e+04, 7.532090928605797e+02, 2.327462242234042e+04
213, -2.500000000000000e-04, 7.000000000028719e-04, 9.519898021360265e-06, 6.088906669858150e-06, 6.049754298900691e+03, 2.979244517322517e+04, 6.877310849835652e+02, 2.378249915662233e+04
214, -2.500000000000000e-04, 6.000000000024631e-04, 7.174355392864414e-06, 5.240620967562486e-06, 6.167154188166129e+03, 3.042920216300389e+04, 6.160836119742169e+02, 2.429331611783582e+04
215, -2.500000000000000e-04, 5.000000000020526e-04, 5.183599828880450e-06, 4.366093805484498e-06, 6.246670438235660e+03, 3.101598653159651e+04, 5.351757250363302e+02, 2.479243174760187e+04
216, -2.500000000000000e-04, 4.000000000016421e-04, 3.555415121702700e-06, 3.467695914660225e-06, 6.219793787463829e+03, 3.143551990100260e+04, 4.327165923368345e+02, 2.523057308168277e+04
217, -2.500000000000000e-04, 3.000000000012316e-04, 2.295838836322268e-06, 2.551020735707614e-06, 5.689241683173452e+03, 3.114968877916672e+04, 3.058536747584487e+02, 2.546779441194948e+04
218, -2.500000000000000e-04, 2.000000000008210e-04, 1.397493416355281e-06, 1.633637654256170e-06, 5.341973708690392e+03, 3.070192211468444e+04, 8.616581663539864e+01, 2.536053393259901e+04
219, -2.500000000000000e-04, 1.000000000004105e-04, 8.135239471017652e-07, 7.228476122659084e-07, -2.753114763272610e+03, 2.125486925335042e+04, 1.869379318388660e+03, 2.429735814212121e+04
220, -1.999999999998928e-04, 9.899999999999593e-03, 9.731151361406893e-04, -2.819075147626363e-05, -2.116003091771825e+00, 5.701875996580412e+01, 5.495221745041872e+00, 6.014740268693547e+01
221, -1.499999999997670e-04, 9.899999999999591e-03, 9.726795506874133e-04, -3.476980835323924e-05, 9.355088904323221e-01, 5.214187470412874e+01, 1.135218787857310e+01, 5.601411052911387e+01
222, -9.999999999959327e-05, 9.899999999999591e-03, 9.722441234511584e-04, -4.134857638078737e-05, 5.023746913625258e+00, 4.517764840133627e+01, 1.509233735771257e+01, 5.023395656685651e+01
223, -4.999999999946756e-05, 9.899999999999593e-03, 9.718088794752128e-04, -4.792708030766698e-05, 9.025986267751135e+00, 3.782082304256907e+01, 1.757131725931246e+01, 4.543288881193947e+01
224, 6.282680539010377e-16, 9.899999999999593e-03, 9.713738098423567e-04, -5.450539097877399e-05, 1.207637819265299e+01, 3.042153528492528e+01, 1.849160653187943e+01, 4.128320284643058e+01
225, 5.000000000046569e-05, 9.899999999999590e-03, 9.709388954443208e-04, -6.108360938019867e-05, 1.423113722788928e+01, 2.348403242310633e+01, 1.772035898318014e+01, 3.662868492677239e+01
226, 1.000000000003380e-04, 9.899999999999590e-03, 9.705041124282910e-04, -6.766184528702004e-05, 1.558048667502255e+01, 1.743440964993079e+01, 1.534073568339202e+01, 3.073743183201358e+01
227, 1.500000000001929e-04, 9.899999999999593e-03, 9.700694312836151e-04, -7.424020235175210e-05, 1.618519847641994e+01, 1.280105326239574e+01, 1.157751610842135e+01, 2.340102467398867e+01
228, 2.000000000000797e-04, 9.899999999999593e-03, 9.696348147456506e-04, -8.081876927021384e-05, 1.581615097238997e+01, 9.941360051159739e+00, 6.820031353146295e+00, 1.485141336707598e+01
229, -1.999999999998947e-04, 9.799999999999184e-03, 9.599563452089803e-04, -2.732352084453308e-05, 2.002887911827200e+00, 7.415594893932094e+01, 1.009127843653433e+01, 7.492262553843055e+01
230, -1.499999999997712e-04, 9.799999999999181e-03, 9.595206525596997e-04, -3.390230559932184e-05, 6.391129861665357e+00, 6.414632985850665e+01, 1.712752783097914e+01, 6.714962371509610e+01
231, -9.999999999960086e-05, 9.799999999999184e-03, 9.590851752979417e-04, -4.048071215753306e-05, 9.163554639892464e+00, 5.176848019959093e+01, 2.200564120462686e+01, 6.125498070569066e+01
232, -4.999999999947776e-05, 9.799999999999184e-03, 9.586499228421527e-04, -4.705884450227681e-05, 1.232035443693726e+01, 4.006122189751616e+01, 2.485857467445429e+01, 5.693286104568332e+01
233, 6.154473632113966e-16, 9.799999999999184e-03, 9.582148869551703e-04, -5.363680196859142e-05, 1.532176889989583e+01, 2.941975854674828e+01, 2.569486904976038e+01, 5.328844615880720e+01
234, 5.000000000045551e-05, 9.799999999999184e-03, 9.577800468722745e-04, -6.021469516520903e-05, 1.763448207109327e+01, 1.988593362455734e+01, 2.440960782624319e+01, 4.887110445878594e+01
235, 1.000000000003303e-04, 9.799999999999184e-03, 9.573453744631883e-04, -6.679264161269610e-05, 1.897393113373494e+01, 1.157581230757769e+01, 2.099969466054078e+01, 4.264599471825839e+01
236, 1.500000000001885e-04, 9.799999999999188e-03, 9.569108353214008e-04, -7.337075838992227e-05, 1.911972605434210e+01, 4.703400585376073e+00, 1.559100357469766e+01, 3.435328237435397e+01
237, 2.000000000000778e-04, 9.799999999999188e-03, 9.564763869045303e-04, -7.994915525343493e-05, 1.758541861220379e+01, -5.452562222549386e-01, 8.375119680578992e+00, 2.468383861171032e+01
238, -1.999999999998966e-04, 9.699999999999027e-03, 9.467977247145943e-04, -2.645692418098999e-05, 4.247015967060205e+00, 9.371384552894312e+01, 1.569406704141865e+01, 9.481312437135048e+01
239, -1.499999999997756e-04, 9.699999999998999e-03, 9.463618446790282e-04, -3.303525571991617e-05, 7.970852148537037e+00, 7.777155716759492e+01, 2.358519756819633e+01, 8.424478974085548e+01
240, -9.999999999960846e-05, 9.699999999998973e-03, 9.459262514553843e-04, -3.961317233301421e-05, 1.159247171798425e+01, 6.151321175847119e+01, 2.898633349644228e+01, 7.650431624724037e+01
241, -4.999999999948794e-05, 9.699999999998947e-03, 9.454909458763123e-04, -4.619079578474855e-05, 1.474037257716853e+01, 4.528794435341698e+01, 3.185010528406173e+01, 7.064609662145757e+01
242, 6.026266725217555e-16, 9.699999999998920e-03, 9.450559191448695e-04, -5.276825370458786e-05, 1.747284945036052e+01, 2.988102966964771e+01, 3.216865731300341e+01, 6.552291957506243e+01
243, 5.000000000044535e-05, 9.699999999998892e-03, 9.446211515462337e-04, -5.934567570442570e-05, 1.948976316316577e+01, 1.564546852802860e+01, 2.994535098688045e+01, 6.001395491176692e+01
244, 1.000000000003228e-04, 9.699999999998864e-03, 9.441866137031323e-04, -6.592319424826758e-05, 2.046731054167881e+01, 2.827000813941381e+00, 2.519887915457593e+01, 5.339582914309125e+01
245, 1.500000000001842e-04, 9.699999999998836e-03, 9.437522673695773e-04, -7.250094263336916e-05, 2.010669694457276e+01, -8.302209557961161e+00, 1.798812280744170e+01, 4.584055210413735e+01
246, 2.000000000000759e-04, 9.699999999998809e-03, 9.433180645101562e-04, -7.907905385705978e-05, 1.823271502688304e+01, -1.726370362517233e+01, 8.392564204771455e+00, 3.926494967330060e+01
247, -1.999999999998985e-04, 9.599999999999352e-03, 9.336395261924147e-04, -2.559115974444308e-05, 5.680840601234838e+00, 1.169181241783963e+02, 2.181822514344807e+01, 1.194900541939227e+02
248, -1.499999999997800e-04, 9.599999999999241e-03, 9.332034183544084e-04, -3.216886609893157e-05, 9.359213201570608e+00, 9.519119397464684e+01, 3.050911106334652e+01, 1.053107418781777e+02
249, -9.999999999961608e-05, 9.599999999999132e-03, 9.327676772559488e-04, -3.874611593743321e-05, 1.300841320585405e+01, 7.324345479987045e+01, 3.617273621651417e+01, 9.413887410305557e+01
250, -4.999999999949810e-05, 9.599999999999024e-03, 9.323323048978852e-04, -4.532305479266988e-05, 1.628471591848907e+01, 5.152586505843121e+01, 3.881501576998195e+01, 8.525467957595896e+01
251, 5.898059818321144e-16, 9.599999999998917e-03, 9.318972913648670e-04, -5.189983151712573e-05, 1.889458910729123e+01, 3.046011731918525e+01, 3.844465105225207e+01, 7.775426818469724e+01
252, 5.000000000043517e-05, 9.599999999998809e-03, 9.314626162104794e-04, -5.847659731014073e-05, 2.062796234842013e+01, 1.051227447546885e+01, 3.508702859105860e+01, 7.089940368255594e+01
253, 1.000000000003152e-04, 9.599999999998698e-03, 9.310282487022522e-04, -6.505350443707692e-05, 2.123144744244154e+01, -7.925576487415841e+00, 2.878177740541485e+01, 6.452669902378140e+01
254, 1.500000000001798e-04, 9.599999999998591e-03, 9.305941481139344e-04, -7.163070597382351e-05, 2.047954084565892e+01, -2.445234964133041e+01, 1.957880769865110e+01, 5.960028209948206e+01
255, 2.000000000000740e-04, 9.599999999998483e-03, 9.301602640586219e-04, -7.820835532901345e-05, 1.819440388596221e+01, -3.862979235192549e+01, 7.530383385954884e+00, 5.878618863168314e+01
256, -1.999999999999004e-04, 9.499999999999719e-03, 9.204820908372899e-04, -2.472641690196581e-05, 6.677701358807841e+00, 1.437804271582174e+02, 2.831487824176207e+01, 1.483377455033321e+02
257, -1.499999999997843e-04, 9.499999999999528e-03, 9.200457293774494e-04, -3.130329831578194e-05, 1.059650996243768e+01, 1.155010164870662e+02, 3.772599549564364e+01, 1.292205805347010e+02
258, -9.999999999962368e-05, 9.499999999999330e-03, 9.196098307035518e-04, -3.787967436702888e-05, 1.431435909342054e+01, 8.692086369119382e+01, 4.356188466376753e+01, 1.134118851432424e+02
259, -4.999999999950831e-05, 9.499999999999136e-03, 9.191743962173602e-04, -4.445571656980637e-05, 1.756543151359450e+01, 5.856459567264740e+01, 4.586704567297338e+01, 1.004792265933982e+02
260, 5.769988436696294e-16, 9.499999999998942e-03, 9.187394154669441e-04, -5.103159735286487e-05, 2.007671138163647e+01, 3.090025914725895e+01, 4.468431089433676e+01, 9.002166265206218e+01
261, 5.000000000042495e-05, 9.499999999998747e-03, 9.183048667700496e-04, -5.760749004993078e-05, 2.159233616476748e+01, 4.373326265227803e+00, 4.005984304936952e+01, 8.194912081578987e+01
262, 1.000000000003075e-04, 9.499999999998551e-03, 9.178707177864056e-04, -6.418356855651149e-05, 2.188653261453102e+01, -2.056852031779684e+01, 3.204742448076649e+01, 7.688030425855823e+01
263, 1.500000000001755e-04, 9.499999999998359e-03, 9.174369258917157e-04, -7.076000682724288e-05, 2.074519726179472e+01, -4.349162095026516e+01, 2.070884298615311e+01, 7.643162647301051e+01
264, 2.000000000000721e-04, 9.499999999998164e-03, 9.170034385741331e-04, -7.733697847445171e-05, 1.798344089057559e+01, -6.396520618964307e+01, 6.118122352033132e+00, 8.285714478990947e+01
265, -1.999999999999023e-04, 9.400000000000087e-03, 9.073258451801143e-04, -2.386289242354503e-05, 7.413466556179509e+00, 1.742970114520056e+02, 3.519692114639916e+01, 1.811226396388386e+02
266, -1.499999999997887e-04, 9.399999999999811e-03, 9.068892126001826e-04, -3.043870954756322e-05, 1.165193464169806e+01, 1.384091554713040e+02, 4.522941148636302e+01, 1.557247304895933e+02
267, -9.999999999963125e-05, 9.399999999999530e-03, 9.064531552952119e-04, -3.701396991137638e-05, 1.554145973034538e+01, 1.022481828624952e+02, 5.115128654080075e+01, 1.341039607745860e+02
268, -4.999999999951849e-05, 9.399999999999249e-03, 9.060176729599131e-04, -4.358887040196141e-05, 1.881830797572992e+01, 6.631549963486438e+01, 5.303505056337377e+01, 1.162189724982242e+02
269, 5.641646004528322e-16, 9.399999999998968e-03, 9.055827536075662e-04, -5.016360776112176e-05, 2.123665402812730e+01, 3.110603296104246e+01, 5.094597893558083e+01, 1.023688220081683e+02
270, 5.000000000041476e-05, 9.399999999998687e-03, 9.051483739344677e-04, -5.673837860678230e-05, 2.255480504039035e+01, -2.905768088295307e+00, 4.494953216664018e+01, 9.343491077771964e+01
271, 1.000000000003000e-04, 9.399999999998406e-03, 9.047144996762027e-04, -6.331337927655868e-05, 2.253993687185151e+01, -3.526042222366721e+01, 3.511552089780440e+01, 9.095757661276747e+01
272, 1.500000000001711e-04, 9.399999999998125e-03, 9.042810859573754e-04, -6.988880550659234e-05, 2.097133311745808e+01, -6.550887643051891e+01, 2.152193936956503e+01, 9.660021811761575e+01
273, 2.000000000000702e-04, 9.399999999997844e-03, 9.038480776213054e-04, -7.646485188257685e-05, 1.762492139115589e+01, -9.322547846187769e+01, 4.258127166471892e+00, 1.111770557958827e+02
274, -1.999999999999042e-04, 9.300000000000464e-03, 8.941712827772541e-04, -2.300078635954154e-05, 8.452939221500742e+00, 2.088404578308339e+02, 4.247917449667318e+01, 2.176535749260303e+02
275, -1.499999999997930e-04, 9.300000000000100e-03, 8.937343699941904e-04, -2.957526243782545e-05, 1.293936401539117e+01, 1.642169074483459e+02, 5.302326088687992e+01, 1.847451215253654e+02
276, -9.999999999963886e-05, 9.299999999999729e-03, 8.932981599519706e-04, -3.614912935448658e-05, 1.693569415936661e+01, 1.193826563220352e+02, 5.894434578645108e+01, 1.561829813300095e+02
277, -4.999999999952863e-05, 9.299999999999361e-03, 8.928626502998218e-04, -4.272260902958406e-05, 2.021055132704716e+01, 7.485352334046021e+01, 6.032460515343514e+01, 1.324465414351392e+02
278, 5.513303572360351e-16, 9.299999999998993e-03, 8.924278270673883e-04, -4.929592266021043e-05, 2.251764303096665e+01, 3.112280499408006e+01, 5.724266004556875e+01, 1.148082633296995e+02
279, 5.000000000040461e-05, 9.299999999998625e-03, 8.919936648697366e-04, -5.586929071077579e-05, 2.361465471087151e+01, -1.132681690084426e+01, 4.977799030435170e+01, 1.055097138340962e+02
280, 1.000000000002923e-04, 9.299999999998258e-03, 8.915601271375193e-04, -6.244293277535137e-05, 2.326399119477825e+01, -5.202355905613802e+01, 3.801385324998511e+01, 1.069973241648120e+02
281, 1.500000000001668e-04, 9.299999999997890e-03, 8.911271663405737e-04, -6.901706731158261e-05, 2.123136519123364e+01, -9.050680108838478e+01, 2.204004105681139e+01, 1.201185724302257e+02
282, 2.000000000000683e-04, 9.299999999997520e-03, 8.906947241605939e-04, -7.559191128678243e-05, 1.728757523389855e+01, -1.263221782216942e+02, 1.955392851319261e+00, 1.436629929118424e+02
283, -1.999999999999061e-04, 9.200000000000841e-03, 8.810189803345608e-04, -2.214031000656223e-05, 9.320477083272756e+00, 2.470288589734912e+02, 5.021364037707674e+01, 2.580521527531586e+02
284, -1.499999999997973e-04, 9.200000000000397e-03, 8.805817800235729e-04, -2.871313092244532e-05, 1.411979640172235e+01, 1.926783258879901e+02, 6.115531536550069e+01, 2.164325272275721e+02
285, -9.999999999964642e-05, 9.199999999999951e-03, 8.801454256020311e-04, -3.528529038001733e-05, 1.829790688727382e+01, 1.382025319242658e+02, 6.697647849431829e+01, 1.797790693914649e+02
286, -4.999999999953884e-05, 9.199999999999505e-03, 8.797099121431387e-04, -4.185703507650370e-05, 2.161697657542038e+01, 8.411074102862489e+01, 6.775811622550835e+01, 1.492317655636714e+02
287, 5.385367716007061e-16, 9.199999999999058e-03, 8.792752231480913e-04, -4.842861074992401e-05, 2.383743556883750e+01, 3.090329573185154e+01, 6.358634650156361e+01, 1.273688353778541e+02
288, 5.000000000039439e-05, 9.199999999998614e-03, 8.788413306392449e-04, -5.500026207780651e-05, 2.471887425086362e+01, -2.092834495933288e+01, 5.454946955491876e+01, 1.182634649268986e+02
289, 1.000000000002848e-04, 9.199999999998171e-03, 8.784081952839029e-04, -6.157223252665224e-05, 2.402192462462043e+01, -7.090038945370968e+01, 4.073936525206882e+01, 1.250960800127288e+02
290, 1.500000000001625e-04, 9.199999999997726e-03, 8.779757665078697e-04, -6.814476415079118e-05, 2.150885813433540e+01, -1.185351128261377e+02, 2.225313448095475e+01, 1.469459825217677e+02
291, 2.000000000000664e-04, 9.199999999997280e-03, 8.775439825831826e-04, -7.471809732942285e-05, 1.694358402555687e+01, -1.633588119543658e+02, -8.053111610148100e-01, 1.803095895962415e+02
292, -1.999999999999080e-04, 9.100000000001274e-03, 8.678695702014254e-04, -2.128168377493626e-05, 1.044361933728716e+01, 2.892073390653099e+02, 5.843263790830736e+01, 3.022692576632581e+02
293, -1.499999999998017e-04, 9.100000000000802e-03, 8.674320813888082e-04, -2.785249927047908e-05, 1.548238343570268e+01, 2.240479135167451e+02, 6.966907233101574e+01, 2.508280265357989e+02
294, -9.999999999965405e-05, 9.100000000000334e-03, 8.669955961553111e-04, -3.442260146611474e-05, 1.979800863668115e+01, 1.588828880625494e+02, 7.528005760269374e+01, 2.049706124681484e+02
295, -4.999999999954905e-05, 9.099999999999862e-03, 8.665601069473874e-04, -4.099226188994792e-05, 2.313414957485272e+01, 9.420909584692630e+01, 7.535466842567133e+01, 1.666281854961807e+02
296, 5.257025283839090e-16, 9.099999999999390e-03, 8.661255945278326e-04, -4.756175099328523e-05, 2.524589511126033e+01, 3.052731208270954e+01, 6.998316472018128e+01, 1.400659371233221e+02
297, 5.000000000038422e-05, 9.099999999998916e-03, 8.656920280697395e-04, -5.413133798140664e-05, 2.589027762911119e+01, -3.166547117484529e+01, 5.925878358795781e+01, 1.317538536426233e+02
298, 1.000000000002772e-04, 9.099999999998446e-03, 8.652593652278264e-04, -6.070129068002427e-05, 2.482522213086579e+01, -9.187620085488057e+01, 4.327803227326537e+01, 1.452968493694247e+02
299, 1.500000000001581e-04, 9.099999999997978e-03, 8.648275521947654e-04, -6.727187537710003e-05, 2.180900601526361e+01, -1.496151455452210e+02, 2.214150167926217e+01, 1.770514730937957e+02
300, 2.000000000000645e-04, 9.099999999997506e-03, 8.643965237301236e-04, -7.384335664138415e-05, 1.659920089999281e+01, -2.043950208525058e+02, -4.045093641185021e+00, 2.211422555240322e+02
301, -1.999999999999099e-04, 9.000000000001736e-03, 8.547237592526889e-04, -2.042513703881383e-05, 1.171432854943968e+01, 3.353277750463164e+02, 6.712686454536534e+01, 3.503565705511375e+02
302, -1.499999999998060e-04, 9.000000000001264e-03, 8.542859848485149e-04, -2.699356161025299e-05, 1.699430317870814e+01, 2.583448374165131e+02, 7.855416213390144e+01, 2.879810860648855e+02
303, -9.999999999966160e-05, 9.000000000000792e-03, 8.538493862956203e-04, -3.356122148480138e-05, 2.142205211117294e+01, 1.814623684056623e+02, 8.384991886467360e+01, 2.318105657947660e+02
304, -4.999999999955923e-05, 9.000000000000320e-03, 8.534139532585501e-04, -4.012841338898259e-05, 2.474944795283895e+01, 1.051884850154384e+02, 8.310773572052663e+01, 1.846564963112044e+02
305, 5.128818376942679e-16, 8.999999999999852e-03, 8.529796636208245e-04, -4.669543273141286e-05, 2.672729578018578e+01, 3.002575657003291e+01, 7.642219135308605e+01, 1.528799698077317e+02
306, 5.000000000037403e-05, 8.999999999999380e-03, 8.525464835538735e-04, -5.326257355643790e-05, 2.710915554179686e+01, -4.352418455714453e+01, 6.388969518160454e+01, 1.460021963366514e+02
307, 1.000000000002695e-04, 8.999999999998908e-03, 8.521143675622166e-04, -5.983012844021783e-05, 2.564964421653315e+01, -1.149613813118146e+02, 4.560931087013861e+01, 1.676075697942353e+02
308, 1.500000000001538e-04, 8.999999999998436e-03, 8.516832585105260e-04, -6.639838837665562e-05, 2.210366334424274e+01, -1.837872354758010e+02, 2.168315753418213e+01, 2.104084111900808e+02
309, 2.000000000000626e-04, 8.999999999997964e-03, 8.512530876296423e-04, -7.296764265581166e-05, 1.622503325799357e+01, -2.495041554914258e+02, -7.783524628059755e+00, 2.661847756276964e+02
310, -1.999999999999118e-04, 8.900000000002187e-03, 8.415823273554571e-04, -1.957091199053379e-05, 1.305984605049887e+01, 3.854093357814317e+02, 7.631162995549840e+01, 4.024152109062799e+02
311, -1.499999999998104e-04, 8.900000000001712e-03, 8.411442734134372e-04, -2.613652393599036e-05, 1.858028594118254e+01, 2.955769905151705e+02, 8.781815139882568e+01, 3.279867149829051e+02
312, -9.999999999966923e-05, 8.900000000001240e-03, 8.407075824158878e-04, -3.270132083927474e-05, 2.311827810794875e+01, 2.059618665981645e+02, 9.268659167177299e+01, 2.603747202684993e+02
313, -4.999999999956943e-05, 8.900000000000770e-03, 8.402722410494270e-04, -3.926562467762612e-05, 2.642477736269057e+01, 1.170725226282545e+02, 9.101287922727550e+01, 2.033479541640021e+02
314, 5.000475944774707e-16, 8.900000000000293e-03, 8.398382241781062e-04, -4.582975603862371e-05, 2.825186494071521e+01, 2.941739458684366e+01, 8.289379692218517e+01, 1.657916907811182e+02
315, 5.000000000036387e-05, 8.899999999999823e-03, 8.394054948586506e-04, -5.239403407077956e-05, 2.835139846421030e+01, -5.649674430863811e+01, 6.842771752338531e+01, 1.610236548890955e+02
316, 1.000000000002620e-04, 8.899999999999349e-03, 8.389740043592599e-04, -5.895877641363977e-05, 2.647573165247608e+01, -1.401638797503289e+02, 4.771509864060842e+01, 1.920304211358446e+02
317, 1.500000000001494e-04, 8.899999999998874e-03, 8.385436921710997e-04, -6.552429911103378e-05, 2.237754835053518e+01, -2.210784308858967e+02, 2.085872641258612e+01, 2.470043718159466e+02
318, 2.000000000000606e-04, 8.899999999998404e-03, 8.381144860103425e-04, -7.209091652741181e-05, 1.581035841306733e+01, -2.987342114866437e+02, -1.203639022048601e+01, 3.154643961076328e+02
319, -1.999999999999137e-04, 8.800000000002590e-03, 8.284461243152720e-04, -1.871926255319334e-05, 1.450241688644059e+01, 4.395297230822409e+02, 8.600314944538269e+01, 4.585132254037586e+02
320, -1.499999999998147e-04, 8.800000000002060e-03, 8.280078007291280e-04, -2.528160401936574e-05, 2.024625534642500e+01, 3.358109119369278e+02, 9.747193567399016e+01, 3.709233956832863e+02
321, -9.999999999967683e-05, 8.800000000001532e-03, 8.275710419339514e-04, -3.184308136587248e-05, 2.487714435534804e+01, 2.324291113497888e+02, 1.017957274505531e+02, 2.907357898711658e+02
322, -4.999999999957961e-05, 8.800000000001001e-03, 8.271358315978335e-04, -3.840404189897328e-05, 2.814730998395204e+01, 1.298968851789130e+02, 9.907068113646163e+01, 2.227397034561302e+02
323, 4.872540088421418e-16, 8.800000000000474e-03, 8.267021414990142e-04, -4.496483153922188e-05, 2.980737007166226e+01, 2.872603531561506e+01, 8.939422105011438e+01, 1.787917120939376e+02
324, 5.000000000035368e-05, 8.799999999999947e-03, 8.262699315218445e-04, -5.152579475958095e-05, 2.960773000945499e+01, -7.057195892693532e+01, 7.286554925650015e+01, 1.768432162939753e+02
325, 1.000000000002544e-04, 8.799999999999419e-03, 8.258391496582141e-04, -5.808727451371212e-05, 2.729878985220194e+01, -1.674860292916973e+02, 4.958584678274944e+01, 2.185775619169789e+02
326, 1.500000000001451e-04, 8.799999999998892e-03, 8.254097320117302e-04, -6.464961215818624e-05, 2.263144254795035e+01, -2.615050867061009e+02, 1.965840190501117e+01, 2.868438221722304e+02
327, 2.000000000000587e-04, 8.799999999998365e-03, 8.249816028033877e-04, -7.121314737062986e-05, 1.535767077683023e+01, -3.521175925185906e+02, -1.681133927526682e+01, 3.690102351520231e+02
328, -1.999999999999156e-04, 8.700000000002964e-03, 8.153160717180697e-04, -1.787045400421906e-05, 1.599746656304644e+01, 4.977024705815982e+02, 9.621429690104092e+01, 5.187181070766275e+02
329, -1.499999999998191e-04, 8.700000000002345e-03, 8.148774920490243e-04, -2.442903095591584e-05, 2.195408229930354e+01, 3.790638063513923e+02, 1.075269387911461e+02, 4.168639169749985e+02
330, -9.999999999968445e-05, 8.700000000001731e-03, 8.144406938957535e-04, -3.098669601277778e-05, 2.666889701884334e+01, 2.608827755520201e+02, 1.111860577643442e+02, 3.229636181712393e+02
331, -4.999999999958977e-05, 8.700000000001117e-03, 8.140056578895837e-04, -3.754382193775338e-05, 2.989240272074298e+01, 1.436758029873506e+02, 1.072865192624842e+02, 2.428749699702886e+02
332, 4.743926605710325e-16, 8.700000000000502e-03, 8.135723526891653e-04, -4.410078014987896e-05, 3.137381731524558e+01, 2.795896817950496e+01, 9.592568786532668e+01, 1.918817645435965e+02
333, 5.000000000034347e-05, 8.699999999999888e-03, 8.131407349679425e-04, -5.065794064083999e-05, 3.086182079377476e+01, -8.575193550002729e+01, 7.720304294080201e+01, 1.934942053763562e+02
334, 1.000000000002468e-04, 8.699999999999274e-03, 8.127107494120361e-04, -5.721567189153015e-05, 2.810511834180171e+01, -1.969412029823657e+02, 5.122015886288239e+01, 2.472647678851479e+02
335, 1.500000000001407e-04, 8.699999999998657e-03, 8.122823287214637e-04, -6.377434079007333e-05, 2.285255260098133e+01, -3.050932613148626e+02, 1.808073285247184e+01, 3.299334909748557e+02
336, 2.000000000000568e-04, 8.699999999998044e-03, 8.118553936128766e-04, -7.033431254630480e-05, 1.485324140397189e+01, -4.096926362057613e+02, -2.210922756704797e+01, 4.268424463076097e+02
337, -1.999999999999175e-04, 8.600000000003331e-03, 8.021931615583754e-04, -1.702476254976385e-05, 1.755409036667447e+01, 5.599747595820043e+02, 1.069555604730287e+02, 5.830764530114425e+02
338, -1.499999999998235e-04, 8.600000000002632e-03, 8.017543434900048e-04, -2.357904466327528e-05, 2.370649508643655e+01, 4.253723014683397e+02, 1.179947475334002e+02, 4.658609897794706e+02
339, -9.999999999969208e-05, 8.600000000001931e-03, 8.013175385955474e-04, -3.013236835051921e-05, 2.849133728350737e+01, 2.913497051463551e+02, 1.208671764781657e+02, 3.571134538976883e+02
340, -4.999999999959999e-05, 8.600000000001230e-03, 8.008827244837670e-04, -3.668513202251641e-05, 3.165499801853472e+01, 1.584269137947676e+02, 1.156674117039345e+02, 2.637933265848973e+02
341, 4.615584173542353e-16, 8.600000000000526e-03, 8.004498666789196e-04, -4.323773279294946e-05, 3.294380166138831e+01, 2.712376952477466e+01, 1.024926689410086e+02, 2.050679436691069e+02
342, 5.000000000033329e-05, 8.599999999999825e-03, 8.000189186221200e-04, -4.979056636760794e-05, 3.210430885854687e+01, -1.020397675620636e+02, 8.144256634930019e+01, 2.110123211876009e+02
343, 1.000000000002392e-04, 8.599999999999124e-03, 7.995898216714119e-04, -5.634402695417023e-05, 2.888317964690717e+01, -2.285437849594599e+02, 5.261891050464288e+01, 2.781072474374413e+02
344, 1.500000000001364e-04, 8.599999999998423e-03, 7.991625051033719e-04, -6.289850717591207e-05, 2.302716399183213e+01, -3.518684527694734e+02, 1.612563013635706e+01, 3.762803041032283e+02
345, 2.000000000000548e-04, 8.599999999997722e-03, 7.987368861137849e-04, -6.945439799025770e-05, 1.428231933348991e+01, -4.714945944582934e+02, -2.793123525846911e+01, 4.889783487899290e+02
346, -1.999999999999195e-04, 8.500000000003703e-03, 7.890784574319191e-04, -1.618247487646031e-05, 1.917138395703482e+01, 6.263754780899542e+02, 1.182332857033639e+02, 6.516235503146218e+02
347, -1.499999999998278e-04, 8.500000000002915e-03, 7.886394229541083e-04, -2.273189538009832e-05, 2.550795129181121e+01, 4.747630426477899e+02, 1.288811457710362e+02, 5.179493566462739e+02
348, -9.999999999969967e-05, 8.500000000002127e-03, 7.882026483491480e-04, -2.928031207898841e-05, 3.034969756699098e+01, 3.238516562347312e+02, 1.308441167100357e+02, 3.932227501713471e+02
349, -4.999999999961013e-05, 8.500000000001340e-03, 7.877681081896145e-04, -3.582814930138061e-05, 3.343880480709435e+01, 1.741649386565329e+02, 1.242170320412293e+02, 2.855229044135290e+02
350, 4.487512791917503e-16, 8.500000000000552e-03, 7.873357648570266e-04, -4.237583006915581e-05, 3.451935984265241e+01, 2.622727862988531e+01, 1.090973803077419e+02, 2.183522662371229e+02
351, 5.000000000032310e-05, 8.499999999999765e-03, 7.869055685485585e-04, -4.892377600727638e-05, 3.333567700201991e+01, -1.194371531682029e+02, 8.558489988051180e+01, 2.294311181780899e+02
352, 1.000000000002316e-04, 8.499999999998977e-03, 7.864774572823398e-04, -5.547240725044871e-05, 2.963230317900419e+01, -2.623042492516490e+02, 5.378152927546736e+01, 3.111217803528505e+02
353, 1.500000000001320e-04, 8.499999999998190e-03, 7.860513569002595e-04, -6.202214235741623e-05, 2.315398439761231e+01, -4.018499055744024e+02, 1.379131794899845e+01, 4.258980022193411e+02
354, 2.000000000000531e-04, 8.499999999997402e-03, 7.856271810704194e-04, -6.857339822953004e-05, 1.364592695920686e+01, -5.375497120243371e+02, -3.427983001637615e+01, 5.554431198766296e+02
355, -1.999999999999213e-04, 8.400000000004074e-03, 7.759730954598288e-04, -1.534388794129681e-05, 2.089478009884805e+01, 6.969762134734867e+02, 1.300425072042751e+02, 7.243827160236513e+02
356, -1.499999999998322e-04, 8.400000000003200e-03, 7.755338711231011e-04, -2.188784334280110e-05, 2.739224473962278e+01, 5.272884148482093e+02, 1.401828316189139e+02, 5.731501426432867e+02
357, -9.999999999970726e-05, 8.400000000002326e-03, 7.750971684281549e-04, -2.843075072583038e-05, 3.226703719381587e+01, 3.584244346814646e+02, 1.411144486149036e+02, 4.313140368310185e+02
358, -4.999999999962035e-05, 8.400000000001451e-03, 7.746629589203541e-04, -3.497306056149898e-05, 3.526029561997919e+01, 1.909131228838295e+02, 1.329336913711386e+02, 3.080799698803195e+02
359, 4.359305885021092e-16, 8.400000000000581e-03, 7.742312018431863e-04, -4.151522200992914e-05, 3.611284952029884e+01, 2.528219763722356e+01, 1.157384884616717e+02, 2.317302178521016e+02
360, 5.000000000031294e-05, 8.399999999999703e-03, 7.738018441571359e-04, -4.805768282388760e-05, 3.456639739866711e+01, -1.379405024046084e+02, 8.962887034096744e+01, 2.487809640509682e+02
361, 1.000000000002240e-04, 8.399999999998832e-03, 7.733748205482129e-04, -5.460088926820772e-05, 3.036307922894402e+01, -2.982270548474056e+02, 5.470689442827142e+01, 3.463276676851816e+02
362, 1.500000000001277e-04, 8.399999999997958e-03, 7.729500534328027e-04, -6.114528603690351e-05, 2.324541296071948e+01, -4.550493691216560e+02, 1.107668569591818e+01, 4.788075505161250e+02
363, 2.000000000000511e-04, 8.399999999997083e-03, 7.725274529613651e-04, -6.769131617043013e-05, 1.295703607901749e+01, -6.078786393683688e+02, -4.115541864100702e+01, 6.262683209633699e+02
364, -1.999999999999233e-04, 8.300000000004210e-03, 7.628782871310272e-04, -1.450930952008709e-05, 2.266904504752595e+01, 7.717668218875669e+02, 1.423855850519396e+02, 8.014000864668186e+02
365, -1.499999999998365e-04, 8.300000000003279e-03, 7.624389035148709e-04, -2.104715921052539e-05, 2.932314827414957e+01, 5.829456855984699e+02, 1.518982779834377e+02, 6.314984253747219e+02
366, -9.999999999971485e-05, 8.300000000002344e-03, 7.620023186158593e-04, -2.758391786915311e-05, 3.422322105483119e+01, 3.950705706009379e+02, 1.516759811232209e+02, 4.714161883868826e+02
367, -4.999999999963053e-05, 8.300000000001409e-03, 7.615685008890687e-04, -3.412006234529720e-05, 3.710804160559783e+01, 2.086737130033770e+02, 1.418150449708132e+02, 3.314827409119000e+02
368, 4.231098978124681e-16, 8.300000000000474e-03, 7.611374064145770e-04, -4.065606812810769e-05, 3.771776390459879e+01, 2.428744430865746e+01, 1.224140537129860e+02, 2.451961983192897e+02
369, 5.000000000030276e-05, 8.299999999999542e-03, 7.607089789068848e-04, -4.719240929294973e-05, 3.579271271316457e+01, -1.575561544831275e+02, 9.357325582780867e+01, 2.690866055212625e+02
370, 1.000000000002164e-04, 8.299999999998609e-03, 7.602831497217799e-04, -5.372955842676072e-05, 3.107329082673699e+01, -3.363251480713640e+02, 5.539476652638128e+01, 3.837394083734570e+02
371, 1.500000000001233e-04, 8.299999999997672e-03, 7.598598378592218e-04, -6.026798655298423e-05, 2.329997088479777e+01, -5.114875097867230e+02, 7.982661475433883e+00, 5.350257386518126e+02
372, 2.000000000000492e-04, 8.299999999996739e-03, 7.594389499626833e-04, -6.680816305092373e-05, 1.221273303944782e+01, -6.825114327688976e+02, -4.855676591094915e+01, 7.014789409675991e+02
373, -1.999999999999252e-04, 8.200000000004194e-03, 7.497953174135966e-04, -1.367905788310416e-05, 2.456440640191337e+01, 8.508422411404814e+02, 1.552548809254888e+02, 8.826955151041651e+02
374, -1.499999999998408e-04, 8.200000000003217e-03, 7.493558097168228e-04, -2.021012383997697e-05, 3.134458655317884e+01, 6.418003758480745e+02, 1.640221564914685e+02, 6.930146765863630e+02
375, -9.999999999972244e-05, 8.200000000002240e-03, 7.489193930578428e-04, -2.674005708125897e-05, 3.624192737917384e+01, 4.338317937895645e+02, 1.625232203859386e+02, 5.135493068155167e+02
376, -4.999999999964069e-05, 8.200000000001265e-03, 7.484860328129798e-04, -3.326936095949784e-05, 3.899390211680695e+01, 2.274713474329624e+02, 1.508561940355148e+02, 3.557444483170862e+02
377, 4.102892071228270e-16, 8.200000000000287e-03, 7.480556819031487e-04, -3.979853747516279e-05, 3.933857967504859e+01, 2.325443846847674e+01, 1.291199028519075e+02, 2.587402111158933e+02
378, 5.000000000029257e-05, 8.199999999999309e-03, 7.476282808029762e-04, -4.632808720292337e-05, 3.701391535222132e+01, -1.782840404063523e+02, 9.741481322637040e+01, 2.903649309016762e+02
379, 1.000000000002088e-04, 8.199999999998328e-03, 7.472037575484271e-04, -5.285850922978351e-05, 3.175805812122913e+01, -3.766090664435677e+02, 5.584299934809113e+01, 4.233644655968234e+02
380, 1.500000000001190e-04, 8.199999999997352e-03, 7.467820277379790e-04, -5.939030109137119e-05, 2.330899729415042e+01, -5.711854384457424e+02, 4.508233184194811e+00, 5.945628064313021e+02
381, 2.000000000000473e-04, 8.199999999996377e-03, 7.463629945259865e-04, -6.592395870635887e-05, 1.140411083169339e+01, -7.614776544022591e+02, -5.648397104962665e+01, 7.810940909860288e+02
382, -1.999999999999271e-04, 8.100000000004175e-03, 7.367255485568665e-04, -1.285346209092654e-05, 2.650602759689849e+01, 9.341802094620123e+02, 1.686510295150243e+02, 9.683207626868350e+02
383, -1.499999999998452e-04, 8.100000000003150e-03, 7.362859558534171e-04, -1.937702865505896e-05, 3.340641765751096e+01, 7.038437323098201e+02, 1.765508039621849e+02, 7.577380407482356e+02
384, -9.999999999973005e-05, 8.100000000002133e-03, 7.358497619920846e-04, -2.589942216001476e-05, 3.829018389718515e+01, 4.747049528552537e+02, 1.736522357522766e+02, 5.577438896947067e+02
385, -4.999999999965090e-05, 8.100000000001112e-03, 7.354169292266431e-04, -3.242117264749614e-05, 4.089644531891456e+01, 2.473049383911032e+02, 1.600527240084330e+02, 3.808831367524825e+02
386, 3.974685164331859e-16, 8.100000000000092e-03, 7.349874072849525e-04, -3.894280877860711e-05, 4.096095572235342e+01, 2.218080719292043e+01, 1.358515994762297e+02, 2.723514683268429e+02
387, 5.000000000028236e-05, 8.099999999999071e-03, 7.345611333873625e-04, -4.546485777944796e-05, 3.822028971857127e+01, -2.001297579277881e+02, 1.011494427074056e+02, 3.126269090355094e+02
388, 1.000000000002012e-04, 8.099999999998051e-03, 7.341380322512011e-04, -5.198784539141776e-05, 3.241105151715191e+01, -4.190888040274385e+02, 5.604813126480768e+01, 4.652071491603440e+02
389, 1.500000000001146e-04, 8.099999999997031e-03, 7.337180160891140e-04, -5.851229582127009e-05, 2.326970491934992e+01, -6.341578848891623e+02, 6.508907023451798e-01, 6.574288786448728e+02
390, 2.000000000000454e-04, 8.099999999996011e-03, 7.333009846004784e-04, -6.503873169421753e-05, 1.053235442047491e+01, -8.447978759980742e+02, -6.493768074853000e+01, 8.651343321079337e+02
391, -1.999999999999291e-04, 8.000000000004158e-03, 7.236704173548522e-04, -1.203286196892299e-05, 2.849768618441752e+01, 1.021803925426255e+03, 1.825798536292201e+02, 1.058300003175769e+03
392, -1.499999999998495e-04, 8.000000000003093e-03, 7.232307831013277e-04, -1.854817541844075e-05, 3.550551057898500e+01, 7.690892857587019e+02, 1.894880461032434e+02, 8.256924570752873e+02
393, -9.999999999973761e-05, 8.000000000002028e-03, 7.227948710453297e-04, -2.506227697185271e-05, 4.036774549353330e+01, 5.177041934468923e+02, 1.850628080380585e+02, 6.040223971182319e+02
394, -4.999999999966106e-05, 8.000000000000966e-03, 7.223626402528164e-04, -3.157572347464426e-05, 4.281506303487028e+01, 2.681848628728559e+02, 1.694023510316495e+02, 4.069154369389474e+02
395, 3.846478257435448e-16, 7.999999999999901e-03, 7.219340372388151e-04, -3.808907035760504e-05, 4.258427031506416e+01, 2.107223453349042e+01, 1.426060285773340e+02, 2.860221761155336e+02
396, 5.000000000027218e-05, 7.999999999998840e-03, 7.215089959678285e-04, -4.460287161481123e-05, 3.941158604542613e+01, -2.230929988613366e+02, 1.047740758543524e+02, 3.358855236261399e+02
397, 1.000000000001936e-04, 7.999999999997775e-03, 7.210874378530158e-04, -5.111767976568814e-05, 3.303292778949766e+01, -4.637698272153024e+02, 5.600781450382046e+01, 5.092744628609772e+02
398, 1.500000000001103e-04, 7.999999999996709e-03, 7.206692717495766e-04, -5.763404581654034e-05, 2.318387634956112e+01, -7.004166971435960e+02, -3.590270535142579e+00, 7.236362001238523e+02
399, 2.000000000000435e-04, 7.999999999995648e-03, 7.202543939456144e-04, -6.415251922016622e-05, 9.599816147935577e+00, -9.324912125909651e+02, -7.391655447723316e+01, 9.536194914815150e+02
400, -1.999999999999309e-04, 7.900000000004136e-03, 7.106314355536818e-04, -1.121760654114542e-05, 3.064820998732857e+01, 1.113827069666814e+03, 1.970207185113221e+02, 1.152625306050245e+03
401, -1.499999999998538e-04, 7.900000000003030e-03, 7.101918082264599e-04, -1.772387529367442e-05, 3.772389580936256e+01, 8.376274616863766e+02, 2.028173086335398e+02, 8.968752184268292e+02
402, -9.999999999974523e-05, 7.900000000001926e-03, 7.097562417480277e-04, -2.422889486514580e-05, 4.252120249409951e+01, 5.628870375555896e+02, 1.967422534861217e+02, 6.523884268795940e+02
403, -4.999999999967128e-05, 7.900000000000816e-03, 7.093246920784827e-04, -3.073324896390591e-05, 4.477656341139496e+01, 2.901476571109696e+02, 1.788956043632312e+02, 4.338450445323404e+02
404, 3.718271350539037e-16, 7.899999999999709e-03, 7.088971025747817e-04, -3.723751989312006e-05, 4.422359790714168e+01, 1.995002256332042e+01, 1.493763231014873e+02, 2.997371349587032e+02
405, 5.000000000026201e-05, 7.899999999998603e-03, 7.084734039963162e-04, -4.374228851901600e-05, 4.059646073374707e+01, -2.471639769632656e+02, 1.082841717780749e+02, 3.601498534419122e+02
406, 1.000000000001860e-04, 7.899999999997496e-03, 7.080535144999384e-04, -5.024813424910645e-05, 3.362921377597094e+01, -5.106516237354336e+02, 5.571979260454336e+01, 5.555721476403307e+02
407, 1.500000000001060e-04, 7.899999999996389e-03, 7.076373396326930e-04, -5.675563500134504e-05, 2.305558599896832e+01, -7.699694912809757e+02, -8.215140971443226e+00, 7.931952643325501e+02
408, 2.000000000000416e-04, 7.899999999995286e-03, 7.072247723213341e-04, -6.326536716893469e-05, 8.609275404251463e+00, -1.024573080030366e+03, -8.341776111749861e+01, 1.046565750949670e+03
409, -1.999999999999328e-04, 7.800000000004094e-03, 6.976101960548487e-04, -1.040805571370056e-05, 3.278638902343229e+01, 1.210147619944995e+03, 2.119749447125239e+02, 1.251364446043057e+03
410, -1.499999999998583e-04, 7.800000000002947e-03, 6.971706273810632e-04, -1.690444997192095e-05, 3.993621023611159e+01, 9.093890012113498e+02, 2.165339959537914e+02, 9.713372438805677e+02
411, -9.999999999975283e-05, 7.800000000001799e-03, 6.967354739231271e-04, -2.339955935560121e-05, 4.467183460885758e+01, 6.102155130783183e+02, 2.086865768420039e+02, 7.028797917659199e+02
412, -4.999999999968147e-05, 7.800000000000654e-03, 6.963046884743852e-04, -2.989399451451399e-05, 4.673013068218764e+01, 3.131711937799579e+02, 1.885292417837759e+02, 4.616968054198899e+02
413, 3.590064443642627e-16, 7.799999999999507e-03, 6.958782112226479e-04, -3.638836467937636e-05, 4.584598519522149e+01, 1.879959753989668e+01, 1.561604294827675e+02, 3.134897542666614e+02
414, 5.000000000025183e-05, 7.799999999998360e-03, 6.954559697283578e-04, -4.288327767326120e-05, 4.175348993012720e+01, -2.723548130819016e+02, 1.116791138478520e+02, 3.854256399105572e+02
415, 1.000000000001784e-04, 7.799999999997211e-03, 6.950378789109896e-04, -4.937933988484649e-05, 3.418614869323016e+01, -5.597468301493992e+02, 5.518517393664786e+01, 6.041009824909670e+02
416, 1.500000000001016e-04, 7.799999999996065e-03, 6.946238410379594e-04, -5.587715623944402e-05, 2.287697933393351e+01, -8.428305006948696e+02, -1.322057082685053e+01, 8.661111793238623e+02
417, 2.000000000000397e-04, 7.799999999994919e-03, 6.942137457140022e-04, -6.237733017198475e-05, 7.557521203955567e+00, -1.121059968211199e+03, -9.343627936383700e+01, 1.143983737043143e+03
418, -1.999999999999347e-04, 7.700000000003952e-03, 6.846083651717005e-04, -9.604579653910925e-06, 3.499338498520093e+01, 1.310853133169087e+03, 2.274426714594835e+02, 1.354525294056318e+03
419, -1.499999999998626e-04, 7.700000000002785e-03, 6.841689114581100e-04, -1.609023116657365e-05, 4.218811170730703e+01, 9.844309476139318e+02, 2.306432888513023e+02, 1.049098121524359e+03
420, -9.999999999976044e-05, 7.700000000001617e-03, 6.837342428727584e-04, -2.257456383956281e-05, 4.684097639313653e+01, 6.597249128172552e+02, 2.208987792160094e+02, 7.555208813548546e+02
421, -4.999999999969162e-05, 7.700000000000449e-03, 6.833043091154089e-04, -2.905821520555353e-05, 4.868447186683248e+01, 3.372761474452218e+02, 1.983057332461600e+02, 4.904954745625397e+02
422, 3.461857536746216e-16, 7.699999999999279e-03, 6.828790472496385e-04, -3.554182148441066e-05, 4.745334274447609e+01, 1.763083267749373e+01, 1.629607492108452e+02, 3.272830659232695e+02
423, 5.000000000024164e-05, 7.699999999998113e-03, 6.824583816724040e-04, -4.202601753126643e-05, 4.288067203503631e+01, -2.986645253932134e+02, 1.149616394163995e+02, 4.117254376833269e+02
424, 1.000000000001708e-04, 7.699999999996944e-03, 6.820422240959904e-04, -4.851143680260195e-05, 3.469877020557394e+01, -6.110626492315675e+02, 5.440729408336764e+01, 6.548651963811850e+02
425, 1.500000000000973e-04, 7.699999999995776e-03, 6.816304735355698e-04, -5.499871132028341e-05, 2.263945835934261e+01, -9.190154950713219e+02, -1.860231540866530e+01, 9.423896412178780e+02
426, 2.000000000000377e-04, 7.699999999994609e-03, 6.812230163009731e-04, -6.148847163708819e-05, 6.434566849068709e+00, -1.221973906826480e+03, -1.039665092651380e+02, 1.245882626250564e+03
427, -1.999999999999367e-04, 7.600000000003967e-03, 6.716276864651209e-04, -8.807557532088170e-06, 3.725825961000986e+01, 1.415952691975539e+03, 2.434167357093874e+02, 1.462123512815987e+03
428, -1.499999999998669e-04, 7.600000000002791e-03, 6.711884082474972e-04, -1.528155997406630e-05, 4.447921079884262e+01, 1.062771822982375e+03, 2.451385629099991e+02, 1.130173218639462e+03
429, -9.999999999976803e-05, 7.600000000001615e-03, 6.707543006389822e-04, -2.175421107912063e-05, 4.902661757197103e+01, 7.114277587576585e+02, 2.333771121079830e+02, 8.103300424318165e+02
430, -4.999999999970180e-05, 7.600000000000435e-03, 6.703253103467132e-04, -2.822617539851847e-05, 5.063876450954592e+01, 3.624712934111902e+02, 2.082257586692435e+02, 5.202608887613243e+02
431, 3.333650629849805e-16, 7.599999999999259e-03, 6.699013713719254e-04, -3.469811622566247e-05, 4.904712967175698e+01, 1.644923407868509e+01, 1.697797257192042e+02, 3.411205708517880e+02
432, 5.000000000023146e-05, 7.599999999998081e-03, 6.694824049958542e-04, -4.117069554207820e-05, 4.398294249122516e+01, -3.260902230829325e+02, 1.181356027436312e+02, 4.390651778728098e+02
433, 1.000000000001632e-04, 7.599999999996904e-03, 6.690683197660577e-04, -4.764457396739639e-05, 3.517694124044465e+01, -6.645979095447983e+02, 5.339125046001008e+01, 7.078752321519967e+02
434, 1.500000000000929e-04, 7.599999999995727e-03, 6.686590114859399e-04, -5.412041071464218e-05, 2.235964601211631e+01, -9.985236086331730e+02, -2.435425158743213e+01, 1.022044587039476e+03
435, 2.000000000000358e-04, 7.599999999994550e-03, 6.682543632081835e-04, -6.059886354768706e-05, 5.262464797967468e+00, -1.327315544616790e+03, -1.150003871237694e+02, 1.352281223462880e+03
436, -1.999999999999386e-04, 7.500000000004145e-03, 6.586699809100218e-04, -8.017378510456237e-06, 3.951906449309415e+01, 1.525411889097277e+03, 2.598984416935078e+02, 1.574187500328042e+03
437, -1.499999999998712e-04, 7.500000000002950e-03, 6.582309425554541e-04, -1.447878703955466e-05, 4.675723461043130e+01, 1.144378103229711e+03, 2.600241825041488e+02, 1.214587120455484e+03
438, -9.999999999977570e-05, 7.500000000001755e-03, 6.577974760916108e-04, -2.093881316908523e-05, 5.120013265557283e+01, 7.653070662955639e+02, 2.461255151325575e+02, 8.673291125459688e+02
439, -4.999999999971198e-05, 7.500000000000564e-03, 6.573695252340417e-04, -2.739814858914609e-05, 5.257651399508083e+01, 3.887465803515058e+02, 2.182936805243476e+02, 5.510161860976018e+02
440, 3.205443722953394e-16, 7.499999999999370e-03, 6.569470209423741e-04, -3.385748377733110e-05, 5.061787099826965e+01, 1.524719282155267e+01, 1.766226212259118e+02, 3.550116704976450e+02
441, 5.000000000022125e-05, 7.499999999998177e-03, 6.565298814101226e-04, -4.031750793670201e-05, 4.505484494616064e+01, -3.546400693388460e+02, 1.212077023133153e+02, 4.674625684539798e+02
442, 1.000000000001556e-04, 7.499999999996980e-03, 6.561180120543232e-04, -4.677890894475885e-05, 3.561748914954660e+01, -7.203633036668992e+02, 5.214560181862838e+01, 7.631406254835931e+02
443, 1.500000000000885e-04, 7.499999999995787e-03, 6.557113055032954e-04, -5.324237330591491e-05, 2.203526262720175e+01, -1.081369713456673e+03, -3.046563342237917e+01, 1.105086042136975e+03
444, 2.000000000000339e-04, 7.499999999994593e-03, 6.553096415850871e-04, -5.970858609753759e-05, 4.036503273995919e+00, -1.437106098628561e+03, -1.265263738842408e+02, 1.463190928133321e+03
445, -1.999999999999404e-04, 7.400000000004559e-03, 6.457371437301225e-04, -7.234440165233006e-06, 4.189954994839935e+01, 1.639342118273477e+03, 2.768701291606761e+02, 1.690695428746059e+03
446, -1.499999999998756e-04, 7.400000000003323e-03, 6.452984145755661e-04, -1.368227154543008e-05, 4.911730388031201e+01, 1.229333863821282e+03, 2.752894143545627e+02, 1.302324143591606e+03
447, -9.999999999978329e-05, 7.400000000002085e-03, 6.448656741479487e-04, -2.012869079205502e-05, 5.341991294635349e+01, 8.214148025745444e+02, 2.591369912489284e+02, 9.265117761956433e+02
448, -4.999999999972218e-05, 7.400000000000849e-03, 6.444388632669554e-04, -2.657441689044474e-05, 5.453319097909467e+01, 4.161334846847250e+02, 2.285057396480209e+02, 5.827643302539669e+02
449, 3.077507866600104e-16, 7.399999999999613e-03, 6.440179099268708e-04, -3.302016762277944e-05, 5.218546315118219e+01, 1.404131017784105e+01, 1.834886461148083e+02, 3.689543459809561e+02
450, 5.000000000021107e-05, 7.399999999998373e-03, 6.436027293020939e-04, -3.946665951869404e-05, 4.610531269288830e+01, -3.843090414320618e+02, 1.241799011631464e+02, 4.969296807882914e+02
451, 1.000000000001480e-04, 7.399999999997137e-03, 6.431932237396149e-04, -4.591460781471715e-05, 3.602088648557850e+01, -7.783638339134259e+02, 5.067488716074936e+01, 8.206669541137767e+02
452, 1.500000000000842e-04, 7.399999999995899e-03, 6.427892827463497e-04, -5.236472641271202e-05, 2.165948888220882e+01, -1.167568378140797e+03, -3.692976190955893e+01, 1.191519260844270e+03
453, 2.000000000000320e-04, 7.399999999994663e-03, 6.423907829699176e-04, -5.881772783855017e-05, 2.747090011520172e+00, -1.551367094883497e+03, -1.385360628239054e+02, 1.578619606650981e+03
454, -1.999999999999424e-04, 7.300000000004963e-03, 6.328311513196959e-04, -6.459149229845520e-06, 4.431599231376941e+01, 1.757703013222769e+03, 2.943161286913103e+02, 1.811679612362731e+03
455, -1.499999999998800e-04, 7.300000000003675e-03, 6.323928043776582e-04, -1.289238159136350e-05, 5.150871680481059e+01, 1.317619050688700e+03, 2.909169202074106e+02, 1.393400873912254e+03
456, -9.999999999979085e-05, 7.300000000002383e-03, 6.319608787788642e-04, -1.932417341033192e-05, 5.565714507343921e+01, 8.797424882038604e+02, 2.723987221435502e+02, 9.878870927713047e+02
457, -4.999999999973237e-05, 7.300000000001096e-03, 6.315353124465564e-04, -2.575527110181741e-05, 5.649184468065229e+01, 4.446281136095823e+02, 2.388532152060315e+02, 6.155105173066549e+02
458, 2.949029909160572e-16, 7.299999999999806e-03, 6.311160304468143e-04, -3.218641985601527e-05, 5.374025203575016e+01, 1.282914187309774e+01, 1.903727592852353e+02, 3.829371604405053e+02
459, 5.000000000020089e-05, 7.299999999998517e-03, 6.307029449838448e-04, -3.861836363010458e-05, 4.712955072315361e+01, -4.150999775022626e+02, 1.270504122173059e+02, 5.274688291660847e+02
460, 1.000000000001404e-04, 7.299999999997227e-03, 6.302959553904042e-04, -4.505184511996500e-05, 3.638641387883712e+01, -8.386035512928061e+02, 4.898018765006175e+01, 8.804565147013307e+02
461, 1.500000000000799e-04, 7.299999999995936e-03, 6.298949481128820e-04, -5.148760572956730e-05, 2.123687868841529e+01, -1.257124492476495e+03, -4.374287334291510e+01, 1.281351454972369e+03
462, 2.000000000000302e-04, 7.299999999994650e-03, 6.294997966923390e-04, -5.792638554219627e-05, 1.406028750299996e+00, -1.670104333744794e+03, -1.510227614628529e+02, 1.698581287383075e+03
463, -1.999999999999443e-04, 7.200000000005343e-03, 6.199540583516236e-04, -5.691922186935874e-06, 4.675953490188704e+01, 1.880511544903551e+03, 3.122321250176949e+02, 1.937163398827627e+03
464, -1.499999999998843e-04, 7.200000000003976e-03, 6.195161704210622e-04, -1.210949456627682e-05, 5.391222700532506e+01, 1.409238130345553e+03, 3.069020143701071e+02, 1.487838596744527e+03
465, -9.999999999979844e-05, 7.200000000002606e-03, 6.190851523005600e-04, -1.852559949053549e-05, 5.789698587929021e+01, 9.402941197267924e+02, 2.859051107893983e+02, 1.051471174747211e+03
466, -4.999999999974257e-05, 7.200000000001237e-03, 6.186609390268698e-04, -2.494101080618239e-05, 5.844182675510280e+01, 4.742332642239653e+02, 2.493316028051514e+02, 6.492669035935577e+02
467, 2.821094052807283e-16, 7.199999999999870e-03, 6.182434527671562e-04, -3.135650117670631e-05, 5.527475864749977e+01, 1.161124473591342e+01, 1.972723850661307e+02, 3.969534961249570e+02
468, 5.000000000019069e-05, 7.199999999998501e-03, 6.178326028007691e-04, -3.777284206231915e-05, 4.812248104991244e+01, -4.470154599782049e+02, 1.298190512412964e+02, 5.590827531826794e+02
469, 1.000000000001328e-04, 7.199999999997132e-03, 6.174282855023485e-04, -4.419080370123446e-05, 3.671074535643274e+01, -9.010891398461970e+02, 4.706398788660934e+01, 9.425119100092205e+02
470, 1.500000000000756e-04, 7.199999999995762e-03, 6.170303843227950e-04, -5.061115508670593e-05, 2.076434804913595e+01, -1.350050746417070e+03, -5.089950692895073e+01, 1.374589779693867e+03
471, 2.000000000000282e-04, 7.199999999994395e-03, 6.166387697684263e-04, -5.703466394024243e-05, 7.882969187633648e-03, -1.793339153901688e+03, -1.639772041697537e+02, 1.823087405639912e+03
472, -1.999999999999461e-04, 7.100000000005715e-03, 6.071079971322521e-04, -4.933183921835856e-06, 4.927866156669228e+01, 2.007824458330419e+03, 3.306020646803700e+02, 2.067145988725652e+03
473, -1.499999999998886e-04, 7.100000000004259e-03, 6.066706491644362e-04, -1.133399644507089e-05, 5.636098688401751e+01, 1.504235561267228e+03, 3.232327845920594e+02, 1.585641357711733e+03
474, -9.999999999980600e-05, 7.100000000002804e-03, 6.062406352042039e-04, -1.773331604556728e-05, 6.015657324467983e+01, 1.003098583753626e+03, 2.996476012149443e+02, 1.117270949608077e+03
475, -4.999999999975274e-05, 7.100000000001348e-03, 6.058178874925091e-04, -2.413194404804338e-05, 6.039252538353023e+01, 5.049679215138099e+02, 2.599353106529597e+02, 6.840414795474012e+02
476, 2.692616095367750e-16, 7.099999999999895e-03, 6.054023253732013e-04, -3.053068063467471e-05, 5.679523932952026e+01, 1.039968237630671e+01, 2.041850674710675e+02, 4.109972199634159e+02
477, 5.000000000018050e-05, 7.099999999998441e-03, 6.049938552758779e-04, -3.693032482990206e-05, 4.909044402068054e+01, -4.800482625399909e+02, 1.324866901697855e+02, 5.917758554294686e+02
478, 1.000000000001252e-04, 7.099999999996985e-03, 6.045923706955582e-04, -4.333167448312606e-05, 3.700290376345995e+01, -9.658165542563414e+02, 4.493074749501042e+01, 1.006837600442579e+03
479, 1.500000000000712e-04, 7.099999999995530e-03, 6.041977521723226e-04, -4.973552624886139e-05, 2.025645768489093e+01, -1.446344261825419e+03, -5.839137814335237e+01, 1.471242971991397e+03
480, 2.000000000000263e-04, 7.099999999994075e-03, 6.038098672694145e-04, -5.614267556696413e-05, -1.426388538672626e+00, -1.921069230453296e+03, -1.773872090152471e+02, 1.952151000359072e+03
481, -1.999999999999481e-04, 7.000000000006086e-03, 5.942951802903896e-04, -4.183368031214633e-06, 5.180660179147827e+01, 2.139608578169246e+03, 3.494132603038261e+02, 2.201652924162096e+03
482, -1.499999999998929e-04, 7.000000000004546e-03, 5.938584566814898e-04, -1.056628177889126e-05, 5.881057775395249e+01, 1.602593877128735e+03, 3.398987396700637e+02, 1.686828826035908e+03
483, -9.999999999981362e-05, 7.000000000003004e-03, 5.934295471375402e-04, -1.694767856359954e-05, 6.240680497450430e+01, 1.068147924675176e+03, 3.136188335010185e+02, 1.185302615690575e+03
484, -4.999999999976293e-05, 7.000000000001462e-03, 5.930083811511988e-04, -2.332838722245271e-05, 6.232296800769919e+01, 5.368269782935938e+02, 2.706600981192510e+02, 7.198483247414603e+02
485, 2.564544713742900e-16, 6.999999999999921e-03, 5.925948753037956e-04, -2.970923549960485e-05, 5.828541436498230e+01, 9.188972217561343e+00, 2.111097336848250e+02, 4.250643942480315e+02
486, 5.000000000017032e-05, 6.999999999998381e-03, 5.921889332380566e-04, -3.609105003555726e-05, 5.001905101167995e+01, -5.142068138765998e+02, 1.350556008555693e+02, 6.255484696638324e+02
487, 1.000000000001176e-04, 6.999999999996837e-03, 5.917904456357482e-04, -4.247465634804973e-05, 3.724769582048262e+01, -1.032799501532064e+03, 4.258631218610950e+01, 1.073431590975639e+03
488, 1.500000000000668e-04, 6.999999999995296e-03, 5.913992901948825e-04, -4.886087881417462e-05, 1.969406714138785e+01, -1.546026608948579e+03, -6.620872613694317e+01, 1.571310159453673e+03
489, 2.000000000000244e-04, 6.999999999993755e-03, 5.910153316063304e-04, -5.525054065134041e-05, -2.920748081588059e+00, -2.053324335384764e+03, -1.912394813210329e+02, 2.085772045955522e+03
490, -1.999999999999499e-04, 6.900000000006458e-03, 5.815178984098937e-04, -3.442916423681797e-06, 5.437296019460928e+01, 2.275906088893726e+03, 3.686537931029461e+02, 2.340690479022044e+03
491, -1.499999999998973e-04, 6.900000000004828e-03, 5.810818873191331e-04, -9.806753364638203e-06, 6.127481957597706e+01, 1.704340494249599e+03, 3.568912200995220e+02, 1.791410110283847e+03
492, -9.999999999982122e-05, 6.900000000003202e-03, 5.806541861630292e-04, -1.616905069973565e-05, 6.465319572435820e+01, 1.135459859888571e+03, 3.278128441522076e+02, 1.255576343829051e+03
493, -4.999999999977310e-05, 6.900000000001573e-03, 5.802347217827093e-04, -2.253066480010219e-05, 6.423562804284060e+01, 5.698223915865937e+02, 2.815028532803829e+02, 7.566990161818858e+02
494, 2.436337806846489e-16, 6.899999999999946e-03, 5.798234080769021e-04, -2.889245102039260e-05, 5.974692436866792e+01, 7.986686576773991e+00, 2.180461694534014e+02, 4.391533334377403e+02
495, 5.000000000016015e-05, 6.899999999998319e-03, 5.794201459810675e-04, -3.525526366655997e-05, 5.091086833730242e+01, -5.494868685487190e+02, 1.375285170172410e+02, 6.604042810504052e+02
496, 1.000000000001100e-04, 6.899999999996692e-03, 5.790248234437051e-04, -4.161995597870523e-05, 3.745016233208071e+01, -1.102036080047287e+03, 4.003635700219340e+01, 1.142296168294317e+03
497, 1.500000000000625e-04, 6.899999999995065e-03, 5.786373154024052e-04, -4.798738011293445e-05, 1.908641450468596e+01, -1.649096962077413e+03, -7.434308547522303e+01, 1.674796511620668e+03
498, 2.000000000000225e-04, 6.899999999993437e-03, 5.782574837596104e-04, -5.435838712601298e-05, -4.459074654819062e+00, -2.190103138295519e+03, -2.055217970583136e+02, 2.223959713931919e+03
499, -1.999999999999519e-04, 6.800000000006828e-03, 5.687785215181825e-04, -2.712278901276385e-06, 5.694932562010874e+01, 2.416707433993137e+03, 3.883100940844055e+02, 2.484269962524929e+03
500, -1.499999999999017e-04, 6.800000000005111e-03, 5.683433145548015e-04, -9.055821874662489e-06, 6.373400943740430e+01, 1.809470824874710e+03, 3.742003574745411e+02, 1.899394813857689e+03
501, -9.999999999982880e-05, 6.800000000003401e-03, 5.679169292785404e-04, -1.539780390011400e-05, 6.688441676056016e+01, 1.205034726761316e+03, 3.422233838474975e+02, 1.328101466742260e+03
502, -4.999999999978328e-05, 6.800000000001686e-03, 5.674992899454513e-04, -2.173910896214033e-05, 6.612397677340059e+01, 6.039560169494625e+02, 2.924607509569892e+02, 7.946045977977029e+02
503, 2.308130899950078e-16, 6.799999999999972e-03, 5.670903078514744e-04, -2.808062006535688e-05, 6.117687092681717e+01, 6.794507277169743e+00, 2.249951917218328e+02, 4.532645879261910e+02
504, 5.000000000014997e-05, 6.799999999998255e-03, 5.666898813096022e-04, -3.442321922692696e-05, 5.176633223804876e+01, -5.858878503742667e+02, 1.399100592670343e+02, 6.963491619434897e+02
505, 1.000000000001024e-04, 6.799999999996542e-03, 5.662978956239065e-04, -4.076778745905154e-05, 3.761438432780088e+01, -1.173527185707912e+03, 3.728946324816856e+01, 1.213435585000670e+03
506, 1.500000000000582e-04, 6.799999999994830e-03, 5.659142230632148e-04, -4.711520475112475e-05, 1.844193878326729e+01, -1.755557668137586e+03, -8.278165862370528e+01, 1.781708679154173e+03
507, 2.000000000000206e-04, 6.799999999993115e-03, 5.655387228367648e-04, -5.346635004864795e-05, -6.031335796857405e+00, -2.331411781078800e+03, -2.202173816904936e+02, 2.366722838883782e+03
508, -1.999999999999538e-04, 6.700000000007203e-03, 5.560794981553607e-04, -1.991912718203296e-06, 5.956078043765004e+01, 2.562046579572901e+03, 4.083626813407687e+02, 2.632389692450736e+03
509, -1.499999999999060e-04, 6.700000000005407e-03, 5.556451905674720e-04, -8.313905350763459e-06, 6.620908006410298e+01, 1.918013626697027e+03, 3.918123844576866e+02, 2.010782896632065e+03
510, -9.999999999983645e-05, 6.700000000003612e-03, 5.552202322201285e-04, -1.463431698806549e-05, 6.911210527953753e+01, 1.276892366840885e+03, 3.568410633699121e+02, 1.402881084855404e+03
511, -4.999999999979346e-05, 6.700000000001816e-03, 5.548045448884089e-04, -2.095405924030088e-05, 6.799342610260371e+01, 6.392402745214088e+02, 3.035291764933325e+02, 8.335723158546591e+02
512, 2.179923993053667e-16, 6.700000000000018e-03, 5.543980373723809e-04, -2.727404280493001e-05, 6.257672409045992e+01, 5.618624232495762e+00, 2.319568439016633e+02, 4.673971917659670e+02
513, 5.000000000013978e-05, 6.699999999998221e-03, 5.540006054663509e-04, -3.359517745560283e-05, 5.258422533167882e+01, -6.234093024550259e+02, 1.422048676018896e+02, 7.333867650075221e+02
514, 1.000000000000948e-04, 6.699999999996424e-03, 5.536121319294818e-04, -3.991837202777856e-05, 3.773679949927171e+01, -1.247278201678334e+03, 3.435483761867953e+01, 1.286850641186733e+03
515, 1.500000000000538e-04, 6.699999999994629e-03, 5.532324864574402e-04, -4.624453439969871e-05, 1.775390230909983e+01, -1.865420861528025e+03, -9.151076658494517e+01, 1.892047587339406e+03
516, 2.000000000000187e-04, 6.699999999992831e-03, 5.528615256537704e-04, -5.257457147021943e-05, -7.646510902590393e+00, -2.477268200708520e+03, -2.353085181427102e+02, 2.514062784737480e+03
517, -1.999999999999557e-04, 6.600000000007607e-03, 5.434233574049362e-04, -1.282282373587229e-06, 6.219275605652422e+01, 2.711934060029571e+03, 4.287912841260603e+02, 2.785063166132985e+03
518, -1.499999999999103e-04, 6.600000000005753e-03, 5.429900475676393e-04, -7.581429115630228e-06, 6.868622965748457e+01, 2.029978409478426e+03, 4.097098193949964e+02, 2.125585933116209e+03
519, -9.999999999984406e-05, 6.600000000003900e-03, 5.425666303549654e-04, -1.387897601391177e-05, 7.132443788299693e+01, 1.351039401128641e+03, 3.716546884682755e+02, 1.479925409267846e+03
520, -4.999999999980367e-05, 6.600000000002050e-03, 5.421530251784084e-04, -2.017586233526985e-05, 6.983490717905104e+01, 6.756796343688636e+02, 3.147024889295976e+02, 8.736123050974229e+02
521, 2.051717086157256e-16, 6.600000000000198e-03, 5.417491384514291e-04, -2.647302651058301e-05, 6.394004680498938e+01, 4.461325355039065e+00, 2.389306119953233e+02, 4.815486140559015e+02
522, 5.000000000012958e-05, 6.599999999998345e-03, 5.413548635539359e-04, -3.277140612254379e-05, 5.336068267488918e+01, -6.620511346515908e+02, 1.444171990869103e+02, 7.715175810950842e+02
523, 1.000000000000872e-04, 6.599999999996491e-03, 5.409700808016408e-04, -3.907193788627358e-05, 3.781626465521532e+01, -1.323291152819508e+03, 3.124123205410495e+01, 1.362540810480825e+03
524, 1.500000000000495e-04, 6.599999999994639e-03, 5.405946574165107e-04, -4.537555762962021e-05, 1.702494080345807e+01, -1.978689896992242e+03, -1.005174351625304e+02, 2.005814730448585e+03
525, 2.000000000000168e-04, 6.599999999992787e-03, 5.402284474971017e-04, -5.168320027539665e-05, -9.296624265029692e+00, -2.627676465996625e+03, -2.507780171195039e+02, 2.665984143063858e+03
526, -1.999999999999576e-04, 6.500000000008018e-03, 5.308127085628944e-04, -5.838599642516308e-07, 6.479139904155861e+01, 2.866346618261480e+03, 4.495836642896368e+02, 2.942314315487517e+03
527, -1.499999999999147e-04, 6.500000000006126e-03, 5.303804975691828e-04, -6.858825846724966e-06, 7.111955723896767e+01, 2.145344459216530e+03, 4.278853697963140e+02, 2.243825417167463e+03
528, -9.999999999985163e-05, 6.500000000004228e-03, 5.299587385529970e-04, -1.313217419292280e-05, 7.349076774261971e+01, 1.427464049654620e+03, 3.866597186944188e+02, 1.559251936145965e+03
529, -4.999999999981387e-05, 6.500000000002332e-03, 5.295473486477183e-04, -1.940487194681576e-05, 7.162815141952211e+01, 7.132670344340625e+02, 3.259794570550558e+02, 9.147408823725893e+02
530, 1.923510179260846e-16, 6.500000000000438e-03, 5.291462319641952e-04, -2.567788531737138e-05, 6.525361718833742e+01, 3.317425614655747e+00, 2.459189325135077e+02, 4.957222783988879e+02
531, 5.000000000011942e-05, 6.499999999998543e-03, 5.287552795571870e-04, -3.195217974401818e-05, 5.408728508495491e+01, -7.018187287529177e+02, 1.465534330048049e+02, 8.107438169102724e+02
532, 1.000000000000796e-04, 6.499999999996646e-03, 5.283743693930886e-04, -3.822871987484349e-05, 3.784771493416181e+01, -1.401573122853723e+03, 2.795911111897820e+01, 1.440506576116968e+03
533, 1.500000000000451e-04, 6.499999999994751e-03, 5.280033663175732e-04, -4.450846954642708e-05, 1.625196201506338e+01, -2.095375166511539e+03, -1.097869655436181e+02, 2.123012444886418e+03
534, 2.000000000000149e-04, 6.499999999992855e-03, 5.276421220239510e-04, -5.079239176161653e-05, -1.098407170311305e+01, -2.782651698125891e+03, -2.666068558556359e+02, 2.822491504631500e+03
535, -1.999999999999595e-04, 6.400000000008258e-03, 5.182502385879834e-04, 1.028760899926324e-07, 6.740827559792118e+01, 3.025334360553908e+03, 4.707213394451681e+02, 3.104132896913286e+03
536, -1.499999999999190e-04, 6.400000000006336e-03, 5.178192308481790e-04, -6.146534634048401e-06, 7.354844509944735e+01, 2.264150723752394e+03, 4.463270892347057e+02, 2.365495682849238e+03
537, -9.999999999985919e-05, 6.400000000004416e-03, 5.173992502906518e-04, -1.239431114836242e-05, 7.563542734435376e+01, 1.506192169960681e+03, 4.018487658983778e+02, 1.640860236723784e+03
538, -4.999999999982406e-05, 6.400000000002495e-03, 5.169902119004569e-04, -1.864144815733175e-05, 7.338851420085300e+01, 7.520195407922321e+02, 3.373570681458217e+02, 9.569635499663754e+02
539, 1.795438797635995e-16, 6.400000000000575e-03, 5.165920176074053e-04, -2.488893969687001e-05, 6.652789692726873e+01, 2.197633860065167e+00, 2.529233553169482e+02, 5.099208540601458e+02
540, 5.000000000010922e-05, 6.399999999998654e-03, 5.162045562606072e-04, -3.113777911145026e-05, 5.477266521457551e+01, -7.427060350980004e+02, 1.486198321640902e+02, 8.510720859610924e+02
541, 1.000000000000720e-04, 6.399999999996736e-03, 5.158277035958485e-04, -3.738895903419508e-05, 3.784034700587023e+01, -1.482121518222475e+03, 2.451957519153947e+01, 1.520752744537627e+03
542, 1.500000000000408e-04, 6.399999999994814e-03, 5.154613222018211e-04, -4.364347136682870e-05, 1.544685714144933e+01, -2.215476447486965e+03, -1.193034226118432e+02, 2.243647035012809e+03
543, 2.000000000000129e-04, 6.399999999992895e-03, 5.151052614856026e-04, -4.990230726006268e-05, -1.269341359571914e+01, -2.942196015539177e+03, -2.827740319727940e+02, 2.983593488970320e+03
544, -1.999999999999615e-04, 6.300000000008254e-03, 5.057387151857439e-04, 7.774414625542640e-07, 7.003265385467375e+01, 3.188902168528878e+03, 4.921774702023240e+02, 3.270520095988273e+03
545, -1.499999999999234e-04, 6.300000000006307e-03, 5.053090179522571e-04, -5.445000449374056e-06, 7.597139467045051e+01, 2.386407219392681e+03, 4.650133247032657e+02, 2.490594962808330e+03
546, -9.999999999986685e-05, 6.300000000004357e-03, 5.048909389637204e-04, -1.166579241994097e-05, 7.775877179006574e+01, 1.587233147433931e+03, 4.172072762839546e+02, 1.724749412599564e+03
547, -4.999999999983422e-05, 6.300000000002410e-03, 5.044843911711530e-04, -1.788595697536127e-05, 7.511595640671817e+01, 7.919437005105028e+02, 3.488275285380474e+02, 1.000282256855919e+03
548, 1.667096365468024e-16, 6.300000000000461e-03, 5.040892744527695e-04, -2.410651603071287e-05, 6.776237254550867e+01, 1.105143265998890e+00, 2.599424504937151e+02, 5.241407220298107e+02
549, 5.000000000009904e-05, 6.299999999998514e-03, 5.037054755805969e-04, -3.032849088720021e-05, 5.541585525253078e+01, -7.847136907057379e+02, 1.506210748603293e+02, 8.925046144196513e+02
550, 1.000000000000644e-04, 6.299999999996569e-03, 5.033328681866431e-04, -3.655290221667877e-05, 3.779262072366760e+01, -1.564941388530695e+03, 2.093326455386733e+01, 1.603280733583515e+03
551, 1.500000000000364e-04, 6.299999999994618e-03, 5.029713127276574e-04, -4.278077004437024e-05, 1.460722506542825e+01, -2.339003942104202e+03, -1.290502045475753e+02, 2.367720707220485e+03
552, 2.000000000000111e-04, 6.299999999992672e-03, 5.026206564489563e-04, -4.901311372933191e-05, -1.442794490941984e+01, -3.106325073499370e+03, -2.992576439522906e+02, 3.149293318133178e+03
553, -1.999999999999633e-04, 6.200000000008235e-03, 4.932809872282141e-04, 1.439345726115894e-06, 7.265068748621027e+01, 3.357062016590496e+03, 5.139273514776777e+02, 3.441488496150470e+03
554, -1.499999999999277e-04, 6.200000000006244e-03, 4.928527101687631e-04, -4.754674202297415e-06, 7.837144617491629e+01, 2.512119795553670e+03, 4.839241818943623e+02, 2.619133727664992e+03
555, -9.999999999987445e-05, 6.200000000004252e-03, 4.924366583163774e-04, -1.094702937774996e-05, 7.984737166491047e+01, 1.670591155932511e+03, 4.327213194243490e+02, 1.810927041137606e+03
556, -4.999999999984441e-05, 6.200000000002263e-03, 4.920327427111633e-04, -1.713877015489034e-05, 7.680081735726031e+01, 8.330423643102638e+02, 3.603831144329370e+02, 1.044703419163259e+03
557, 1.538618408028491e-16, 6.200000000000271e-03, 4.916408613028314e-04, -2.333094637224822e-05, 6.895037777951586e+01, 4.097734697995747e-02, 2.669745825784254e+02, 5.383773922070554e+02
558, 5.000000000008886e-05, 6.199999999998280e-03, 4.912608989119451e-04, -2.952460733763309e-05, 5.601261696925428e+01, -8.278430012265294e+02, 1.525614612020800e+02, 9.350405079956194e+02
559, 1.000000000000568e-04, 6.199999999996288e-03, 4.908927271937612e-04, -3.572080181503029e-05, 3.770234654075296e+01, -1.650036861330331e+03, 1.721026128673830e+01, 1.688090165293177e+03
560, 1.500000000000321e-04, 6.199999999994299e-03, 4.905362046012197e-04, -4.192057800991265e-05, 1.373259523449613e+01, -2.465965146608536e+03, -1.390116655536250e+02, 2.495235031723747e+03
561, 2.000000000000091e-04, 6.199999999992307e-03, 4.901911763460537e-04, -4.812498355498070e-05, -1.618505504494965e+01, -3.275049289942713e+03, -3.160360929623553e+02, 3.319595058092995e+03
562, -1.999999999999653e-04, 6.100000000008216e-03, 4.808799842576374e-04, 2.088092648240215e-06, 7.523419738464264e+01, 3.529809712435030e+03, 5.359507457519994e+02, 3.617051948296312e+03
563, -1.499999999999321e-04, 6.100000000006179e-03, 4.804532392089284e-04, -4.076012513168457e-06, 8.072479437499521e+01, 2.641285285585330e+03, 5.030449649215490e+02, 2.751124674761033e+03
564, -9.999999999988203e-05, 6.100000000004146e-03, 4.800393422910931e-04, -1.023843895024293e-05, 8.188431762943736e+01, 1.756265410172722e+03, 4.483808790630435e+02, 1.899403510027249e+03
565, -4.999999999985460e-05, 6.100000000002112e-03, 4.796382027519589e-04, -1.640026487923625e-05, 7.843211044428833e+01, 8.753160758453041e+02, 3.720187665795240e+02, 1.090236628013684e+03
566, 1.410275975860520e-16, 6.100000000000079e-03, 4.792497167301758e-04, -2.256256809463085e-05, 7.008586855218061e+01, -9.941009089292834e-01, 2.740200890477516e+02, 5.526304360651367e+02
567, 5.000000000007866e-05, 6.099999999998046e-03, 4.788737672193408e-04, -2.872642595049490e-05, 5.656144269955408e+01, -8.720937027183438e+02, 1.544470308760666e+02, 9.786807040587179e+02
568, 1.000000000000492e-04, 6.099999999996011e-03, 4.785102240296575e-04, -3.489291534798324e-05, 3.757279919011970e+01, -1.737408439243119e+03, 1.336250636376711e+01, 1.775182419667140e+03
569, 1.500000000000277e-04, 6.099999999993980e-03, 4.781589437480371e-04, -4.106311272371378e-05, 1.283204439219418e+01, -2.596361061613859e+03, -1.491697736140461e+02, 2.626194042691777e+03
570, 2.000000000000072e-04, 6.099999999991945e-03, 4.778197696975773e-04, -4.723809403685468e-05, -1.795059707245002e+01, -3.448371385726957e+03, -3.330851660456253e+02, 3.494505644378269e+03
571, -1.999999999999672e-04, 6.000000000008407e-03, 4.685387153997976e-04, 2.723181119789140e-06, 7.780444096368086e+01, 3.707173642053215e+03, 5.582223475928363e+02, 3.797205492888884e+03
572, -1.499999999999365e-04, 6.000000000006308e-03, 4.681136165512395e-04, -3.409476884224033e-06, 8.304806167887773e+01, 2.773926945815166e+03, 5.223574821224622e+02, 2.886565177786192e+03
573, -9.999999999988962e-05, 6.000000000004209e-03, 4.677020046502210e-04, -9.540442941790532e-06, 8.387930392090334e+01, 1.844272719305318e+03, 4.641735937132743e+02, 1.990179257587514e+03
574, -4.999999999986476e-05, 6.000000000002106e-03, 4.673037872909130e-04, -1.567082317624912e-05, 8.001468792575241e+01, 9.187759797353772e+02, 3.837281203780715e+02, 1.136885916050376e+03
575, 1.282204594235670e-16, 6.000000000000007e-03, 4.669188589437768e-04, -2.180172336837760e-05, 7.117083987461513e+01, -1.993915358115601e+00, 2.810788312158208e+02, 5.668988612079521e+02
576, 5.000000000006848e-05, 5.999999999997906e-03, 4.665471009203975e-04, -2.793424895013623e-05, 5.706274024249737e+01, -9.174643461100648e+02, 1.562840834904818e+02, 1.023426548925058e+03
577, 1.000000000000416e-04, 5.999999999995806e-03, 4.661883813321641e-04, -3.406950499780775e-05, 3.740338321025908e+01, -1.827059596930727e+03, 9.402921753773725e+00, 1.864557819984737e+03
578, 1.500000000000234e-04, 5.999999999993707e-03, 4.658425550472771e-04, -4.020859622286606e-05, 1.190367776123733e+01, -2.730200904915429e+03, -1.595048246624544e+02, 2.760598612384419e+03
579, 2.000000000000053e-04, 5.999999999991606e-03, 4.655094636468110e-04, -4.635262696075251e-05, -1.972773547959576e+01, -3.626306560040636e+03, -3.503784747978781e+02, 3.674026554092777e+03
580, -1.999999999999690e-04, 5.900000000008779e-03, 4.562602710795463e-04, 3.344105728032354e-06, 8.036157963700737e+01, 3.889169640820818e+03, 5.807100337316582e+02, 3.981948696310046e+03
581, -1.499999999999408e-04, 5.900000000006594e-03, 4.558369346213794e-04, -2.755533136854658e-06, 8.534370383123110e+01, 2.910061274195186e+03, 5.418360065623046e+02, 3.025454409564353e+03
582, -9.999999999989724e-05, 5.900000000004408e-03, 4.554277397846173e-04, -8.853467507615667e-06, 8.583316496080892e+01, 1.934626338927078e+03, 4.800818438909948e+02, 2.083254786971430e+03
583, -4.999999999987495e-05, 5.900000000002220e-03, 4.550325926606983e-04, -1.495083143472677e-05, 8.154818035878571e+01, 9.634317218663459e+02, 3.955014687348671e+02, 1.184653632024004e+03
584, 1.153862162067698e-16, 5.900000000000033e-03, 4.546513862139064e-04, -2.104875870873656e-05, 7.220473265902484e+01, -2.952279700316183e+00, 2.881487162262903e+02, 5.811775177673503e+02
585, 5.000000000005830e-05, 5.899999999997847e-03, 4.542840002354072e-04, -2.714838287136125e-05, 5.751672018318368e+01, -9.639519750097247e+02, 1.580778794413900e+02, 1.069276745811789e+03
586, 1.000000000000340e-04, 5.899999999995659e-03, 4.539303012975769e-04, -3.325083721220781e-05, 3.719590128691590e+01, -1.918990388036684e+03, 5.343924896000601e+00, 1.956215486256770e+03
587, 1.500000000000191e-04, 5.899999999993472e-03, 4.535901427084554e-04, -3.935725476134767e-05, 1.095188393882754e+01, -2.867487283090692e+03, -1.699974111550054e+02, 2.898449329811928e+03
588, 2.000000000000034e-04, 5.899999999991286e-03, 4.532633644659751e-04, -4.546876828096649e-05, -2.150783049417362e+01, -3.808859118764391e+03, -3.678895694328372e+02, 3.858160276861498e+03
589, -1.999999999999710e-04, 5.800000000009150e-03, 4.440478238321492e-04, 3.950356722146026e-06, 8.287617007934057e+01, 4.075797858955854e+03, 6.033837913053676e+02, 4.171296154906845e+03
590, -1.499999999999452e-04, 5.800000000006880e-03, 4.436263673819039e-04, -2.114651325256674e-06, 8.758467543487649e+01, 3.049688106971619e+03, 5.614571191351696e+02, 3.167805727255383e+03
591, -9.999999999990477e-05, 5.800000000004606e-03, 4.432197231274577e-04, -8.177942952964341e-06, 8.772527769388284e+01, 2.027327388978391e+03, 4.960897631760471e+02, 2.178640989840131e+03
592, -4.999999999988512e-05, 5.800000000002332e-03, 4.428277958187492e-04, -1.424068011135719e-05, 8.301760645007067e+01, 1.009284595015692e+03, 4.073306302519410e+02, 1.233549149191956e+03
593, 1.025655255171287e-16, 5.800000000000059e-03, 4.424504770744124e-04, -2.030402461788242e-05, 7.317723030062444e+01, -3.868711879121520e+00, 2.952291025068632e+02, 5.954636589032085e+02
594, 5.000000000004811e-05, 5.799999999997786e-03, 4.420876453253981e-04, -2.636913815495539e-05, 5.791699297458581e+01, -1.011557710696360e+03, 1.598351803139577e+02, 1.116228149284921e+03
595, 1.000000000000264e-04, 5.799999999995513e-03, 4.417391657652403e-04, -3.243718226397435e-05, 3.694741615774672e+01, -2.013204149009942e+03, 1.199578398825238e+00, 2.050152968954479e+03
596, 1.500000000000147e-04, 5.799999999993240e-03, 4.414048903022440e-04, -3.850931833702316e-05, 9.976823020885092e+00, -3.008226311850332e+03, -1.806261960446419e+02, 3.039745623261373e+03
597, 2.000000000000015e-04, 5.799999999990969e-03, 4.410846575127622e-04, -4.458670760747417e-05, -2.328857185579858e+01, -3.996039006492288e+03, -3.855897912468761e+02, 4.046907951060866e+03
598, -1.999999999999729e-04, 5.700000000009518e-03, 4.319046272197951e-04, 4.541420448948224e-06, 8.532622476154177e+01, 4.267061237446998e+03, 6.262180678349423e+02, 4.365261044914858e+03
599, -1.499999999999495e-04, 5.700000000007160e-03, 4.314851695974303e-04, -1.487305367340622e-06, 8.974943175754476e+01, 3.192808757843788e+03, 5.812029659904817e+02, 3.313633161941036e+03
600, -9.999999999991239e-05, 5.700000000004800e-03, 4.310812106791700e-04, -7.514303330161368e-06, 8.953821697118525e+01, 2.122377162521902e+03, 5.121861218851170e+02, 2.276350735795039e+03
601, -4.999999999989533e-05, 5.700000000002444e-03, 4.306926540485667e-04, -1.354076329385166e-05, 8.441014436383188e+01, 1.056335798958734e+03, 4.192109904319219e+02, 1.283585172887012e+03
602, 8.974483482748763e-17, 5.700000000000083e-03, 4.303193901397968e-04, -1.956787512197760e-05, 7.407968239801653e+01, -4.742786902597004e+00, 3.023222004850616e+02, 6.097604720635516e+02
603, 5.000000000003792e-05, 5.699999999997726e-03, 4.299612961840126e-04, -2.559682866708318e-05, 5.825871387701432e+01, -1.060282518089281e+03, 1.615652044087818e+02, 1.164279927127184e+03
604, 1.000000000000188e-04, 5.699999999995369e-03, 4.296182361580248e-04, -3.162881375865963e-05, 3.665669496740975e+01, -2.109703729541179e+03, -3.013757724174823e+00, 2.146368887875327e+03
605, 1.500000000000104e-04, 5.699999999993010e-03, 4.292900607342922e-04, -3.766502019246743e-05, 8.980749147686595e+00, -3.152423145276548e+03, -1.913676104205053e+02, 3.184487530663755e+03
606, 1.999999999999996e-04, 5.699999999990651e-03, 4.289766072318470e-04, -4.370663771920068e-05, -2.506423853541477e+01, -4.187853868419017e+03, -4.034483584371021e+02, 4.240271195851608e+03
607, -1.999999999999748e-04, 5.600000000009672e-03, 4.198340150405678e-04, 5.116780285252035e-06, 8.771218229307448e+01, 4.462971668936347e+03, 6.491851906085369e+02, 4.563842813056088e+03
608, -1.499999999999538e-04, 5.600000000007281e-03, 4.194166762774485e-04, -8.739721650060470e-07, 9.183934976551330e+01, 3.339434264256965e+03, 6.010545397794917e+02, 3.462937909895135e+03
609, -9.999999999991998e-05, 5.600000000004890e-03, 4.190155386399859e-04, -6.862985653005800e-06, 9.127230501465095e+01, 2.219784596113880e+03, 5.283591171879517e+02, 2.376387594695573e+03
610, -4.999999999990553e-05, 5.600000000002499e-03, 4.186305047240618e-04, -1.285147798890623e-05, 8.572537842204451e+01, 1.104591748661046e+03, 4.311378272305167e+02, 1.334768888115168e+03
611, 7.692414413784654e-17, 5.600000000000110e-03, 4.182614639540941e-04, -1.884066711343755e-05, 7.491174811649239e+01, -5.570724744544577e+00, 3.094305256766479e+02, 6.240724551844395e+02
612, 5.000000000002774e-05, 5.599999999997718e-03, 4.179082925351578e-04, -2.483177107987170e-05, 5.854230695051473e+01, -1.110125421155957e+03, 1.632778868534878e+02, 1.213434354243732e+03
613, 1.000000000000112e-04, 5.599999999995330e-03, 4.175708534014403e-04, -3.082600804122374e-05, 3.632546705439484e+01, -2.208491177478967e+03, -7.278596495585731e+00, 2.244863844299204e+03
614, 1.500000000000060e-04, 5.599999999992939e-03, 4.172489961638798e-04, -3.682459623877923e-05, 7.967134381325081e+00, -3.300083085004676e+03, -2.021965585938034e+02, 3.332676108956357e+03
615, 1.999999999999977e-04, 5.599999999990549e-03, 4.169425570578069e-04, -4.282875398976659e-05, -2.682929959973939e+01, -4.384312511611905e+03, -4.214326702467473e+02, 4.438252125011950e+03
616, -1.999999999999767e-04, 5.500000000009695e-03, 4.078394019808469e-04, 5.675917521746108e-06, 9.005189516975423e+01, 4.663554887952800e+03, 6.722492708640912e+02, 4.767033244451382e+03
617, -1.499999999999582e-04, 5.500000000007305e-03, 4.074243031873175e-04, -2.751307265460742e-07, 9.386957871398135e+01, 3.489586227865902e+03, 6.209848609443364e+02, 3.615712979678528e+03
618, -9.999999999992762e-05, 5.500000000004914e-03, 4.070261237942003e-04, -6.224429089677503e-06, 9.293754922889696e+01, 2.319565705282179e+03, 5.445909806005445e+02, 2.478747726158329e+03
619, -4.999999999991570e-05, 5.500000000002524e-03, 4.066447655990248e-04, -1.217322338570966e-05, 8.696956725366459e+01, 1.154063571411732e+03, 4.431023582451029e+02, 1.387100722096123e+03
620, 6.410345344820545e-17, 5.500000000000133e-03, 4.062801172112913e-04, -1.812275967036669e-05, 7.567757073264278e+01, -6.345648747122539e+00, 3.165540529395165e+02, 6.383993125494125e+02
621, 5.000000000001756e-05, 5.499999999997745e-03, 4.059320540035830e-04, -2.407428423317649e-05, 5.877118418483519e+01, -1.161083383980452e+03, 1.649817957168416e+02, 1.263693451413568e+03
622, 1.000000000000036e-04, 5.499999999995354e-03, 4.056004380589006e-04, -3.002904358937671e-05, 3.595751254796835e+01, -2.309567092247223e+03, -1.157789805654697e+01, 2.345638902856378e+03
623, 1.500000000000017e-04, 5.499999999992964e-03, 4.052851181163831e-04, -3.598828447031628e-05, 6.941049459618966e+00, -3.451210291365947e+03, -2.130876449759147e+02, 3.484312855330185e+03
624, 1.999999999999958e-04, 5.499999999990576e-03, 4.049859295160127e-04, -4.195325381272108e-05, -2.857637904518373e+01, -4.585422566367084e+03, -4.395091062727564e+02, 4.640853390584198e+03
625, -1.999999999999786e-04, 5.400000000009719e-03, 3.959242852163788e-04, 6.218311632425429e-06, 9.232685970593064e+01, 4.868814703283811e+03, 6.953719257732398e+02, 4.974837141099357e+03
626, -1.499999999999625e-04, 5.400000000007331e-03, 3.955115479958721e-04, 3.087382028782651e-07, 9.582572961067763e+01, 3.643269038780963e+03, 6.409638462349400e+02, 3.771961378447316e+03
627, -9.999999999993521e-05, 5.400000000004939e-03, 3.951164643248793e-04, -5.599074510847575e-06, 9.452384055047264e+01, 2.421725146307717e+03, 5.608612533281823e+02, 2.583433238823420e+03
628, -4.999999999992589e-05, 5.400000000002551e-03, 3.947389353884100e-04, -1.150640035176691e-05, 8.813579771345229e+01, 1.204755152764786e+03, 4.550937825081551e+02, 1.440583280336675e+03
629, 5.128276275856436e-17, 5.400000000000158e-03, 3.943788491759291e-04, -1.741451352125487e-05, 7.637279416398877e+01, -7.065238420074593e+00, 3.236914466858727e+02, 6.527377083575545e+02
630, 5.000000000000737e-05, 5.399999999997771e-03, 3.940360804250852e-04, -2.332468858117233e-05, 5.894329080386717e+01, -1.213156245537180e+03, 1.666848520033532e+02, 1.315056116638612e+03
631, 9.999999999999598e-05, 5.399999999995381e-03, 3.937104905657393e-04, -2.923820044957149e-05, 3.555307554740227e+01, -2.412933938059712e+03, -1.589465670979679e+01, 2.448693369176789e+03
632, 1.499999999999973e-04, 5.399999999992991e-03, 3.934019276632589e-04, -3.515632439367888e-05, 5.905240394421639e+00, -3.605810224011967e+03, -2.240148988323308e+02, 3.639398205119590e+03
633, 1.999999999999938e-04, 5.399999999990601e-03, 3.931102263610563e-04, -4.108033602178749e-05, -3.029989766046293e+01, -4.791192882424607e+03, -4.576427822406337e+02, 4.848076905013392e+03
634, -1.999999999999805e-04, 5.300000000009745e-03, 3.840922441029063e-04, 6.743440615193734e-06, 9.451953182777186e+01, 5.078758024060650e+03, 7.185169377248739e+02, 5.187263219333099e+03
635, -1.499999999999669e-04, 5.300000000007331e-03, 3.836819901635008e-04, 8.771524937286497e-07, 9.769037267941223e+01, 3.800487266147065e+03, 6.609640777584500e+02, 3.931691605736901e+03
636, -9.999999999994280e-05, 5.300000000004915e-03, 3.832901398165822e-04, -4.987364076162175e-06, 9.601723750435264e+01, 2.526266911902809e+03, 5.771512993035612e+02, 2.690451257515170e+03
637, -4.999999999993605e-05, 5.300000000002501e-03, 3.829165938312808e-04, -1.085141096104318e-05, 8.921378391406387e+01, 1.256669616221433e+03, 4.671025244993543e+02, 1.495223125143258e+03
638, 3.846207206892327e-17, 5.300000000000087e-03, 3.825612397742707e-04, -1.671629052846514e-05, 7.699046344795784e+01, -7.727820966078241e+00, 3.308423184061637e+02, 6.670860111766091e+02
639, 4.999999999999720e-05, 5.299999999997673e-03, 3.822239519484679e-04, -2.258330564375677e-05, 5.905474186927438e+01, -1.266344343024573e+03, 1.683958849366042e+02, 1.367520175533721e+03
640, 9.999999999998842e-05, 5.299999999995259e-03, 3.819045913329589e-04, -2.845375966621063e-05, 3.511120902864934e+01, -2.518594569022023e+03, -2.021084223242161e+01, 2.554025668121675e+03
641, 1.499999999999930e-04, 5.299999999992844e-03, 3.816030055231554e-04, -3.432895644329184e-05, 4.861614797340565e+00, -3.763888771943552e+03, -2.349511046343091e+02, 3.797932011481400e+03
642, 1.999999999999920e-04, 5.299999999990430e-03, 3.813190286710373e-04, -4.021020030333802e-05, -3.199506037978108e+01, -5.001632821146191e+03, -4.757972549459652e+02, 5.059924069044104e+03
643, -1.999999999999824e-04, 5.200000000009989e-03, 3.723469397185427e-04, 7.250781785969116e-06, 9.662275017997501e+01, 5.293396865260703e+03, 7.416471696429385e+02, 5.404315248033799e+03
644, -1.499999999999712e-04, 5.200000000007502e-03, 3.719392906469942e-04, 1.429629339871142e-06, 9.945670319592938e+01, 3.961251699257128e+03, 6.809582184509906e+02, 4.094908664757628e+03
645, -9.999999999995044e-05, 5.200000000005017e-03, 3.715508110892282e-04, -4.389740571218220e-06, 9.741104661791206e+01, 2.633199494244055e+03, 5.934429974991349e+02, 2.799807389131837e+03
646, -4.999999999994625e-05, 5.200000000002529e-03, 3.711814016124036e-04, -1.020865785053278e-05, 9.019788810603507e+01, 1.309813135247919e+03, 4.791196994912112e+02, 1.551026787912817e+03
647, 2.564138137928218e-17, 5.200000000000042e-03, 3.708309495714662e-04, -1.602845305021537e-05, 7.752670346532182e+01, -8.329613051752460e+00, 3.380071409850210e+02, 6.814445072882688e+02
648, 4.999999999998700e-05, 5.199999999997556e-03, 3.704993290458959e-04, -2.185045736700565e-05, 5.910395971201001e+01, -1.320646409964717e+03, 1.701248130619812e+02, 1.421084406606645e+03
649, 9.999999999998081e-05, 5.199999999995069e-03, 3.701864007763046e-04, -2.767600263749477e-05, 3.463307866341222e+01, -2.626550406280125e+03, -2.450704142776925e+01, 2.661634821092931e+03
650, 1.499999999999887e-04, 5.199999999992581e-03, 3.698920121015697e-04, -3.350642133206987e-05, 3.814486937459435e+00, -3.925450224149164e+03, -2.458673429967134e+02, 3.959914667161365e+03
651, 1.999999999999900e-04, 5.199999999990096e-03, 3.696159968963780e-04, -3.934304654760953e-05, -3.365430237407514e+01, -5.216749920286931e+03, -4.939340713568017e+02, 5.276396843662906e+03
652, -1.999999999999843e-04, 5.100000000010360e-03, 3.606921150918469e-04, 7.739812588196221e-06, 9.863203087540398e+01, 5.512744375713763e+03, 7.647223657147661e+02, 5.625994460451297e+03
653, -1.499999999999755e-04, 5.100000000007788e-03, 3.602871920543319e-04, 1.965686059241739e-06, 1.011210376276603e+02, 4.125574561895614e+03, 7.009162715253501e+02, 4.261614793449633e+03
654, -9.999999999995803e-05, 5.100000000005215e-03, 3.599022203076943e-04, -3.806646647853554e-06, 9.870128680171536e+01, 2.742532696110856e+03, 6.097166150547106e+02, 2.911505095915969e+03
655, -4.999999999995644e-05, 5.100000000002642e-03, 3.595371004437986e-04, -9.578543491910157e-06, 9.108436070990808e+01, 1.364192775958238e+03, 4.911357059217565e+02, 1.607999428949265e+03
656, 1.282069068964109e-17, 5.100000000000066e-03, 3.591917198318013e-04, -1.535136323261823e-05, 7.797877274328528e+01, -8.866317903954382e+00, 3.451863782527861e+02, 6.958136335935286e+02
657, 4.999999999997683e-05, 5.099999999997495e-03, 3.588659525518433e-04, -2.112646542747154e-05, 5.908983090749189e+01, -1.376061028471862e+03, 1.718821548877645e+02, 1.475747908639122e+03
658, 9.999999999997324e-05, 5.099999999994921e-03, 3.585596593296959e-04, -2.690521042618830e-05, 3.411970224835221e+01, -2.736803083119963e+03, -2.876267186822601e+01, 2.771519844353509e+03
659, 1.499999999999843e-04, 5.099999999992348e-03, 3.582726874714758e-04, -3.268895936468480e-05, 2.767425159181073e+00, -4.090499484127352e+03, -2.567329608653394e+02, 4.125346196798380e+03
660, 1.999999999999881e-04, 5.099999999989774e-03, 3.580048707983218e-04, -3.847907415759527e-05, -3.527112026953716e+01, -5.436552528071035e+03, -5.120126292080267e+02, 5.497496573544744e+03
661, -1.999999999999862e-04, 5.000000000010596e-03, 3.491315956476055e-04, 8.210011245701562e-06, 1.005379741122999e+02, 5.736811892301648e+03, 7.877000324587896e+02, 5.852304592671490e+03
662, -1.499999999999799e-04, 5.000000000007969e-03, 3.487295189737444e-04, 2.484840777113033e-06, 1.026741266035250e+02, 4.293464888692504e+03, 7.208064196682667e+02, 4.431813939026576e+03
663, -9.999999999996564e-05, 5.000000000005344e-03, 3.483481912217098e-04, -3.238524121509226e-06, 9.988004027650049e+01, 2.854273682695118e+03, 6.259511577541437e+02, 3.025548503159569e+03
664, -4.999999999996662e-05, 5.000000000002718e-03, 3.479875132432727e-04, -8.961469483429076e-06, 9.186699283353175e+01, 1.419813834679795e+03, 5.031402340735640e+02, 1.666146210674162e+03
665, 0.000000000000000e+00, 5.000000000000093e-03, 3.476473726536929e-04, -1.468538230369112e-05, 7.834225614144509e+01, -9.334861032866513e+00, 3.523802995859287e+02, 7.101934799905399e+02
666, 4.999999999996663e-05, 4.999999999997467e-03, 3.473276437654260e-04, -2.041165053175390e-05, 5.900987307615321e+01, -1.432587729457236e+03, 1.736787083535933e+02, 1.531509249996501e+03
667, 9.999999999996559e-05, 4.999999999994841e-03, 3.470281875212792e-04, -2.614166306687387e-05, 3.357068475154722e+01, -2.849355139719558e+03, -3.295643441200170e+01, 2.883679215113743e+03
668, 1.499999999999799e-04, 4.999999999992216e-03, 3.467488514268204e-04, -3.187680975304275e-05, 1.722298445800902e+00, -4.259042499988954e+03, -2.675161938176461e+02, 4.294225928313446e+03
669, 1.999999999999863e-04, 4.999999999989590e-03, 3.464894694821536e-04, -3.761848137339211e-05, -3.684098034108359e+01, -5.661050288831835e+03, -5.299907181498595e+02, 5.723223828491600e+03
670, -1.999999999999881e-04, 4.900000000010410e-03, 3.376692893017835e-04, 8.660857400269918e-06, 1.023218255293249e+02, 5.965601871272118e+03, 8.105381270717145e+02, 6.083250867468256e+03
671, -1.499999999999843e-04, 4.900000000007836e-03, 3.372701780740417e-04, 2.986613100698541e-06, 1.041006058077353e+02, 4.464925306091081e+03, 7.405972784564151e+02, 4.605510762339995e+03
672, -9.999999999997321e-05, 4.900000000005265e-03, 3.368926292746681e-04, -2.685813261793144e-06, 1.009363262891092e+02, 2.968426081238119e+03, 6.421257144576521e+02, 3.141941951629363e+03
673, -4.999999999997681e-05, 4.900000000002690e-03, 3.365365442439369e-04, -8.357835824390332e-06, 9.253812899350038e+01, 1.476679743703248e+03, 5.151229603149857e+02, 1.725472302456925e+03
674, -1.282069068964109e-17, 4.900000000000120e-03, 3.362018110765512e-04, -1.403086984177523e-05, 7.861230543912365e+01, -9.732952282565350e+00, 3.595893127720063e+02, 7.245845568332842e+02
675, 4.999999999995644e-05, 4.899999999997547e-03, 3.358883045548252e-04, -1.970633168403729e-05, 5.886192649424208e+01, -1.490226051496846e+03, 1.755256929045801e+02, 1.588367287196211e+03
676, 9.999999999995801e-05, 4.899999999994974e-03, 3.355958860789084e-04, -2.538563883466517e-05, 3.298669350013779e+01, -2.964208444401308e+03, -3.706626513058949e+01, 2.998111793563241e+03
677, 1.499999999999756e-04, 4.899999999992402e-03, 3.353244035959281e-04, -3.107020988740443e-05, 6.829171001216991e-01, -4.431083847233248e+03, -2.781841164924346e+02, 4.466553734606197e+03
678, 1.999999999999843e-04, 4.899999999989829e-03, 3.350736915287929e-04, -3.676146454157641e-05, -3.835644024160160e+01, -5.890250745993433e+03, -5.478245280621088e+02, 5.953579916308893e+03
679, -1.999999999999901e-04, 4.800000000010084e-03, 3.263091861197077e-04, 9.091833073228829e-06, 1.039889228273374e+02, 6.199132930292008e+03, 8.331908273722274e+02, 6.318829661495975e+03
680, -1.499999999999886e-04, 4.800000000007600e-03, 3.259131579695748e-04, 3.470525040002599e-06, 1.054045849550769e+02, 4.639972206974886e+03, 7.602544585480961e+02, 4.782703303116285e+03
681, -9.999999999998080e-05, 4.800000000005114e-03, 3.255395215796339e-04, -2.148951927553046e-06, 1.018714859589255e+02, 3.085002577558609e+03, 6.582170694655010e+02, 3.260685503358417e+03
682, -4.999999999998701e-05, 4.800000000002629e-03, 3.251881790252805e-04, -7.768040085990655e-06, 9.309760928114065e+01, 1.534799630687966e+03, 5.270720775425785e+02, 1.785980016189634e+03
683, -2.564138137928218e-17, 4.800000000000143e-03, 3.248590191340942e-04, -1.338818296855716e-05, 7.878856367768526e+01, -1.005478152751232e+01, 3.668131027569925e+02, 7.389861632020571e+02
684, 4.999999999994627e-05, 4.799999999997659e-03, 3.245519174132955e-04, -1.901082539187563e-05, 5.864644830256753e+01, -1.548973436917704e+03, 1.774343091068124e+02, 1.646321181163774e+03
685, 9.999999999995042e-05, 4.799999999995174e-03, 3.242667359759484e-04, -2.463741345711877e-05, 3.236978819619708e+01, -3.081363767335459e+03, -4.106945170220489e+01, 3.114816760950199e+03
686, 1.499999999999713e-04, 4.799999999992687e-03, 3.240033234667257e-04, -3.026939454861659e-05, -3.464950263182800e-01, -4.606627864776500e+03, -2.887025303725389e+02, 4.642329658854662e+03
687, 1.999999999999824e-04, 4.799999999990203e-03, 3.237615149872619e-04, -3.590821733043872e-05, -3.981100567659331e+01, -6.124162398367602e+03, -5.654683560797121e+02, 6.188566046884446e+03
688, -1.999999999999919e-04, 4.700000000009747e-03, 3.150553592901049e-04, 9.502423532367988e-06, 1.055392912770152e+02, 6.437424038255505e+03, 8.556067022105739e+02, 6.559040765576128e+03
689, -1.499999999999929e-04, 4.700000000007334e-03, 3.146625299067732e-04, 3.936101819962762e-06, 1.065841331087285e+02, 4.818621701974975e+03, 7.797384887275758e+02, 4.963392639477515e+03
690, -9.999999999998839e-05, 4.700000000004922e-03, 3.142929374003882e-04, -1.628374774517031e-06, 1.026817158265081e+02, 3.204015090557051e+03, 6.741987502510102e+02, 3.381781264448904e+03
691, -4.999999999999717e-05, 4.700000000002511e-03, 3.139464848536967e-04, -7.192476626456532e-06, 9.354146564602070e+01, 1.594181963816512e+03, 5.389738889663840e+02, 1.847672405135600e+03
692, -3.846207206892327e-17, 4.700000000000096e-03, 3.136230620980064e-04, -1.275767556518908e-05, 7.886798686104885e+01, -1.029499539927104e+01, 3.740505060134576e+02, 7.533957536389814e+02
693, 4.999999999993608e-05, 4.699999999997685e-03, 3.133225456344348e-04, -1.832544488109651e-05, 5.836211354840799e+01, -1.608827533286757e+03, 1.794157465993370e+02, 1.705368393932981e+03
694, 9.999999999994281e-05, 4.699999999995272e-03, 3.130447985568096e-04, -2.389725932768823e-05, 3.172099443887527e+01, -3.200821788964465e+03, -4.494256821371181e+01, 3.233792229609625e+03
695, 1.499999999999669e-04, 4.699999999992859e-03, 3.127896704748368e-04, -2.947459512114368e-05, -1.361873113558204e+00, -4.785678258404352e+03, -2.990358417315304e+02, 4.821552966951863e+03
696, 1.999999999999805e-04, 4.699999999990447e-03, 3.125569974372436e-04, -3.505892993899745e-05, -4.119686633093988e+01, -6.362791970992502e+03, -5.828746033336973e+02, 6.428182937668053e+03
697, -1.999999999999939e-04, 4.600000000009572e-03, 3.039119657426825e-04, 9.892117705010921e-06, 1.069342139295084e+02, 6.680466591078157e+03, 8.777371113799136e+02, 6.803897240567039e+03
698, -1.499999999999973e-04, 4.600000000007185e-03, 3.035224481616970e-04, 4.382872404218555e-06, 1.076067208367726e+02, 5.000867579420630e+03, 7.990128456814464e+02, 5.147590498515270e+03
699, -9.999999999999598e-05, 4.600000000004799e-03, 3.031570284185786e-04, -1.124512632675222e-06, 1.033435227723518e+02, 3.325461244051263e+03, 6.900464339995011e+02, 3.505238784174527e+03
700, -5.000000000000737e-05, 4.600000000002412e-03, 3.028156108678778e-04, -6.631535898038222e-06, 9.385307234414375e+01, 1.654826067662361e+03, 5.508163083297304e+02, 1.910557801847591e+03
701, -5.126921023140829e-17, 4.600000000000025e-03, 3.024980866086908e-04, -1.213969753302807e-05, 7.883919179418018e+01, -1.045423039408627e+01, 3.813017179864366e+02, 7.678133339580162e+02
702, 4.999999999992590e-05, 4.599999999997638e-03, 3.022043334024398e-04, -1.765049932738186e-05, 5.800168810623836e+01, -1.669790228148086e+03, 1.814825151972995e+02, 1.765505173927039e+03
703, 9.999999999993524e-05, 4.599999999995251e-03, 3.019342155925671e-04, -2.316544472013086e-05, 3.103648964737766e+01, -3.322586705721529e+03, -4.866077923872521e+01, 3.355035025489427e+03
704, 1.499999999999625e-04, 4.599999999992864e-03, 3.016875840244800e-04, -2.868603879986508e-05, -2.364335413953256e+00, -4.968242625010595e+03, -3.091468804227474e+02, 5.004221653942573e+03
705, 1.999999999999786e-04, 4.599999999990477e-03, 3.014642759654475e-04, -3.421378830287331e-05, -4.251236165873041e+01, -6.606150912328015e+03, -5.999937001420900e+02, 6.672429901068483e+03
706, -1.999999999999958e-04, 4.500000000009600e-03, 2.928832447346500e-04, 1.026040918945430e-05, 1.081715577031412e+02, 6.928275166520381e+03, 8.995339587435021e+02, 7.053400499527372e+03
707, -1.500000000000016e-04, 4.500000000007212e-03, 2.924971491627646e-04, 4.810370459746415e-06, 1.084687941839045e+02, 5.186721678446878e+03, 8.180425590999030e+02, 5.335300073146785e+03
708, -1.000000000000036e-04, 4.500000000004825e-03, 2.921360282076395e-04, -6.377915738777920e-07, 1.038524725599104e+02, 3.449350282868594e+03, 7.057369951177395e+02, 3.631062437344126e+03
709, -5.000000000001756e-05, 4.500000000002437e-03, 2.917997877770494e-04, -6.085603536240636e-06, 9.402848495045902e+01, 1.716738975974157e+03, 5.625882593859542e+02, 1.974642128608129e+03
710, -6.409667718462742e-17, 4.500000000000053e-03, 2.914883205163802e-04, -1.153459389723138e-05, 7.869970887345426e+01, -1.052758589808735e+01, 3.885679691618732e+02, 7.822415079542747e+02
711, 4.999999999991571e-05, 4.499999999997665e-03, 2.912015057274635e-04, -1.698629296886192e-05, 5.756505879491772e+01, -1.731858739171726e+03, 1.836483585436003e+02, 1.826730523945008e+03
712, 9.999999999992765e-05, 4.499999999995279e-03, 2.909392092859030e-04, -2.244223290618292e-05, 3.031943096580585e+01, -3.446657804192416e+03, -5.219767926689708e+01, 3.478544104175181e+03
713, 1.499999999999582e-04, 4.499999999992891e-03, 2.907012835580042e-04, -2.790394770800132e-05, -3.346294507761399e+00, -5.154322049774648e+03, -3.189965150033392e+02, 5.190335859815275e+03
714, 1.999999999999767e-04, 4.499999999990504e-03, 2.904875673174137e-04, -3.337297321764420e-05, -4.374524763021225e+01, -6.854242699879683e+03, -6.167736026890749e+02, 6.921308709701711e+03
715, -1.999999999999977e-04, 4.400000000009622e-03, 2.819735183171064e-04, 1.060679753040105e-05, 1.092592870933152e+02, 7.180869679590467e+03, 9.209425734464509e+02, 7.307545034936042e+03
716, -1.500000000000059e-04, 4.400000000007235e-03, 2.815909518041008e-04, 5.218135548314849e-06, 1.091770442894787e+02, 5.376201903869416e+03, 8.367865046778758e+02, 5.526517663870905e+03
717, -1.000000000000112e-04, 4.400000000004850e-03, 2.812342524464899e-04, -1.686318065616309e-07, 1.042115122755919e+02, 3.575695705201782e+03, 7.212431634205877e+02, 3.759251162779650e+03
718, -5.000000000002772e-05, 4.400000000002464e-03, 2.809033280031668e-04, -5.555059320799133e-06, 9.406830913750082e+01, 1.779930217192416e+03, 5.742761157496752e+02, 2.039927106911592e+03
719, -7.691736787426851e-17, 4.400000000000076e-03, 2.805980729648090e-04, -1.094270381376667e-05, 7.844915767946816e+01, -1.050920291068286e+01, 3.958491995152237e+02, 7.966805789940288e+02
720, 4.999999999990552e-05, 4.399999999997690e-03, 2.803183684718419e-04, -1.633312414388537e-05, 5.705183456579817e+01, -1.795030868641396e+03, 1.859267645277648e+02, 1.889043511036820e+03
721, 9.999999999991999e-05, 4.399999999995304e-03, 2.800640822297534e-04, -2.172788121230929e-05, 2.957002064617768e+01, -3.573036803400450e+03, -5.552622029391583e+01, 3.604318045515386e+03
722, 1.499999999999539e-04, 4.399999999992917e-03, 2.798350684232562e-04, -2.712853796573772e-05, -4.306743956625326e+00, -5.343922728836613e+03, -3.285440632371725e+02, 5.379894392266398e+03
723, 1.999999999999748e-04, 4.399999999990530e-03, 2.796311676300445e-04, -3.253665939695483e-05, -4.489328794840947e+01, -7.107078191510940e+03, -6.331603057082406e+02, 7.174818708720431e+03
724, -1.999999999999997e-04, 4.300000000009517e-03, 2.711871924793738e-04, 1.093078895598104e-05, 1.101804240029719e+02, 7.438253929606492e+03, 9.419053479409707e+02, 7.566333593058625e+03
725, -1.500000000000103e-04, 4.300000000007164e-03, 2.708082582538606e-04, 5.605713962478708e-06, 1.097173294338280e+02, 5.569312352687617e+03, 8.552007053294641e+02, 5.721245563994049e+03
726, -1.000000000000188e-04, 4.300000000004808e-03, 2.704560994880956e-04, 2.825532052921809e-07, 1.044103626224983e+02, 3.704502436949347e+03, 7.365352995372356e+02, 3.889807184615789e+03
727, -5.000000000003792e-05, 4.300000000002456e-03, 2.701306260883377e-04, -5.040276272253044e-06, 9.396509410518468e+01, 1.844404260032959e+03, 5.858646035338467e+02, 2.106415583000991e+03
728, -8.973805856390960e-17, 4.300000000000101e-03, 2.698317346942229e-04, -1.036435965728770e-05, 7.808252488648270e+01, -1.039594254804160e+01, 4.031443903549427e+02, 8.111288659012180e+02
729, 4.999999999989533e-05, 4.299999999997747e-03, 2.695593085911880e-04, -1.569128437882094e-05, 5.645940168745699e+01, -1.859305448135336e+03, 1.883308559100473e+02, 1.952441805782644e+03
730, 9.999999999991241e-05, 4.299999999995395e-03, 2.693132176221181e-04, -2.102264011513912e-05, 2.878819251011436e+01, -3.701725016015194e+03, -5.861924194571083e+01, 3.732354975225019e+03
731, 1.499999999999495e-04, 4.299999999993039e-03, 2.690933180983075e-04, -2.636001879865702e-05, -5.242971961485239e+00, -5.537048892890879e+03, -3.377484747771439e+02, 5.572896273544542e+03
732, 1.999999999999729e-04, 4.299999999990687e-03, 2.688994527096249e-04, -3.170501461998562e-05, -4.595010001706521e+01, -7.364664604935831e+03, -6.490986336293527e+02, 7.432960254785862e+03
733, -2.000000000000014e-04, 4.200000000009198e-03, 2.605287569111614e-04, 1.123189721487545e-05, 1.109224945772565e+02, 7.700435682160584e+03, 9.623646321781998e+02, 7.829769675129094e+03
734, -1.500000000000147e-04, 4.200000000006931e-03, 2.601535538792660e-04, 5.972659564439278e-06, 1.100777091400200e+02, 5.766059874955649e+03, 8.732416816033978e+02, 5.919488018231184e+03
735, -1.000000000000264e-04, 4.200000000004664e-03, 2.598060503680669e-04, 7.153576185446852e-07, 1.044390463187001e+02, 3.835776699385494e+03, 7.515840612418518e+02, 4.022734776945306e+03
736, -5.000000000004811e-05, 4.200000000002396e-03, 2.594861587412875e-04, -4.541619743749876e-06, 9.371128485192276e+01, 1.910166384550867e+03, 5.973387699262111e+02, 2.174112129916518e+03
737, -1.025587492535507e-16, 4.200000000000129e-03, 2.591937781010595e-04, -9.799886087505484e-06, 7.759492643870396e+01, -1.018388630254969e+01, 4.104530986373682e+02, 8.255859159956233e+02
738, 4.999999999988515e-05, 4.199999999997860e-03, 2.589287941943438e-04, -1.506105743351789e-05, 5.578590664029457e+01, -1.924680253154995e+03, 1.908747463609836e+02, 2.016923123296418e+03
739, 9.999999999990481e-05, 4.199999999995591e-03, 2.586910793202670e-04, -2.032675226679756e-05, 2.797565510466848e+01, -3.832722129317553e+03, -6.144805683578031e+01, 3.862653341603181e+03
740, 1.499999999999452e-04, 4.199999999993324e-03, 2.584804922376175e-04, -2.559859154305197e-05, -6.148860186800107e+00, -5.733702144134015e+03, -3.465664391184691e+02, 5.769341366858746e+03
741, 1.999999999999710e-04, 4.199999999991056e-03, 2.582968780725985e-04, -3.087819869336696e-05, -4.690524147971530e+01, -7.627006226792301e+03, -6.645307676588088e+02, 7.695734890976798e+03
742, -2.000000000000034e-04, 4.100000000008875e-03, 2.500027849100603e-04, 1.150964470188397e-05, 1.114822191362463e+02, 7.967429240396536e+03, 9.822599134167438e+02, 8.097854144825671e+03
743, -1.500000000000190e-04, 4.100000000006694e-03, 2.496314071987032e-04, 6.318534841443611e-06, 1.102535208882108e+02, 5.966456940371734e+03, 8.908641026837198e+02, 6.121247739486810e+03
744, -1.000000000000340e-04, 4.100000000004513e-03, 2.492886687884744e-04, 1.129384229857043e-06, 1.042915899599509e+02, 3.969527998382654e+03, 7.663592136047449e+02, 4.158037790846060e+03
745, -5.000000000005830e-05, 4.100000000002334e-03, 2.489744848341158e-04, -4.059446415656279e-06, 9.330101187374453e+01, 1.977223455509268e+03, 6.086834350658123e+02, 2.243021593772051e+03
746, -1.153726636796137e-16, 4.100000000000152e-03, 2.486887572301955e-04, -9.249599048445441e-06, 7.698145339298526e+01, -9.868800984252630e+00, 4.177752140246354e+02, 8.400520724923607e+02
747, 4.999999999987496e-05, 4.099999999997971e-03, 2.484313745144103e-04, -1.444271830127707e-05, 5.502788785826453e+01, -1.991153929839737e+03, 1.935734259559558e+02, 2.082484745687997e+03
748, 9.999999999989721e-05, 4.099999999995790e-03, 2.482022117716446e-04, -1.964045149460359e-05, 2.713063157097599e+01, -3.966030108795801e+03, -6.398253389579642e+01, 3.995210602331428e+03
749, 1.499999999999408e-04, 4.099999999993610e-03, 2.480011305383657e-04, -2.484444864356131e-05, -7.024646837048977e+00, -5.933888512888293e+03, -3.549526490597912e+02, 5.969227824350663e+03
750, 1.999999999999691e-04, 4.099999999991429e-03, 2.478279787070360e-04, -3.005636246348690e-05, -4.775691744469236e+01, -7.894113272905887e+03, -6.793962032109596e+02, 7.963141645144594e+03
751, -2.000000000000054e-04, 4.000000000008551e-03, 2.396139337999552e-04, 1.176356345339577e-05, 1.118437406075786e+02, 8.239239295480194e+03, 1.001529052612897e+03, 8.370591393579900e+03
752, -1.500000000000234e-04, 4.000000000006458e-03, 2.392464701484410e-04, 6.642911927425552e-06, 1.102309778131726e+02, 6.170508500682135e+03, 9.080214508210895e+02, 6.326529496872335e+03
753, -1.000000000000416e-04, 4.000000000004365e-03, 2.389086012982298e-04, 1.524245506356189e-06, 1.039570662877542e+02, 4.105761555933268e+03, 7.808298779999171e+02, 4.295721169589159e+03
754, -5.000000000006849e-05, 4.000000000002271e-03, 2.386002455336649e-04, -3.594103263380821e-06, 9.272586198541660e+01, 2.045580093993697e+03, 6.198832377787610e+02, 2.313149490497527e+03
755, -1.282069068964109e-16, 4.000000000000177e-03, 2.383213078795810e-04, -8.713804737307932e-06, 7.623619145637451e+01, -9.447297011954902e+00, 4.251108734004166e+02, 8.545283371130313e+02
756, 4.999999999986478e-05, 3.999999999998083e-03, 2.380716800028061e-04, -1.383653218137774e-05, 5.418209900708825e+01, -2.058724811714176e+03, 1.964425388123433e+02, 2.149124076826146e+03
757, 9.999999999988963e-05, 3.999999999995989e-03, 2.378512401136280e-04, -1.896396178028263e-05, 2.625284549342337e+01, -4.101649397351756e+03, -6.619151709375717e+01, 4.130024478647428e+03
758, 1.499999999999365e-04, 3.999999999993896e-03, 2.376598528671182e-04, -2.409777264524192e-05, -7.867107807841649e+00, -6.137610738877810e+03, -3.628604566152536e+02, 6.172554400452293e+03
759, 1.999999999999672e-04, 3.999999999991804e-03, 2.374973692643623e-04, -2.923964682086081e-05, -4.849803730768554e+01, -8.165991186409505e+03, -6.936327374875027e+02, 8.235180661271046e+03
760, -2.000000000000072e-04, 3.900000000008219e-03, 2.293669447134838e-04, 1.199319621434910e-05, 1.119968522208228e+02, 8.515872823463556e+03, 1.020108946801633e+03, 8.647983602748674e+03
761, -1.500000000000277e-04, 3.900000000006203e-03, 2.290034779782478e-04, 6.945373701948430e-06, 1.100012876856516e+02, 6.378221439625111e+03, 9.246666803967947e+02, 6.535336085659562e+03
762, -1.000000000000492e-04, 3.900000000004186e-03, 2.286705772511095e-04, 1.899564691042036e-06, 1.034280541364660e+02, 4.244483873441846e+03, 7.949646910581624e+02, 4.435788401030842e+03
763, -5.000000000007867e-05, 3.900000000002170e-03, 2.283681642912209e-04, -3.145926453377217e-06, 9.197980649669626e+01, 2.115241799039175e+03, 6.309226369880162e+02, 2.384500489813875e+03
764, -1.410275975860520e-16, 3.900000000000153e-03, 2.280961476012597e-04, -8.192798503850955e-06, 7.535471699297068e+01, -8.915422481447422e+00, 4.324604684739285e+02, 8.690165036279788e+02
765, 4.999999999985460e-05, 3.899999999998138e-03, 2.278544223270736e-04, -1.324275338028488e-05, 5.324605679772401e+01, -2.127390961890631e+03, 1.994984981152050e+02, 2.216839283817148e+03
766, 9.999999999988204e-05, 3.899999999996121e-03, 2.276428701560415e-04, -1.829749616004083e-05, 2.534214459359703e+01, -4.239580497318972e+03, -6.804250699108155e+01, 4.267093187701555e+03
767, 1.499999999999321e-04, 3.899999999994104e-03, 2.274613592150395e-04, -2.335873508684064e-05, -8.673656525175943e+00, -6.344872176929076e+03, -3.702412206948494e+02, 6.379320178198851e+03
768, 1.999999999999652e-04, 3.899999999992088e-03, 2.273097439684808e-04, -2.842818157847053e-05, -4.912304834394911e+01, -8.442646690640100e+03, -7.071756516666026e+02, 8.511852251010047e+03
769, -2.000000000000091e-04, 3.800000000007874e-03, 2.192666426878517e-04, 1.219809772155524e-05, 1.119447660195226e+02, 8.797346060190031e+03, 1.037932319773169e+03, 8.930028535368610e+03
770, -1.500000000000321e-04, 3.800000000005924e-03, 2.189072493643092e-04, 7.225515022228753e-06, 1.095654704537238e+02, 6.589609686485139e+03, 9.407490531896037e+02, 6.747666868335361e+03
771, -1.000000000000568e-04, 3.800000000003971e-03, 2.185794089156638e-04, 2.254977000160122e-06, 1.027032515874722e+02, 4.385705866674525e+03, 8.087297124270088e+02, 4.578240534516685e+03
772, -5.000000000008884e-05, 3.800000000002021e-03, 2.182830469386194e-04, -2.715240172343078e-06, 9.106050573587811e+01, 2.186216801905359e+03, 6.417844948928713e+02, 2.457077381141712e+03
773, -1.538415120121150e-16, 3.800000000000070e-03, 2.180180757789540e-04, -7.686863698630201e-06, 7.433471706020316e+01, -8.267533015134518e+00, 4.398236713390987e+02, 8.835171640654883e+02
774, 4.999999999984441e-05, 3.799999999998119e-03, 2.177843944277149e-04, -1.266162417364532e-05, 5.221831524507604e+01, -2.197149417325877e+03, 2.027577835273716e+02, 2.285628594381668e+03
775, 9.999999999987444e-05, 3.799999999996168e-03, 2.175818884161975e-04, -1.764125559646674e-05, 2.439860203677529e+01, -4.379823378663808e+03, -6.950222504534170e+01, 4.406415038603513e+03
776, 1.499999999999278e-04, 3.799999999994218e-03, 2.174104297103353e-04, -2.262749538087029e-05, -9.442257516644190e+00, -6.555676144577084e+03, -3.770448865653697e+02, 6.589524223344112e+03
777, 1.999999999999633e-04, 3.799999999992265e-03, 2.172698766049563e-04, -2.762208436360495e-05, -4.962714013566620e+01, -8.724086521835898e+03, -7.199581085070469e+02, 8.793156673049067e+03
778, -2.000000000000110e-04, 3.700000000007529e-03, 2.093179374058367e-04, 1.237783578197081e-05, 1.116742532324025e+02, 9.083663490214680e+03, 1.054928856670863e+03, 9.216728836147531e+03
779, -1.500000000000364e-04, 3.700000000005644e-03, 2.089626869282135e-04, 7.482943831119841e-06, 1.089121405659982e+02, 6.804678543323416e+03, 9.562153332175382e+02, 6.963524881424372e+03
780, -1.000000000000644e-04, 3.700000000003758e-03, 2.086399918408090e-04, 2.590130745745371e-06, 1.017733635550942e+02, 4.529433117765642e+03, 8.220891733349956e+02, 4.723080915537470e+03
781, -5.000000000009902e-05, 3.700000000001873e-03, 2.083497819484847e-04, -2.302355493524367e-06, 8.996054539432407e+01, 2.258510143703640e+03, 6.524505606941668e+02, 2.530884093933981e+03
782, -1.666825314924902e-16, 3.699999999999988e-03, 2.080919738145928e-04, -7.196270532692388e-06, 7.317072570919083e+01, -7.499728338009618e+00, 4.471997349620767e+02, 8.980301408954979e+02
783, 4.999999999983423e-05, 3.699999999998102e-03, 2.078664706521901e-04, -1.209337366214127e-05, 5.109559558744127e+01, -2.267997924341013e+03, 2.062371414822990e+02, 2.355489288509142e+03
784, 9.999999999986681e-05, 3.699999999996217e-03, 2.076731622153239e-04, -1.699542783165377e-05, 2.342151647737364e+01, -4.522377866743273e+03, -7.053644342897667e+01, 4.547987861889656e+03
785, 1.499999999999234e-04, 3.699999999994331e-03, 2.075119246896719e-04, -2.190419966343203e-05, -1.017052638018527e+01, -6.770024937511748e+03, -3.832197857742372e+02, 6.803165533524100e+03
786, 1.999999999999614e-04, 3.699999999992445e-03, 2.073826205822646e-04, -2.682145946254160e-05, -5.000485884346540e+01, -9.010316347344493e+03, -7.319110190177510e+02, 9.079094499453231e+03
787, -2.000000000000130e-04, 3.600000000007325e-03, 1.995258230916158e-04, 1.253199239404804e-05, 1.111763472558563e+02, 9.374833140148243e+03, 1.071027074911796e+03, 9.508087776060849e+03
788, -1.500000000000407e-04, 3.600000000005489e-03, 1.991747772188564e-04, 7.717282279262552e-06, 1.080314406408497e+02, 7.023434787843951e+03, 9.710116992963003e+02, 7.182914334390256e+03
789, -1.000000000000720e-04, 3.600000000003653e-03, 1.988573048824033e-04, 2.904688477293091e-06, 1.006293288738550e+02, 4.675671713157682e+03, 8.350069027372591e+02, 4.870314048238462e+03
790, -5.000000000010923e-05, 3.600000000001818e-03, 1.985733404789894e-04, -1.907569220344251e-06, 8.867219181844632e+01, 2.332127031633338e+03, 6.629024265954796e+02, 2.605925579718953e+03
791, -1.794761171278192e-16, 3.599999999999982e-03, 1.983228051739586e-04, -6.721274911118374e-06, 7.185661484737727e+01, -6.608081401528921e+00, 4.545881279008798e+02, 9.125558463300423e+02
792, 4.999999999982404e-05, 3.599999999998146e-03, 1.981056067894694e-04, -1.153821659874675e-05, 4.987368511532691e+01, -2.339934248391151e+03, 2.099540195303015e+02, 2.426418084403062e+03
793, 9.999999999985923e-05, 3.599999999996311e-03, 1.979216396923733e-04, -1.636018621026660e-05, 2.240898983723878e+01, -4.667243811454943e+03, -7.110963146286869e+01, 4.691808789306609e+03
794, 1.499999999999191e-04, 3.599999999994474e-03, 1.977707846813461e-04, -2.118897961199558e-05, -1.085742488967935e+01, -6.987920772195700e+03, -3.887121965272296e+02, 7.020242277816143e+03
795, 1.999999999999595e-04, 3.599999999992638e-03, 1.976529088728861e-04, -2.602639662455240e-05, -5.025138969432533e+01, -9.301340954162846e+03, -7.429625603886359e+02, 9.369665500666249e+03
796, -2.000000000000149e-04, 3.500000000007369e-03, 1.898953785203185e-04, 1.266016503287215e-05, 1.104431090747238e+02, 9.670861745478805e+03, 1.086153264012449e+03, 9.804107310459331e+03
797, -1.500000000000451e-04, 3.500000000005565e-03, 1.895485907381864e-04, 7.928167994322207e-06, 1.069158362312578e+02, 7.245885312827864e+03, 9.850827866236846e+02, 7.405838073694777e+03
798, -1.000000000000796e-04, 3.500000000003764e-03, 1.892364102448680e-04, 3.198328235945128e-06, 9.926384379150920e+01, 4.824427995272356e+03, 8.474456556393776e+02, 5.019943507200845e+03
799, -5.000000000011939e-05, 3.500000000001962e-03, 1.889587764230652e-04, -1.531162642864116e-06, 8.718862225324176e+01, 2.407072760965772e+03, 6.731210379842603e+02, 2.682206208358711e+03
800, -1.923239128717724e-16, 3.500000000000160e-03, 1.887156154359345e-04, -6.262117198522140e-06, 7.038630980615551e+01, -5.588847098323640e+00, 4.619880972164100e+02, 9.270945110101865e+02
801, 4.999999999981385e-05, 3.499999999998358e-03, 1.885068401130514e-04, -1.099635216333353e-05, 4.854744152254023e+01, -2.412956774239879e+03, 2.139260662358351e+02, 2.498411585683335e+03
802, 9.999999999985163e-05, 3.499999999996555e-03, 1.883323498349083e-04, -1.573568846526930e-05, 2.135687419400324e+01, -4.814422414068476e+03, -7.118565392186849e+01, 4.837874627776697e+03
803, 1.499999999999148e-04, 3.499999999994753e-03, 1.881920304164894e-04, -2.048195124700690e-05, -1.150625901833246e+01, -7.209368552581471e+03, -3.934673908819345e+02, 7.240751891057153e+03
804, 1.999999999999576e-04, 3.499999999992950e-03, 1.880857539900288e-04, -2.523696988415142e-05, -5.036849348641852e+01, -9.597169203137219e+03, -7.530391759055466e+02, 9.664868120754832e+03
805, -2.000000000000167e-04, 3.400000000007423e-03, 1.804317671567601e-04, 1.276196799842517e-05, 1.094710137231828e+02, 9.971757617482675e+03, 1.100230847652639e+03, 1.010478741622998e+04
806, -1.500000000000494e-04, 3.400000000005649e-03, 1.800892820713222e-04, 8.115255426083304e-06, 1.055617535652503e+02, 7.472038678512041e+03, 9.983706603215307e+02, 7.632297045276535e+03
807, -1.000000000000872e-04, 3.400000000003875e-03, 1.797824536000511e-04, 3.470744883307248e-06, 9.767290043228115e+01, 4.975709876180940e+03, 8.593663422643316e+02, 5.171971266126508e+03
808, -5.000000000012958e-05, 3.400000000002102e-03, 1.795112265185262e-04, -1.173400222896524e-06, 8.550596685359119e+01, 2.483354283292399e+03, 6.830862436413501e+02, 2.759728938438815e+03
809, -2.051242747706794e-16, 3.400000000000329e-03, 1.792755323990611e-04, -5.819020913382441e-06, 6.875683593780627e+01, -4.436237233445013e+00, 4.693985023844774e+02, 9.416459218429254e+02
810, 4.999999999980369e-05, 3.399999999998554e-03, 1.790752894930202e-04, -1.046796266232165e-05, 4.711560318343913e+01, -2.487061040143802e+03, 2.181712095697637e+02, 2.571467667758212e+03
811, 9.999999999984403e-05, 3.399999999996781e-03, 1.789104026118088e-04, -1.512207542036572e-05, 2.026650859904237e+01, -4.963910653093564e+03, -7.072746870725260e+01, 4.986184059825421e+03
812, 1.499999999999104e-04, 3.399999999995008e-03, 1.787807630070720e-04, -1.978321363631062e-05, -1.211207922095321e+01, -7.434366700738408e+03, -3.974291830159101e+02, 7.464694467202793e+03
813, 1.999999999999557e-04, 3.399999999993234e-03, 1.786862482505771e-04, -2.445323627799934e-05, -5.034749150102402e+01, -9.897801719670406e+03, -7.620652495077543e+02, 9.964704137801598e+03
814, -2.000000000000187e-04, 3.300000000007353e-03, 1.711402374774560e-04, 1.283703375395123e-05, 1.082558377232934e+02, 1.027752806209515e+04, 1.113180039658073e+03, 1.041012856674468e+04
815, -1.500000000000538e-04, 3.300000000005614e-03, 1.708020901276343e-04, 8.278217181743309e-06, 1.039638928466201e+02, 7.701901954659874e+03, 1.010814841601371e+03, 7.862292882305832e+03
816, -1.000000000000948e-04, 3.300000000003875e-03, 1.705006642575903e-04, 3.721651436199635e-06, 9.585098309447881e+01, 5.129524058357045e+03, 8.707281616654584e+02, 5.326399792983299e+03
817, -5.000000000013977e-05, 3.300000000002137e-03, 1.702359104571759e-04, -8.345282588996224e-07, 8.361904578902477e+01, 2.560977607591952e+03, 6.927770386649595e+02, 2.838497057413277e+03
818, -2.179652942510546e-16, 3.300000000000398e-03, 1.700077661333136e-04, -5.392191390746240e-06, 6.696388080172630e+01, -3.145293150355542e+00, 4.768182151393362e+02, 9.562100906322274e+02
819, 4.999999999979350e-05, 3.299999999998659e-03, 1.698161553877322e-04, -9.953212186207330e-06, 4.557526174563327e+01, -2.562243512470411e+03, 2.227082878717571e+02, 2.645583996984550e+03
820, 9.999999999983644e-05, 3.299999999996922e-03, 1.696609888943463e-04, -1.451946963793873e-05, 1.913693168340319e+01, -5.115706804610520e+03, -6.969616566702365e+01, 5.136735385260922e+03
821, 1.499999999999061e-04, 3.299999999995182e-03, 1.695421637760268e-04, -1.909284752883029e-05, -1.267342345986094e+01, -7.662915745793291e+03, -4.005384600137454e+02, 7.692069410907725e+03
822, 1.999999999999538e-04, 3.299999999993444e-03, 1.694595634810051e-04, -2.367523445375510e-05, -5.018435466597066e+01, -1.020324180490192e+04, -7.699616675631783e+02, 1.026917423485736e+04
823, -2.000000000000206e-04, 3.200000000007042e-03, 1.620261231573859e-04, 1.288501424611177e-05, 1.067892650462369e+02, 1.058817685149977e+04, 1.124918762993994e+03, 1.072013314426673e+04
824, -1.500000000000580e-04, 3.200000000005365e-03, 1.616923382846543e-04, 8.416745345453206e-06, 1.021134606639220e+02, 7.935479369889119e+03, 1.022353373483365e+03, 8.095828997014622e+03
825, -1.000000000001024e-04, 3.200000000003689e-03, 1.613963552721069e-04, 3.950780394659128e-06, 9.378977518161139e+01, 5.285875147366603e+03, 8.814893434708597e+02, 5.483233021007598e+03
826, -5.000000000014997e-05, 3.200000000002012e-03, 1.611381309578133e-04, -5.147735525667317e-07, 8.152027745888347e+01, 2.639947200520161e+03, 7.021719593889121e+02, 2.918515061268839e+03
827, -2.307656561499616e-16, 3.200000000000335e-03, 1.609176090195671e-04, -4.981814448288716e-06, 6.500074175718214e+01, -1.712293994336733e+00, 4.842461935914902e+02, 9.707873779415199e+02
828, 4.999999999978330e-05, 3.199999999998658e-03, 1.607347198489245e-04, -9.452245280069732e-06, 4.392073316945732e+01, -2.638501838365559e+03, 2.275567889054868e+02, 2.720757104371582e+03
829, 9.999999999982882e-05, 3.199999999996980e-03, 1.605893804247171e-04, -1.392797409973293e-05, 1.796358479283208e+01, -5.269810537986275e+03, -6.805162501215563e+01, 5.289525429393409e+03
830, 1.499999999999017e-04, 3.199999999995303e-03, 1.604814941859810e-04, -1.841091405037269e-05, -1.319365390368796e+01, -7.895018048530312e+03, -4.027344123173784e+02, 7.922874214272863e+03
831, 1.999999999999519e-04, 3.199999999993626e-03, 1.604109509040807e-04, -2.290298339217280e-05, -4.988029089021200e+01, -1.051349452604795e+04, -7.766468205976404e+02, 1.057827698625695e+04
832, -2.000000000000225e-04, 3.100000000006703e-03, 1.530948430234757e-04, 1.290558231700424e-05, 1.050652115834079e+02, 1.090370772257915e+04, 1.135363010796348e+03, 1.103480297719096e+04
833, -1.500000000000624e-04, 3.100000000005093e-03, 1.527654343779093e-04, 8.530552884514976e-06, 1.000040225685271e+02, 8.172775658618427e+03, 1.032922926723803e+03, 8.332908314509312e+03
834, -1.000000000001100e-04, 3.100000000003483e-03, 1.524749234563230e-04, 4.157885142831383e-06, 9.148271568350435e+01, 5.444768340538826e+03, 8.916071920530690e+02, 5.642474680578165e+03
835, -5.000000000016015e-05, 3.100000000001875e-03, 1.522232737913061e-04, -2.143420130226916e-07, 7.920332329463133e+01, 2.720268218246085e+03, 7.112490739340725e+02, 2.999787452476131e+03
836, -2.436134518939148e-16, 3.100000000000265e-03, 1.520104357809591e-04, -4.588054995863167e-06, 6.286172819762510e+01, -1.325680239572193e-01, 4.916814115626755e+02, 9.853784670173754e+02
837, 4.999999999977311e-05, 3.099999999998656e-03, 1.518363465594095e-04, -8.965185559445411e-06, 4.214743477898821e+01, -2.715832245811976e+03, 2.327367092822961e+02, 2.796983629187494e+03
838, 9.999999999982122e-05, 3.099999999997047e-03, 1.517009298663558e-04, -1.334767082993075e-05, 1.674350284162779e+01, -5.426219362445504e+03, -6.575274375065814e+01, 5.444551262146189e+03
839, 1.499999999998973e-04, 3.099999999995438e-03, 1.516040959159466e-04, -1.773745333588781e-05, -1.367347527558820e+01, -8.130672700097383e+03, -4.039547514371400e+02, 8.157106973712689e+03
840, 1.999999999999499e-04, 3.099999999993829e-03, 1.515457412652196e-04, -2.213648103653749e-05, -4.943331714318208e+01, -1.082856112939376e+04, -7.820371040772945e+02, 1.089201195929605e+04
841, -2.000000000000244e-04, 3.000000000006373e-03, 1.443519011218483e-04, 1.289843321814468e-05, 1.030821687583307e+02, 1.122412593767818e+04, 1.144425771039291e+03, 1.135413827165702e+04
842, -1.500000000000668e-04, 3.000000000004845e-03, 1.440268707631211e-04, 8.619375151579953e-06, 9.763286968691375e+01, 8.413797024962983e+03, 1.042457739989156e+03, 8.573532458453268e+03
843, -1.000000000001176e-04, 3.000000000003318e-03, 1.437418494315894e-04, 4.342741433185149e-06, 8.892573752614646e+01, 5.606209863894725e+03, 9.010373557542047e+02, 5.804127617216630e+03
844, -5.000000000017031e-05, 3.000000000001789e-03, 1.434968078163120e-04, 6.658281430831128e-08, 7.666341950966751e+01, 2.801946588325012e+03, 7.199855675922302e+02, 3.082318156906037e+03
845, -2.564273663199779e-16, 3.000000000000262e-03, 1.432917035011219e-04, -4.211055572811242e-06, 6.054207255436484e+01, 1.599227031328837e+00, 4.991227033199482e+02, 9.999840753312048e+02
846, 4.999999999976296e-05, 2.999999999998735e-03, 1.431264808310125e-04, -8.492134251680390e-06, 4.025124451863871e+01, -2.794230306802373e+03, 2.382686429864650e+02, 2.874260504843222e+03
847, 9.999999999981362e-05, 2.999999999997206e-03, 1.430010707779366e-04, -1.277861943606323e-05, 1.547384279938638e+01, -5.584930128499736e+03, -6.275705919868830e+01, 5.601810282012419e+03
848, 1.499999999998930e-04, 2.999999999995678e-03, 1.429153908058814e-04, -1.707248306298880e-05, -1.411391090446352e+01, -8.369878303961452e+03, -4.041350539452093e+02, 8.394766176588137e+03
849, 1.999999999999481e-04, 2.999999999994151e-03, 1.428693447352041e-04, -2.137570282404406e-05, -4.884250008341860e+01, -1.114844275828218e+04, -7.860460436654905e+02, 1.121037909362813e+04
850, -2.000000000000263e-04, 2.900000000006043e-03, 1.358028869846672e-04, 1.286328612152781e-05, 1.008380327840256e+02, 1.154943561786812e+04, 1.152016753635497e+03, 1.167814013736010e+04
851, -1.500000000000711e-04, 2.900000000004594e-03, 1.354822245056224e-04, 8.682971387986000e-06, 9.499583674790767e+01, 8.658548043346436e+03, 1.050889492027017e+03, 8.817703856047203e+03
852, -1.000000000001252e-04, 2.900000000003146e-03, 1.352026977570560e-04, 4.505148887448466e-06, 8.611363291433327e+01, 5.770204716112155e+03, 9.097337620743511e+02, 5.968195163826397e+03
853, -5.000000000018052e-05, 2.900000000001698e-03, 1.349642850612546e-04, 3.278412451225431e-07, 7.389493114817037e+01, 2.884987495013708e+03, 7.283576870412196e+02, 3.166111350491051e+03
854, -2.692480570096190e-16, 2.900000000000249e-03, 1.347669516667775e-04, -3.850934854542202e-06, 5.803621384526377e+01, 3.488097103310793e+00, 5.065687242176835e+02, 1.014604842518613e+03
855, 4.999999999975274e-05, 2.899999999998802e-03, 1.346106496116319e-04, -8.033168706528872e-06, 3.822719274695623e+01, -2.873691580163167e+03, 2.441737681415292e+02, 2.952584335157953e+03
856, 9.999999999980604e-05, 2.899999999997354e-03, 1.344953175857159e-04, -1.222085562308841e-05, 1.415077080013759e+01, -5.745939359597452e+03, -5.902073934194016e+01, 5.761299514952647e+03
857, 1.499999999998886e-04, 2.899999999995905e-03, 1.344208807923120e-04, -1.641599697030723e-05, -1.451700735449253e+01, -8.612632689320302e+03, -4.032086903418373e+02, 8.635849829190818e+03
858, 1.999999999999462e-04, 2.899999999994458e-03, 1.343872508086497e-04, -2.062060020314351e-05, -4.810712640920667e+01, -1.147313864263213e+04, -7.885841929979149e+02, 1.153337787746815e+04
859, -2.000000000000283e-04, 2.800000000005697e-03, 1.274534757593746e-04, 1.279988560774515e-05, 9.832558167258037e+01, 1.187963541233223e+04, 1.158043698980176e+03, 1.200681149019124e+04
860, -1.500000000000755e-04, 2.800000000004316e-03, 1.271371574749429e-04, 8.721126229975320e-06, 9.208524129770933e+01, 8.907029223993522e+03, 1.058148547898492e+03, 9.065426124333257e+03
861, -1.000000000001328e-04, 2.800000000002934e-03, 1.268631169978146e-04, 4.644932515457735e-06, 8.303897977768884e+01, 5.936755279225583e+03, 9.176493586212027e+02, 6.134681401338913e+03
862, -5.000000000019071e-05, 2.800000000001552e-03, 1.266313407678284e-04, 5.692989803390036e-07, 7.089055208814727e+01, 2.969394392279676e+03, 7.363411137989580e+02, 3.251171704953124e+03
863, -2.820416426449479e-16, 2.800000000000171e-03, 1.264418021868421e-04, -3.507786128648649e-06, 5.533696814249549e+01, 5.537828351397593e+00, 5.140180564729392e+02, 1.029241567293511e+03
864, 4.999999999974258e-05, 2.799999999998790e-03, 1.262944614789284e-04, -7.588340876553407e-06, 3.606830311172359e+01, -2.954212667890085e+03, 2.504737240265731e+02, 3.031951291041213e+03
865, 9.999999999979847e-05, 2.799999999997408e-03, 1.261892655492007e-04, -1.167438968185520e-05, 1.276761847434796e+01, -5.909244786383029e+03, -5.449894259833800e+01, 5.923015402838490e+03
866, 1.499999999998843e-04, 2.799999999996027e-03, 1.261261478414962e-04, -1.576796335715365e-05, -1.488912061079736e+01, -8.858935571495624e+03, -4.011074827576953e+02, 8.880355087287073e+03
867, 1.999999999999443e-04, 2.799999999994645e-03, 1.261050281948054e-04, -1.987109914848609e-05, -4.723302084722070e+01, -1.180265123700330e+04, -7.895598157825519e+02, 1.186100654445180e+04
868, -2.000000000000301e-04, 2.700000000005420e-03, 1.193094280612734e-04, 1.270800330909190e-05, 9.554584512283077e+01, 1.221472712027828e+04, 1.162411995792143e+03, 1.234015240472841e+04
869, -1.500000000000799e-04, 2.700000000004097e-03, 1.189974162749168e-04, 8.733651341771699e-06, 8.890069027953928e+01, 9.159244425201709e+03, 1.064163310421138e+03, 9.316700578779364e+03
870, -1.000000000001404e-04, 2.700000000002773e-03, 1.187288396973975e-04, 4.761944333405574e-06, 7.969940234305807e+01, 6.105866346728805e+03, 9.247356419551520e+02, 6.303588824758186e+03
871, -5.000000000020087e-05, 2.700000000001450e-03, 1.185036933850804e-04, 7.908487125180531e-07, 6.764659828269350e+01, 3.055172724485922e+03, 7.439106786218574e+02, 3.337502770907823e+03
872, -2.948962146524792e-16, 2.700000000000125e-03, 1.183219593975357e-04, -3.181675697799773e-06, 5.244008023228287e+01, 7.754256127823851e+00, 5.214690706675732e+02, 1.043895008862244e+03
873, 4.999999999973239e-05, 2.699999999998801e-03, 1.181836066540932e-04, -7.157675727470727e-06, 3.377051744650589e+01, -3.035787595687314e+03, 2.571906010840437e+02, 3.112358435503460e+03
874, 9.999999999979085e-05, 2.699999999997478e-03, 1.180885907889705e-04, -1.113920490548720e-05, 1.132137410951771e+01, -6.074840500000475e+03, -4.914569555082591e+01, 6.086955524351623e+03
875, 1.499999999998800e-04, 2.699999999996155e-03, 1.180368540052748e-04, -1.512832350472307e-05, -1.523114453107985e+01, -9.108781147786473e+03, -3.977614215404747e+02, 9.128280684530340e+03
876, 1.999999999999424e-04, 2.699999999994831e-03, 1.180283249281347e-04, -1.912709858615884e-05, -4.621820060919526e+01, -1.213697520487228e+04, -7.888786789998389e+02, 1.219326548619601e+04
877, -2.000000000000321e-04, 2.600000000005380e-03, 1.113765902176165e-04, 1.258743963442637e-05, 9.250426399033438e+01, 1.255471415387774e+04, 1.165022939267565e+03, 1.267816189893811e+04
878, -1.500000000000841e-04, 2.600000000004088e-03, 1.110688324131015e-04, 8.720387109555253e-06, 8.544380102174193e+01, 9.415197874062593e+03, 1.068858758446123e+03, 9.571527947274160e+03
879, -1.000000000001480e-04, 2.600000000002797e-03, 1.108056824854476e-04, 4.856065036629289e-06, 7.609348878707590e+01, 6.277542699883582e+03, 9.309417788640354e+02, 6.474919513040113e+03
880, -5.000000000021105e-05, 2.600000000001504e-03, 1.105871446244039e-04, 9.924117838542335e-07, 6.415953352508973e+01, 3.142327725460031e+03, 7.510398698954320e+02, 3.425107730061963e+03
881, -3.077169053421203e-16, 2.600000000000212e-03, 1.104132100683894e-04, -2.872641231530520e-06, 4.934061018734269e+01, 1.014278988019043e+01, 5.289197090529050e+02, 1.058565398837158e+03
882, 4.999999999972220e-05, 2.599999999998920e-03, 1.102838569571582e-04, -6.741169595880820e-06, 3.132807877649623e+01, -3.118411182565344e+03, 2.643469381215462e+02, 3.193802534474414e+03
883, 9.999999999978321e-05, 2.599999999997628e-03, 1.101990501831396e-04, -1.061525594976883e-05, 9.805904177490333e+00, -6.242722087345408e+03, -4.291371059171786e+01, 6.253117033208668e+03
884, 1.499999999998756e-04, 2.599999999996335e-03, 1.101587412417365e-04, -1.449699003702993e-05, -1.554939498597912e+01, -9.362166526276747e+03, -3.930982873509127e+02, 9.379624558211854e+03
885, 1.999999999999405e-04, 2.599999999995043e-03, 1.101628680808896e-04, -1.838846875178448e-05, -4.506879683673549e+01, -1.247610969685358e+04, -7.864435383908526e+02, 1.253015369475564e+04
886, -2.000000000000340e-04, 2.500000000005436e-03, 1.036608945960485e-04, 1.243802538250875e-05, 8.919585736554700e+01, 1.289959047964813e+04, 1.165775216065079e+03, 1.302084243803652e+04
887, -1.500000000000885e-04, 2.500000000004174e-03, 1.033573225169314e-04, 8.681204274443396e-06, 8.170850292469174e+01, 9.674886791523937e+03, 1.072158115495442e+03, 9.829911585326843e+03
888, -1.000000000001556e-04, 2.500000000002911e-03, 1.030995462153275e-04, 4.927205646612121e-06, 7.221507310841321e+01, 6.451784850165646e+03, 9.362156859785404e+02, 6.648677295750724e+03
889, -5.000000000022121e-05, 2.500000000001650e-03, 1.028875795404357e-04, 1.173939840711267e-06, 6.042290287722938e+01, 3.230862243512262e+03, 7.577015002092551e+02, 3.513990874536206e+03
890, -3.205375960317614e-16, 2.500000000000388e-03, 1.027214234418368e-04, -2.580690109175974e-06, 4.603190523343164e+01, 1.270787670412437e+01, 5.363678629167113e+02, 1.073253198624063e+03
891, 4.999999999971200e-05, 2.499999999999127e-03, 1.026010658174697e-04, -6.338788533586814e-06, 2.873440925695877e+01, -3.202078006246322e+03, 2.719658742723188e+02, 3.276279995855813e+03
892, 9.999999999977564e-05, 2.499999999997865e-03, 1.025264813609662e-04, -1.010246718246529e-05, 8.215125196824147e+00, -6.412883687310634e+03, -3.575444306439653e+01, 6.421496981294944e+03
893, 1.499999999998713e-04, 2.499999999996604e-03, 1.024976314079366e-04, -1.387384527844221e-05, -1.584892569088288e+01, -9.619085863266157e+03, -3.870440203718191e+02, 9.634384877823411e+03
894, 1.999999999999386e-04, 2.499999999995341e-03, 1.025144637811741e-04, -1.765504956857263e-05, -4.378836001197169e+01, -1.282004944204250e+04, -7.821545829859855e+02, 1.287167084736678e+04
895, -2.000000000000358e-04, 2.400000000005491e-03, 9.616835934045104e-05, 1.225962348941212e-05, 8.562494990432447e+01, 1.324935465474143e+04, 1.164565275904839e+03, 1.336819467502565e+04
896, -1.500000000000929e-04, 2.400000000004260e-03, 9.586888817177569e-05, 8.616005667470674e-06, 7.769599500114339e+01, 9.938312242118183e+03, 1.073983027466806e+03, 1.009185369226366e+04
897, -1.000000000001632e-04, 2.400000000003029e-03, 9.561641585579747e-05, 4.975309238590780e-06, 6.806223808661650e+01, 6.628595484544478e+03, 9.405042187228061e+02, 6.824865509269799e+03
898, -5.000000000023145e-05, 2.400000000001797e-03, 9.541096644564526e-05, 1.335416556584292e-06, 5.643260142951192e+01, 3.320780493051551e+03, 7.638678935385325e+02, 3.604156460623378e+03
899, -3.333650629849805e-16, 2.400000000000566e-03, 9.525255115018188e-05, -2.305797700921430e-06, 4.250835581148942e+01, 1.545495954261128e+01, 5.438115693607323e+02, 1.087959548021897e+03
900, 4.999999999970184e-05, 2.399999999999334e-03, 9.514116817878718e-05, -5.950466591847888e-06, 2.598302992774961e+01, -3.286781754573414e+03, 2.800713985156449e+02, 3.359787265660889e+03
901, 9.999999999976805e-05, 2.399999999998102e-03, 9.507680258488738e-05, -9.600730969009808e-06, 6.542331007648500e+00, -6.585318503103220e+03, -2.761772543899477e+01, 6.592092248392655e+03
902, 1.499999999998670e-04, 2.399999999996872e-03, 9.505942610834342e-05, -1.325873953818642e-05, -1.613593049328040e+01, -9.879532232031184e+03, -3.795220451637041e+02, 9.892559554142323e+03
903, 1.999999999999366e-04, 2.399999999995640e-03, 9.508899701660568e-05, -1.692664891445476e-05, -4.238205793176917e+01, -1.316878796386584e+04, -7.759088077046038e+02, 1.321781638239974e+04
904, -2.000000000000378e-04, 2.300000000005451e-03, 8.890508853508721e-05, 1.205213087206955e-05, 8.179607889569479e+01, 1.360400255346747e+04, 1.161286369956731e+03, 1.372021909712596e+04
905, -1.500000000000972e-04, 2.300000000004251e-03, 8.860961600934735e-05, 8.524728028538561e-06, 7.340733078717471e+01, 1.020547299367508e+04, 1.074252422646404e+03, 1.035735621031346e+04
906, -1.000000000001708e-04, 2.300000000003051e-03, 8.836236052932946e-05, 5.000352743169645e-06, 6.363315978670676e+01, 6.807975939009485e+03, 9.437524039995858e+02, 7.003487268773638e+03
907, -5.000000000024163e-05, 2.300000000001851e-03, 8.816335690983319e-05, 1.476859417901345e-06, 5.218431385129225e+01, 3.412085862191159e+03, 7.695103248632809e+02, 3.695608606822617e+03
908, -3.461857536746216e-16, 2.300000000000652e-03, 8.801262718190245e-05, -2.047905595614376e-06, 3.876362508341310e+01, 1.838900302100410e+01, 5.512485598423897e+02, 1.102685369512728e+03
909, 4.999999999969163e-05, 2.299999999999453e-03, 8.791018043420563e-05, -5.576104062045781e-06, 2.306601131549758e+01, -3.372516414542515e+03, 2.886879134196008e+02, 3.444320376534976e+03
910, 9.999999999976044e-05, 2.299999999998253e-03, 8.785601265301494e-05, -9.109905926396981e-06, 4.778384152592366e+00, -6.760020060441371e+03, -1.845226112239101e+01, 6.764899107876112e+03
911, 1.499999999998626e-04, 2.299999999997052e-03, 8.785010656083884e-05, -1.265148937715061e-05, -1.642044067270410e+01, -1.014349937139422e+04, -3.704539505355623e+02, 1.015414556656213e+04
912, 1.999999999999347e-04, 2.299999999995853e-03, 8.789243145369210e-05, -1.620304090866468e-05, -4.085984031203907e+01, -1.352231941797809e+04, -7.676003903289834e+02, 1.356858849627242e+04
913, -2.000000000000396e-04, 2.200000000005174e-03, 8.187727228600478e-05, 1.181548024283387e-05, 7.771310889938582e+01, 1.396352681236791e+04, 1.155828703373063e+03, 1.407691664298679e+04
914, -1.500000000001016e-04, 2.200000000004032e-03, 8.158567775985835e-05, 8.407343840364312e-06, 6.884335071512578e+01, 1.047636549134436e+04, 1.072883105831469e+03, 1.062642130459742e+04
915, -1.000000000001784e-04, 2.200000000002889e-03, 8.134353353533657e-05, 5.002348777602006e-06, 5.892607783213634e+01, 6.989926148207925e+03, 9.459036640845538e+02, 7.184545701884255e+03
916, -5.000000000025179e-05, 2.200000000001748e-03, 8.115088575912437e-05, 1.598321550404610e-06, 4.767393325709577e+01, 3.504781165362026e+03, 7.745991084129809e+02, 3.788351294334906e+03
917, -3.590132206278407e-16, 2.200000000000606e-03, 8.100776786094118e-05, -1.806919781485527e-06, 3.479162761310727e+01, 2.151514036629942e+01, 5.586762644064945e+02, 1.117431402260737e+03
918, 4.999999999968146e-05, 2.199999999999464e-03, 8.091420039131185e-05, -5.215565664477503e-06, 1.997574472034489e+01, -3.459275061970815e+03, 2.978401846655495e+02, 3.529875532971032e+03
919, 9.999999999975283e-05, 2.199999999998322e-03, 8.087019085779030e-05, -8.629815120839879e-06, 2.914656088407696e+00, -6.936980163183300e+03, -8.205743036352942e+00, 6.939914224212673e+03
920, 1.499999999998582e-04, 2.199999999997180e-03, 8.087573355978456e-05, -1.205187581724860e-05, -1.671156297635412e+01, -1.041097833042451e+04, -3.597596791360286e+02, 1.041914054707995e+04
921, 1.999999999999328e-04, 2.199999999996038e-03, 8.093080942217181e-05, -1.548396413212672e-05, -3.923109471643670e+01, -1.388063494167012e+04, -7.571212194652985e+02, 1.392398616123712e+04
922, -2.000000000000416e-04, 2.100000000004828e-03, 7.509118668509428e-05, 1.154964203888816e-05, 7.338515546652729e+01, 1.432792098308095e+04, 1.148079664758031e+03, 1.443828727125440e+04
923, -1.500000000001059e-04, 2.100000000003754e-03, 7.480333022346211e-05, 8.263863230733751e-06, 6.400883337277924e+01, 1.075098702536005e+04, 1.069789424802113e+03, 1.089905044165248e+04
924, -1.000000000001860e-04, 2.100000000002678e-03, 7.456617231559097e-05, 4.981347540672194e-06, 5.394172639995645e+01, 7.174446516990116e+03, 9.468997387812786e+02, 7.368043494309301e+03
925, -5.000000000026199e-05, 2.100000000001603e-03, 7.437977102649959e-05, 1.699893605875904e-06, 4.289890861957974e+01, 3.598869701593446e+03, 7.791036191593871e+02, 3.882388192599010e+03
926, -3.718339113174818e-16, 2.100000000000528e-03, 7.424417177740296e-05, -1.582708765564461e-06, 3.058722181474764e+01, 2.483924033395306e+01, 5.660919596292733e+02, 1.132198510120353e+03
927, 4.999999999967128e-05, 2.099999999999452e-03, 7.415940717984975e-05, -4.868678671895655e-06, 1.670519934172535e+01, -3.547049617108222e+03, 3.075536452143183e+02, 3.616449276639817e+03
928, 9.999999999974523e-05, 2.099999999998377e-03, 7.412549686825891e-05, -8.160244192914209e-06, 9.429676872164237e-01, -7.116188887915576e+03, 3.175673354744504e+00, 7.117134689581269e+03
929, 1.499999999998539e-04, 2.099999999997302e-03, 7.414244733100360e-05, -1.145964246403864e-05, -1.701783173025672e+01, -1.068195769610564e+04, -3.473567297243214e+02, 1.068754270641677e+04
930, 1.999999999999309e-04, 2.099999999996226e-03, 7.421025174028283e-05, -1.476911974920259e-05, -3.750420102740486e+01, -1.424372219703778e+04, -7.443599622638872e+02, 1.428400912782735e+04
931, -2.000000000000435e-04, 2.000000000004496e-03, 6.855319393242061e-05, 1.125462636276417e-05, 6.881996074656558e+01, 1.469717440798981e+04, 1.137923374269252e+03, 1.480433153698655e+04
932, -1.500000000001103e-04, 2.000000000003499e-03, 6.826891532750551e-05, 8.094335916031398e-06, 5.890728344907234e+01, 1.102933155393981e+04, 1.064883329589703e+03, 1.117524562133309e+04
933, -1.000000000001936e-04, 2.000000000002501e-03, 6.803659845993784e-05, 4.937438745618757e-06, 4.867993584436613e+01, 7.361535275554845e+03, 9.466806593067981e+02, 7.553983737231255e+03
934, -5.000000000027220e-05, 2.000000000001505e-03, 6.785631391320921e-05, 1.781705687504740e-06, 3.785569751006665e+01, 3.694353361464195e+03, 7.829922770989515e+02, 3.977723317488083e+03
935, -3.846512138753339e-16, 2.000000000000507e-03, 6.772811970713891e-05, -1.375101656450691e-06, 2.614387471066539e+01, 2.836628741942309e+01, 5.734927319730617e+02, 1.146987617030782e+03
936, 4.999999999966107e-05, 1.999999999999510e-03, 6.765206112823988e-05, -4.535231000647194e-06, 1.324525135120166e+01, -3.635832591272601e+03, 3.178543322441891e+02, 3.704037608830880e+03
937, 9.999999999973761e-05, 1.999999999998513e-03, 6.762817055849022e-05, -7.700939457200161e-06, -1.148003516117114e+00, -7.297636872027883e+03, 1.574725659023323e+01, 7.296556839542647e+03
938, 1.499999999998495e-04, 1.999999999997515e-03, 6.765646730249561e-05, -1.087449361612150e-05, -1.735244023525115e+01, -1.095642694834517e+04, -3.331603219155865e+02, 1.095934917293795e+04
939, 1.999999999999290e-04, 1.999999999996517e-03, 6.773695741308073e-05, -1.405816962350651e-05, -3.569341528430095e+01, -1.461156982670583e+04, -7.292021368275628e+02, 1.464865578087116e+04
940, -2.000000000000454e-04, 1.900000000004165e-03, 6.226974228495530e-05, 1.093048498857799e-05, 6.402910297227345e+01, 1.507127617958083e+04, 1.125240993254893e+03, 1.517504971952254e+04
941, -1.500000000001146e-04, 1.900000000003247e-03, 6.198886007630478e-05, 7.898853188113776e-06, 5.354480747386219e+01, 1.131139269365318e+04, 1.058074438674491e+03, 1.145500873415020e+04
942, -1.000000000002012e-04, 1.900000000002328e-03, 6.176121764761153e-05, 4.870753600344919e-06, 4.314209457854781e+01, 7.551190337682632e+03, 9.451848181735827e+02, 7.742369519908078e+03
943, -5.000000000028235e-05, 1.900000000001409e-03, 6.158689871646984e-05, 1.843929320427136e-06, 3.254156969022870e+01, 3.791234011544638e+03, 7.862325269256743e+02, 4.074360712803567e+03
944, -3.974685164331859e-16, 1.900000000000491e-03, 6.146597452371152e-05, -1.183886203955722e-06, 2.145527575330698e+01, 3.210166733799247e+01, 5.808753784704237e+02, 1.161799538176189e+03
945, 4.999999999965091e-05, 1.899999999999572e-03, 6.139850366026930e-05, -4.214969261845325e-06, 9.586548980435737e+00, -3.725615546476979e+03, 3.287686855830435e+02, 3.792636297931754e+03
946, 9.999999999973007e-05, 1.899999999998654e-03, 6.138453189224607e-05, -7.251605966782902e-06, -3.370098523355409e+00, -7.481313123470315e+03, 2.956537359388091e+01, 7.478176805185597e+03
947, 1.499999999998452e-04, 1.899999999997735e-03, 6.142409198420739e-05, -1.029609234357626e-05, -1.772909880302063e+01, -1.123437303176218e+04, -3.170839092638430e+02, 1.123455695347377e+04
948, 1.999999999999271e-04, 1.899999999996817e-03, 6.151720352055341e-05, -1.335073441429780e-05, -3.381390860407737e+01, -1.498416350966713e+04, -7.115306474259687e+02, 1.501792451182625e+04
949, -2.000000000000473e-04, 1.800000000003828e-03, 5.624736607522529e-05, 1.057731341160457e-05, 5.902373906318894e+01, 1.545021121629620e+04, 1.109910688141980e+03, 1.555044240212932e+04
950, -1.500000000001189e-04, 1.800000000002982e-03, 5.596967653158296e-05, 7.677549963956189e-06, 4.792789637728242e+01, 1.159716147606184e+04, 1.049270105334267e+03, 1.173834176082407e+04
951, -1.000000000002088e-04, 1.800000000002135e-03, 5.574651959653135e-05, 4.781466846312487e-06, 3.733002591353193e+01, 7.743408060471900e+03, 9.423489816415351e+02, 7.933203961042872e+03
952, -5.000000000029254e-05, 1.800000000001289e-03, 5.557799275135430e-05, 1.886779481905804e-06, 2.695404007348679e+01, 3.889512770748638e+03, 7.887908829122096e+02, 4.172304420314573e+03
953, -4.102858189910380e-16, 1.800000000000442e-03, 5.546418109513309e-05, -1.008806777833740e-06, 1.651510518772216e+01, 3.605076983229469e+01, 5.882364805017579e+02, 1.176635147429094e+03
954, 4.999999999964072e-05, 1.799999999999596e-03, 5.540515716812278e-05, -3.907596748516231e-06, 5.719481875268912e+00, -3.816389292245386e+03, 3.403236797228980e+02, 3.882241145154514e+03
955, 9.999999999972246e-05, 1.799999999998750e-03, 5.540098077335599e-05, -6.811905507548032e-06, -5.735590837842665e+00, -7.667205099977431e+03, 4.468771998362166e+01, 7.661990799312207e+03
956, 1.499999999998409e-04, 1.799999999997903e-03, 5.545169879636438e-05, -9.724058488129042e-06, -1.816200449481380e+01, -1.151578047828431e+04, -2.990387180082317e+02, 1.151316321383040e+04
957, 1.999999999999252e-04, 1.799999999997057e-03, 5.555734502307122e-05, -1.264639157211618e-05, -3.188098370339094e+01, -1.536148526592507e+04, -6.912254195539358e+02, 1.539181398575423e+04
958, -2.000000000000492e-04, 1.700000000003484e-03, 5.049268562793006e-05, 1.019525297628351e-05, 5.381990731299493e+01, 1.583396415157187e+04, 1.091807745494582e+03, 1.593050937610296e+04
959, -1.500000000001233e-04, 1.700000000002704e-03, 5.021796172405057e-05, 7.430606894815304e-06, 4.206609485428180e+01, 1.188662827788001e+04, 1.038375274963636e+03, 1.202524619931694e+04
960, -1.000000000002164e-04, 1.700000000001925e-03, 4.999907796115161e-05, 4.669798857492175e-06, 3.124739834516504e+01, 7.938184176111887e+03, 9.381082292197283e+02, 8.126489857651893e+03
961, -5.000000000030273e-05, 1.700000000001145e-03, 4.983614622977575e-05, 1.910516688958375e-06, 2.109148045417237e+01, 3.989190340537291e+03, 7.906328749528418e+02, 4.271558256095512e+03
962, -4.231031215488901e-16, 1.700000000000365e-03, 4.972926614006103e-05, -8.495622910641709e-07, 1.131695945268439e+01, 4.021881332599332e+01, 5.955723506103700e+02, 1.191495285934258e+03
963, 4.999999999963053e-05, 1.699999999999585e-03, 4.967852484191128e-05, -3.612771370153765e-06, 1.633365414937089e+00, -3.908144587854893e+03, 3.525467479514759e+02, 3.972847905701837e+03
964, 9.999999999971485e-05, 1.699999999998805e-03, 4.968399684347502e-05, -6.381454544874229e-06, -8.258991155144486e+00, -7.855300101687459e+03, 6.117320388391539e+01, 7.847994828864116e+03
965, 1.499999999998365e-04, 1.699999999998025e-03, 4.974574382778006e-05, -9.157966622273322e-06, -1.866915975844472e+01, -1.180063384250900e+04, -2.789340097162242e+02, 1.179516462423000e+04
966, 1.999999999999232e-04, 1.699999999997246e-03, 4.986381446717397e-05, -1.194467332101813e-05, -2.991558937149898e+01, -1.574351751139800e+04, -6.681633936822390e+02, 1.577032195760578e+04
967, -2.000000000000511e-04, 1.600000000003144e-03, 4.501240725718777e-05, 9.784493044624499e-06, 4.843477207667070e+01, 1.622251634039001e+04, 1.070804047349951e+03, 1.631525052856184e+04
968, -1.500000000001277e-04, 1.600000000002436e-03, 4.474039760657011e-05, 7.158252528645568e-06, 3.596987362740629e+01, 1.217978100878861e+04, 1.025292471982168e+03, 1.231572358811607e+04
969, -1.000000000002240e-04, 1.600000000001727e-03, 4.452555025015624e-05, 4.536017791906960e-06, 2.489876047270354e+01, 8.135512934394974e+03, 9.323959469023208e+02, 8.322229934664647e+03
970, -5.000000000031292e-05, 1.600000000001018e-03, 4.436799214869452e-05, 1.915449140713048e-06, 1.495296246596695e+01, 4.090266794022108e+03, 7.917230775377054e+02, 4.372125861831507e+03
971, -4.359339766338982e-16, 1.600000000000309e-03, 4.426783809165852e-05, -7.058040672336009e-07, 5.854942175360065e+00, 4.461123772879046e+01, 6.028790729337113e+02, 1.206380850631620e+03
972, 4.999999999962034e-05, 1.599999999999600e-03, 4.422519051436342e-05, -3.330103530773138e-06, -2.682073042734828e+00, -4.000871007860549e+03, 3.654658248875268e+02, 4.064452710407944e+03
973, 9.999999999970728e-05, 1.599999999998891e-03, 4.424013931399062e-05, -5.959822113775547e-06, -1.095425052949236e+01, -8.045583023193277e+03, 7.908197802881267e+01, 8.036185373142692e+03
974, 1.499999999998322e-04, 1.599999999998182e-03, 4.431276166403277e-05, -8.597343954265039e-06, -1.926731906328359e+01, -1.208891355047979e+04, -2.566770090057474e+02, 1.208055845146884e+04
975, 1.999999999999214e-04, 1.599999999997473e-03, 4.444312182681531e-05, -1.124506457420405e-05, -2.793675430254211e+01, -1.613023681004438e+04, -6.422187842727529e+02, 1.615344690623752e+04
976, -2.000000000000531e-04, 1.500000000002802e-03, 3.981332317033320e-05, 9.345273217098118e-06, 4.288767706281510e+01, 1.661584643906758e+04, 1.046768560993306e+03, 1.670466580953496e+04
977, -1.500000000001320e-04, 1.500000000002160e-03, 3.954375093890744e-05, 6.860765518504812e-06, 2.965178218647361e+01, 1.247660595802200e+04, 1.009921912053755e+03, 1.260977546703884e+04
978, -1.000000000002316e-04, 1.500000000001518e-03, 3.933267768713371e-05, 4.380441793072926e-06, 1.828998138308998e+01, 8.335387446369019e+03, 9.251439566383123e+02, 8.520426961373059e+03
979, -5.000000000032311e-05, 1.500000000000877e-03, 3.918024612329381e-05, 1.901934912526480e-06, 8.538108061249432e+00, 4.192741481363408e+03, 7.920252416620834e+02, 4.474010930124410e+03
980, -4.487512791917503e-16, 1.500000000000236e-03, 3.908658690045759e-05, -5.771336534209117e-07, 1.228526384895758e-01, 4.923307399667806e+01, 6.101526432402711e+02, 1.221293087696073e+03
981, 4.999999999961016e-05, 1.499999999999595e-03, 3.905181843011737e-05, -3.059153950228120e-06, -7.238403055370554e+00, -4.094558288878884e+03, 3.791094807761538e+02, 4.157051821027229e+03
982, 9.999999999969963e-05, 1.499999999998952e-03, 3.907604669581243e-05, -5.546527651421706e-06, -1.383781180027904e+01, -8.238038715782608e+03, 9.847557408716580e+01, 8.226558834885396e+03
983, 1.499999999998278e-04, 1.499999999998311e-03, 3.915936506748173e-05, -8.041668173766772e-06, -1.997731638757659e+01, -1.238059995222481e+04, -2.321727521345212e+02, 1.236934148178094e+04
984, 1.999999999999195e-04, 1.499999999997670e-03, 3.930185411429731e-05, -1.054700079605920e-05, -2.596890071052007e+01, -1.652161924784141e+04, -6.132627069120440e+02, 1.654118632279909e+04
985, -2.000000000000549e-04, 1.400000000002461e-03, 3.490231138047867e-05, 8.877885607641313e-06, 3.720115716950568e+01, 1.701393100797752e+04, 1.019567057125042e+03, 1.709875505302109e+04
986, -1.500000000001364e-04, 1.400000000001890e-03, 3.463487317295619e-05, 6.538476886732686e-06, 2.312641132199178e+01, 1.277708769244796e+04, 9.921613091482312e+02, 1.290740348071382e+04
987, -1.000000000002392e-04, 1.400000000001320e-03, 3.442728506688886e-05, 4.203441240471226e-06, 1.142828238407947e+01, 8.537799811210818e+03, 9.162823702052232e+02, 8.721083933513242e+03
988, -5.000000000033329e-05, 1.400000000000748e-03, 3.427970621348302e-05, 1.870384197469626e-06, 1.847317982546656e+00, 4.296613435005583e+03, 7.915022299332323e+02, 4.577217399237908e+03
989, -4.615719698813914e-16, 1.400000000000178e-03, 3.419228383257331e-05, -4.631005855025742e-07, -5.885201615046071e+00, 5.408972283576827e+01, 6.173889507331353e+02, 1.236233577246763e+03
990, 4.999999999959998e-05, 1.399999999999606e-03, 3.416515301848645e-05, -2.799431437769135e-06, -1.204734335774469e+01, -4.189195112082965e+03, 3.935068870363404e+02, 4.250641617726224e+03
991, 9.999999999969204e-05, 1.399999999999035e-03, 3.419843655161411e-05, -5.141038784809402e-06, -1.692675760823499e+01, -8.432650213879622e+03, 1.194167745576546e+02, 8.419111755798198e+03
992, 1.499999999998235e-04, 1.399999999998463e-03, 3.429224471451687e-05, -7.490365262416807e-06, -2.082100186355456e+01, -1.267567051048090e+04, -2.053243845724821e+02, 1.266151051404819e+04
993, 1.999999999999176e-04, 1.399999999997893e-03, 3.444667511183495e-05, -9.849865843115496e-06, -2.403781381976341e+01, -1.691763673183103e+04, -5.811635329726671e+02, 1.693353739213578e+04
994, -2.000000000000568e-04, 1.300000000002126e-03, 3.028633562341888e-05, 8.382677173758078e-06, 3.139930289094286e+01, 1.741674270541187e+04, 9.890620559355274e+02, 1.749751811616561e+04
995, -1.500000000001407e-04, 1.300000000001629e-03, 3.002070033821909e-05, 6.191772334533988e-06, 1.640877740634528e+01, 1.308120722087702e+04, 9.719057528588228e+02, 1.320860937185569e+04
996, -1.000000000002468e-04, 1.300000000001133e-03, 2.981628060861748e-05, 4.005441043485102e-06, 4.320525319023545e+00, 8.742739373825187e+03, 9.057393512622007e+02, 8.924204113624211e+03
997, -5.000000000034346e-05, 1.300000000000637e-03, 2.967325274257674e-05, 1.821261587521961e-06, -5.119556524104382e+00, 4.401880503979108e+03, 7.901157487859382e+02, 4.681749792459393e+03
998, -4.743892724392434e-16, 1.300000000000140e-03, 2.959178124700666e-05, -3.632001147971919e-07, -1.217537039879358e+01, 5.918746589018519e+01, 6.245836405514297e+02, 1.251204040347184e+03
999, 4.999999999958981e-05, 1.299999999999644e-03, 2.957201862535261e-05, -2.550390623208348e-06, -1.712069144102406e+01, -4.284767591752526e+03, 4.086879647271834e+02, 4.345217310536927e+03
1000, 9.999999999968445e-05, 1.299999999999148e-03, 2.961410518061044e-05, -4.742769067024613e-06, -2.023880306748924e+01, -8.629397413076367e+03, 1.419700447129125e+02, 8.613839675004008e+03
1001, 1.499999999998191e-04, 1.299999999998652e-03, 2.971816883824567e-05, -6.942807241387390e-06, -2.182223409887752e+01, -1.297409995462276e+04, -1.760325523896853e+02, 1.295706170347207e+04
1002, 1.999999999999157e-04, 1.299999999998155e-03, 2.988432497460578e-05, -9.152989731839020e-06, -2.217323249807237e+01, -1.731825900003191e+04, -5.457865205064584e+02, 1.733049666287013e+04
1003, -2.000000000000587e-04, 1.200000000001781e-03, 2.597244519778879e-05, 7.860052119320564e-06, 2.551005023123275e+01, 1.782425100718626e+04, 9.551131929659434e+02, 1.790095373152778e+04
1004, -1.500000000001450e-04, 1.200000000001350e-03, 2.570825288645762e-05, 5.821094639693851e-06, 9.513738137767177e+00, 1.338893845162360e+04, 9.490475860380332e+02, 1.351339228121844e+04
1005, -1.000000000002543e-04, 1.200000000000919e-03, 2.550665581566397e-05, 3.786923016366381e-06, -3.029452678679945e+00, 8.950187154261097e+03, 8.934400237336513e+02, 9.129787944679711e+03
1006, -5.000000000035367e-05, 1.200000000000488e-03, 2.536784815198480e-05, 1.755088403381168e-06, -1.236558477318181e+01, 4.508536326752843e+03, 7.878244485503374e+02, 4.787611465080916e+03
1007, -4.872353741173022e-16, 1.200000000000057e-03, 2.529201240841429e-05, -2.768709345912228e-07, -1.875461227789060e+01, 6.453575202213710e+01, 6.317303382963819e+02, 1.266203050889341e+03
1008, 4.999999999957962e-05, 1.199999999999626e-03, 2.527931923534040e-05, -2.311429722006557e-06, -2.246889644341650e+01, -4.381252293020383e+03, 4.246826893343637e+02, 4.440767303603748e+03
1009, 9.999999999967686e-05, 1.199999999999196e-03, 2.532992723361286e-05, -4.351075743233198e-06, -2.379020286837545e+01, -8.828249247565600e+03, 1.662023718111721e+02, 8.810731637232711e+03
1010, 1.499999999998148e-04, 1.199999999998765e-03, 2.544398274962238e-05, -6.398309910261482e-06, -2.300670164469580e+01, -1.327585685411205e+04, -1.441936965710804e+02, 1.325598749442218e+04
1011, 1.999999999999137e-04, 1.199999999998334e-03, 2.562161970179465e-05, -8.455646361530025e-06, -2.041147875654929e+01, -1.772345634820990e+04, -5.069923269616387e+02, 1.773206030128114e+04
1012, -2.000000000000607e-04, 1.100000000001707e-03, 2.196777474829453e-05, 7.310474397570132e-06, 1.956979877847584e+01, 1.823642499792541e+04, 9.175793496980103e+02, 1.830905843561202e+04
1013, -1.500000000001494e-04, 1.100000000001301e-03, 2.170463553953887e-05, 5.426946276678181e-06, 2.452939714049535e+00, 1.370023547258526e+04, 9.234771267625883e+02, 1.382173962757389e+04
1014, -1.000000000002619e-04, 1.100000000000895e-03, 2.150548545336387e-05, 3.548428512503311e-06, -1.062679034588950e+01, 9.160098232452816e+03, 8.793032237998065e+02, 9.337820628033356e+03
1015, -5.000000000036384e-05, 1.100000000000489e-03, 2.137053709063595e-05, 1.672445162468726e-06, -1.990259683946374e+01, 4.616559218131932e+03, 7.845772114688932e+02, 4.894795579461216e+03
1016, -5.000628410705213e-16, 1.100000000000083e-03, 2.129999153322473e-05, -2.034929822696863e-07, -2.563280333878697e+01, 7.015155455919876e+01, 6.388133433000839e+02, 1.281212157892226e+03
1017, 4.999999999956943e-05, 1.099999999999677e-03, 2.129403832405881e-05, -2.081888556245737e-06, -2.809886625571721e+01, -4.478597612256563e+03, 4.415172735299204e+02, 4.537255679312802e+03
1018, 9.999999999966927e-05, 1.099999999999272e-03, 2.135285526316328e-05, -3.965257799243943e-06, -2.759232611398056e+01, -9.029142125192757e+03, 1.921847689242260e+02, 9.009752423175734e+03
1019, 1.499999999998105e-04, 1.099999999998866e-03, 2.147660814735683e-05, -5.856130709495244e-06, -2.440057735174764e+01, -1.358089227666593e+04, -1.096944852914107e+02, 1.355826680346672e+04
1020, 1.999999999999118e-04, 1.099999999998460e-03, 2.166545035743189e-05, -7.757051124497414e-06, -1.880304539944427e+01, -1.813321019452806e+04, -4.646321007860346e+02, 1.813822698944760e+04
1021, -2.000000000000626e-04, 1.000000000002109e-03, 1.827954399195077e-05, 6.734470257773213e-06, 1.363034073016593e+01, 1.865324064773833e+04, 8.763257082740990e+02, 1.872182841992344e+04
1022, -1.500000000001537e-04, 1.000000000001674e-03, 1.801703717499107e-05, 5.009892611864227e-06, -4.761365139401050e+00, 1.401501431418739e+04, 8.950861461442155e+02, 1.413360629615528e+04
1023, -1.000000000002696e-04, 1.000000000001239e-03, 1.781992787333060e-05, 3.290561796209377e-06, -1.848710655763648e+01, 9.372371254009346e+03, 8.632350221284238e+02, 9.548241700017184e+03
1024, -5.000000000037402e-05, 1.000000000000804e-03, 1.768844706331035e-05, 1.573974483780885e-06, -2.775323573467153e+01, 4.725894944505277e+03, 7.802965688105351e+02, 5.003261132770162e+03
1025, -5.128852258260569e-16, 1.000000000000369e-03, 1.762281448767727e-05, -1.423854449968784e-07, -3.282738017146880e+01, 7.606606323804863e+01, 6.457891312933968e+02, 1.296160557340140e+03
1026, 4.999999999955924e-05, 9.999999999999337e-04, 1.762323911204700e-05, -1.861047356009375e-06, -3.402034517226798e+01, -4.576695144291500e+03, 4.592025562504766e+02, 4.634583291000479e+03
1027, 9.999999999966167e-05, 9.999999999994987e-04, 1.768991934772909e-05, -3.584554922274645e-06, -3.165596943241326e+01, -9.231943674252587e+03, 2.199942105827405e+02, 9.210802552558867e+03
1028, 1.499999999998061e-04, 9.999999999990637e-04, 1.782304215085579e-05, -5.315467081637103e-06, -2.603809698109649e+01, -1.388912499544819e+04, -7.239945391702173e+01, 1.386384308473520e+04
1029, 1.999999999999099e-04, 9.999999999986283e-04, 1.802278197291201e-05, -7.056358235054181e-06, -1.742339838915632e+01, -1.854753510710377e+04, -4.185349330956532e+02, 1.854900875783738e+04
1030, -2.000000000000644e-04, 9.000000000025380e-04, 1.491505804259034e-05, 6.132630653688220e-06, 7.761125128431786e+00, 1.907469643355364e+04, 8.312327752239615e+02, 1.913927411795176e+04
1031, -1.500000000001581e-04, 9.000000000020734e-04, 1.465273136747879e-05, 4.570566054693634e-06, -1.209125188246185e+01, 1.433316165815805e+04, 8.637722875619984e+02, 1.444889931143775e+04
1032, -1.000000000002772e-04, 9.000000000016087e-04, 1.445722594574489e-05, 3.013994828356647e-06, -2.657574163338904e+01, 9.586888439858536e+03, 8.451192016945411e+02, 9.760922058346716e+03
1033, -5.000000000038420e-05, 9.000000000011442e-04, 1.432878989205396e-05, 1.460384821401775e-06, -3.591022045276600e+01, 4.836489072262606e+03, 7.748598448429958e+02, 5.112915605039233e+03
1034, -5.256991402521199e-16, 9.000000000006796e-04, 1.426766011150882e-05, -9.280507818563744e-08, -4.036852117576905e+01, 8.233184486165464e+01, 6.525629094848254e+02, 1.310880918759183e+03
1035, 4.999999999954906e-05, 9.000000000002148e-04, 1.427406553565098e-05, -1.648126953561117e-06, -4.029630493934633e+01, -4.675400214316671e+03, 4.777197022998506e+02, 4.732552451541006e+03
1036, 9.999999999965402e-05, 8.999999999997502e-04, 1.434822716208328e-05, -3.208148209153595e-06, -3.606114479782946e+01, -9.436488468733023e+03, 2.497127095599598e+02, 9.413684699513284e+03
1037, 1.499999999998018e-04, 8.999999999992857e-04, 1.449035684019465e-05, -4.775455763943902e-06, -2.799178395541821e+01, -1.420045645039511e+04, -3.213587765118973e+01, 1.417261040105213e+04
1038, 1.999999999999080e-04, 8.999999999988212e-04, 1.470065301518872e-05, -6.352657419233812e-06, -1.637782091611075e+01, -1.896651626576525e+04, -3.684909676951803e+02, 1.896446385880817e+04
1039, -2.000000000000664e-04, 8.000000000027327e-04, 1.188171222090385e-05, 5.505612733862184e-06, 1.894492652183317e+00, 1.950069871967153e+04, 7.821615367553109e+02, 1.956145375379716e+04
1040, -1.500000000001624e-04, 8.000000000022627e-04, 1.161907988376883e-05, 4.109670053173837e-06, -1.932338678560313e+01, 1.465482494506658e+04, 8.294012169903324e+02, 1.476760829586769e+04
1041, -1.000000000002848e-04, 8.000000000017928e-04, 1.142470895624528e-05, 2.719471424187366e-06, -3.452894390676579e+01, 9.804003050376197e+03, 8.248243742059935e+02, 9.975873535468796e+03
1042, -5.000000000039436e-05, 8.000000000013229e-04, 1.129886093345271e-05, 1.332453678970556e-06, -4.408723033324463e+01, 4.948691073901042e+03, 7.681505626842767e+02, 5.223797119245854e+03
1043, -5.385198309417610e-16, 8.000000000008525e-04, 1.124178897559210e-05, -5.394471570391046e-08, -4.828936307676076e+01, 8.902501537265857e+01, 6.590668814850073e+02, 1.325266711122875e+03
1044, 4.999999999953886e-05, 8.000000000003829e-04, 1.125374131262004e-05, -1.442288788875216e-06, -4.728402022656383e+01, -4.774938579003992e+03, 4.970642816089595e+02, 4.831046390517766e+03
1045, 9.999999999964645e-05, 7.999999999999128e-04, 1.133496564335247e-05, -2.835160522013433e-06, -4.124158476361322e+01, -9.643076292241958e+03, 2.814260902092179e+02, 9.618317541375807e+03
1046, 1.499999999997974e-04, 7.999999999994429e-04, 1.148570254967684e-05, -4.235171889074453e-06, -3.053286793131542e+01, -1.451507446414129e+04, 1.126674939289683e+01, 1.448455912380161e+04
1047, 1.999999999999061e-04, 7.999999999989728e-04, 1.170618031901206e-05, -5.644969075579110e-06, -1.564116704058210e+01, -1.939021059178778e+04, -3.142794529124722e+02, 1.938476274532244e+04
1048, -2.000000000000683e-04, 7.000000000024487e-04, 9.187013377938584e-06, 4.854141337914133e-06, -4.687073972539793e+00, 1.993059266610813e+04, 7.286657574365405e+02, 1.998847651672116e+04
1049, -1.500000000001667e-04, 7.000000000020254e-04, 8.923548612468594e-06, 3.627971623581305e-06, -2.590757425660922e+01, 1.498142437665173e+04, 7.915650850497818e+02, 1.509060348098225e+04
1050, -1.000000000002923e-04, 7.000000000016023e-04, 8.729791074240189e-06, 2.407794107022815e-06, -4.073384922103810e+01, 1.002678863477130e+04, 8.022662998943694e+02, 1.019458355350900e+04
1051, -5.000000000040459e-05, 7.000000000011791e-04, 8.606022896383754e-06, 1.191017511983678e-06, -5.091340803083995e+01, 5.065030195960018e+03, 7.605362622943254e+02, 5.337278387368740e+03
1052, -5.513337453678241e-16, 7.000000000007558e-04, 8.552518441560888e-06, -2.493109472063170e-08, -5.656326950897733e+01, 9.622844067048345e+01, 6.658682665310795e+02, 1.340472864399718e+03
1053, 4.999999999952868e-05, 7.000000000003326e-04, 8.569555305027168e-06, -1.242620493180796e-06, -5.634592014750797e+01, -4.877728193740502e+03, 5.176767244075013e+02, 4.931296360196766e+03
1054, 9.999999999963887e-05, 6.999999999999092e-04, 8.657402211343048e-06, -2.464638708451091e-06, -4.889925148587122e+01, -9.854791381605342e+03, 3.152165219212741e+02, 9.826136895561121e+03
1055, 1.499999999997930e-04, 6.999999999994860e-04, 8.816327259493073e-06, -3.693616338091473e-06, -3.432002379392998e+01, -1.483450521128491e+04, 5.768072432055430e+01, 1.480063477854446e+04
1056, 1.999999999999042e-04, 6.999999999990628e-04, 9.046584029431173e-06, -4.932238900526592e-06, -1.453667838375532e+01, -1.981816187556239e+04, -2.559673878864568e+02, 1.981024099209734e+04
1057, -2.000000000000702e-04, 6.000000000020976e-04, 6.838644187443084e-06, 4.179014786004579e-06, -1.555815730480936e+01, 2.036064266552251e+04, 6.688635725901926e+02, 2.042006547215609e+04
1058, -1.500000000001711e-04, 6.000000000017323e-04, 6.573745135070673e-06, 3.126245089292823e-06, -3.022649767938628e+01, 1.531935853271788e+04, 7.485439779561657e+02, 1.542241981509819e+04
1059, -1.000000000003000e-04, 6.000000000013669e-04, 6.379956190833047e-06, 2.079724294542723e-06, -4.073414544112097e+01, 1.026737801445311e+04, 7.777334945899589e+02, 1.042480953568878e+04
1060, -5.000000000041474e-05, 6.000000000010013e-04, 6.257618071105541e-06, 1.036896420035746e-06, -5.258892959925151e+01, 5.195006801396887e+03, 7.546054480260616e+02, 5.460309376283669e+03
1061, -5.641662945187267e-16, 6.000000000006360e-04, 6.207116854188914e-06, -4.820095394455432e-09, -6.491903412006081e+01, 1.039676979299381e+02, 6.766418265364809e+02, 1.363781277895040e+03
1062, 4.999999999951849e-05, 6.000000000002706e-04, 6.228779904820769e-06, -1.048050845233460e-06, -7.093130359686779e+01, -4.993327409892562e+03, 5.420618192436475e+02, 5.040367793207351e+03
1063, 9.999999999963128e-05, 5.999999999999052e-04, 6.322880594760414e-06, -2.095445033989283e-06, -6.348023360331376e+01, -1.008399104692186e+04, 3.512965352121675e+02, 1.004511194474418e+04
1064, 1.499999999997888e-04, 5.999999999995398e-04, 6.489627273750812e-06, -3.149651721216765e-06, -4.120156589389421e+01, -1.516544140772724e+04, 1.054601902041782e+02, 1.512571050232586e+04
1065, 1.999999999999023e-04, 5.999999999991742e-04, 6.729264791363062e-06, -4.213336294568059e-06, -9.538336927265163e+00, -2.024681330009773e+04, -1.951115731003154e+02, 2.024103683210909e+04
1066, -2.000000000000721e-04, 5.000000000017480e-04, 4.844567307453679e-06, 3.481160980332957e-06, -3.671711074675363e+01, 2.078350655124577e+04, 5.964144155161520e+02, 2.085436534530685e+04
1067, -1.500000000001754e-04, 5.000000000014432e-04, 4.577492094720152e-06, 2.605052368509682e-06, -2.954012320655011e+01, 1.568757500837951e+04, 6.952874304896403e+02, 1.577851090893938e+04
1068, -1.000000000003076e-04, 5.000000000011384e-04, 4.382646134551551e-06, 1.735619635248221e-06, -3.026719226827709e+01, 1.055420629208884e+04, 7.527628360637359e+02, 1.069100961043875e+04
1069, -5.000000000042491e-05, 5.000000000008338e-04, 4.260730098544506e-06, 8.706234035462592e-07, -4.564810598789859e+01, 5.359325778043041e+03, 7.598582215126484e+02, 5.614559711523067e+03
1070, -5.769852911424733e-16, 5.000000000005289e-04, 4.212475310594170e-06, 7.414086486766241e-09, -7.275187995943315e+01, 1.118325822769618e+02, 7.038566336896452e+02, 1.419763384108344e+03
1071, 4.999999999950832e-05, 5.000000000002242e-04, 4.238447967778497e-06, -8.570580502708306e-07, -9.326867867857663e+01, -5.142981613266197e+03, 5.793514875574357e+02, 5.180945213595833e+03
1072, 9.999999999962365e-05, 4.999999999999196e-04, 4.338735709531216e-06, -1.725873198865580e-06, -8.860628606508385e+01, -1.035958257567659e+04, 3.906294588911614e+02, 1.030064655438561e+04
1073, 1.499999999997844e-04, 4.999999999996149e-04, 4.513253494611427e-06, -2.601766084258021e-06, -5.405238595486844e+01, -1.552741760311671e+04, 1.490579086788346e+02, 1.547623675782432e+04
1074, 1.999999999999003e-04, 4.999999999993100e-04, 4.761939021952019e-06, -3.487098404668648e-06, 5.167291502403486e+00, -2.066903917218511e+04, -1.380653085250017e+02, 2.067605042122047e+04
1075, -2.000000000000740e-04, 4.000000000013997e-04, 3.212990656627685e-06, 2.761717050714074e-06, -7.747597756683626e+01, 2.118521364239860e+04, 4.958563477690893e+02, 2.128580428232575e+04
1076, -1.500000000001797e-04, 4.000000000011572e-04, 2.942550291805731e-06, 2.064173590110559e-06, -1.263979844446840e+01, 1.613666828848737e+04, 6.219271525787178e+02, 1.619713941469607e+04
1077, -1.000000000003152e-04, 4.000000000009148e-04, 2.744932948637017e-06, 1.374658348585526e-06, -2.043303155397371e+01, 1.092183740952233e+04, 7.355812294664406e+02, 1.104072467667887e+04
1078, -5.000000000043512e-05, 4.000000000006724e-04, 2.621664942806557e-06, 6.919086946797376e-07, -7.532553668609307e+01, 5.534274252218933e+03, 7.965948235556696e+02, 5.831454624992470e+03
1079, -5.898025937003254e-16, 4.000000000004300e-04, 2.574692261595958e-06, 1.290091224535632e-08, -7.965799448928419e+01, 1.178996460372041e+02, 7.727210098004977e+02, 1.558017990036956e+03
1080, 4.999999999949812e-05, 4.000000000001875e-04, 2.604861519596296e-06, -6.670917341098390e-07, -7.660952660863450e+01, -5.305567130675679e+03, 6.494873328756145e+02, 5.387887601592490e+03
1081, 9.999999999961606e-05, 3.999999999999452e-04, 2.712011472961836e-06, -1.352833684639341e-06, -1.100929715029822e+02, -1.071606138231605e+04, 4.404233746990530e+02, 1.064248358829319e+04
1082, 1.499999999997800e-04, 3.999999999997027e-04, 2.894892692937699e-06, -2.047457982405058e-06, -8.268021351599532e+01, -1.597126085738438e+04, 1.771359622634661e+02, 1.589252980092273e+04
1083, 1.999999999998984e-04, 3.999999999994603e-04, 3.152669074922815e-06, -2.752379174738676e-06, 3.842225751174851e+01, -2.107161434761198e+04, -1.013847263510386e+02, 2.111101041922468e+04
1084, -2.000000000000760e-04, 3.000000000010516e-04, 1.950615490301362e-06, 2.022271651502356e-06, -3.153963229967985e+01, 2.167628768990629e+04, 3.522352129209320e+02, 2.171925518132696e+04
1085, -1.500000000001842e-04, 3.000000000008717e-04, 1.675367453396861e-06, 1.501479451049525e-06, -1.439512473193872e+01, 1.666995295104653e+04, 5.458778217608216e+02, 1.672002993714108e+04
1086, -1.000000000003227e-04, 3.000000000006917e-04, 1.472077132932487e-06, 9.943176913107913e-07, -2.693281438790709e+02, 1.107266686548159e+04, 7.522068705152733e+02, 1.144133346671460e+04
1087, -5.000000000044532e-05, 3.000000000005118e-04, 1.346283651484151e-06, 5.004789892428740e-07, -2.201265439384326e+02, 5.588858786621975e+03, 8.775594532003029e+02, 6.068340213457949e+03
1088, -6.026207432911247e-16, 3.000000000003319e-04, 1.299977940962605e-06, 1.292420484990569e-08, -8.657380191571656e+01, 1.177469407617705e+02, 8.806120371237823e+02, 1.773036154622198e+03
1089, 4.999999999948792e-05, 3.000000000001520e-04, 1.333943669424557e-06, -4.753240727987484e-07, 5.611304858675089e+01, -5.359229794705259e+03, 7.654188661820583e+02, 5.627557398483262e+03
1090, 9.999999999960845e-05, 2.999999999999720e-04, 1.448090095704056e-06, -9.712707166887701e-07, 1.324464551478243e+02, -1.086062746588362e+04, 5.265005725206362e+02, 1.104339103920168e+04
1091, 1.499999999997756e-04, 2.999999999997920e-04, 1.641112161281378e-06, -1.482056008075721e-06, -8.223615196782498e+01, -1.649508076452895e+04, 2.046646504403573e+02, 1.641794806766778e+04
1092, 1.999999999998966e-04, 2.999999999996122e-04, 1.908206305091746e-06, -2.008197878868076e-06, -1.432536296991952e+01, -2.156516153882406e+04, -1.042684352592921e+02, 2.155184510673899e+04
1093, -2.000000000000778e-04, 2.000000000007014e-04, 1.054159948450731e-06, 1.262569361520982e-06, 2.603955125705377e+02, 2.235081850117624e+04, 2.744509839248660e+02, 2.209724148362932e+04
1094, -1.500000000001885e-04, 2.000000000005817e-04, 7.711508758118063e-07, 9.147222943713573e-07, -1.113640344600384e+03, 1.570677289570918e+04, 5.833496452008815e+02, 1.686082704997015e+04
1095, -1.000000000003304e-04, 2.000000000004620e-04, 5.681274402271075e-07, 5.999098912288444e-07, -8.207728911357844e+02, 1.041082944664578e+04, 7.965353701697534e+02, 1.134401892883585e+04
1096, -5.000000000045550e-05, 2.000000000003424e-04, 4.451299421675519e-07, 3.008241992341511e-07, -4.524906727847206e+02, 5.242352909517701e+03, 8.426872011412647e+02, 5.939000783192428e+03
1097, -6.154388928819240e-16, 2.000000000002227e-04, 4.012912816408075e-07, 9.053140606755440e-09, -9.572460293911126e+01, 1.020204036056782e+02, 8.278679417679050e+02, 1.667502444868225e+03
1098, 4.999999999947777e-05, 2.000000000001030e-04, 4.364296335942698e-07, -2.831307442424301e-07, 2.717305587189037e+02, -5.042735039755439e+03, 7.661280771135112e+02, 5.530945083756830e+03
1099, 9.999999999960084e-05, 1.999999999999833e-04, 5.513623193241946e-07, -5.834819720451508e-07, 6.727021830464582e+02, -1.022383548577374e+04, 6.415788452617409e+02, 1.097182878223895e+04
1100, 1.499999999997714e-04, 1.999999999998636e-04, 7.476154593494454e-07, -9.004540257941058e-07, 1.023178643678129e+03, -1.553462975194117e+04, 3.460356081932722e+02, 1.657226542855840e+04
1101, 1.999999999998946e-04, 1.999999999997439e-04, 1.025769697875272e-06, -1.251410493484342e-06, -2.943417910024912e+02, -2.222827067283622e+04, -4.892901326242634e+01, 2.193414717710025e+04
1102, -2.000000000000798e-04, 1.000000000003506e-04, 4.638909233866557e-07, 4.869616369075494e-07, -6.995078453937245e+03, 1.245281797874001e+04, 1.269739856963801e+03, 1.961299652968894e+04
1103, -1.500000000001928e-04, 1.000000000002906e-04, 2.176340359405072e-07, 3.503740754856233e-07, -3.256676588178930e+03, 1.050572720858779e+04, 1.026033450961593e+03, 1.391455126244564e+04
1104, -1.000000000003380e-04, 1.000000000002307e-04, 5.272932684055931e-08, 2.279877405143957e-07, -1.349224003179954e+03, 7.539071297707544e+03, 3.905396435130799e+02, 8.922548862763379e+03
1105, -5.000000000046567e-05, 1.000000000001708e-04, -4.334834397264919e-08, 1.141045620731210e-07, -5.084721097788951e+02, 3.921004253197100e+03, -1.026258082609024e+01, 4.429523917129683e+03
1106, -6.282434899455673e-16, 1.000000000001108e-04, -7.653923376649018e-08, 3.505524714454633e-09, -9.356310710804109e+01, 5.544757998018395e+01, -1.643339468922711e+02, 3.608694629242991e+02
1107, 4.999999999946757e-05, 1.000000000000509e-04, -4.859532040502466e-08, -1.072800550726089e-07, 3.258560753598767e+02, -3.816672963954029e+03, -6.043640312593993e+01, 4.144292108050565e+03
1108, 9.999999999959325e-05, 9.999999999999091e-05, 4.263622415439816e-08, -2.217485209478836e-07, 1.184214728731645e+03, -7.452014494232558e+03, 2.883614682488551e+02, 8.655464432199084e+03
1109, 1.499999999997670e-04, 9.999999999993101e-05, 2.035596934319126e-07, -3.452109796178296e-07, 3.140122276124514e+03, -1.043457536202664e+04, 8.687128076562490e+02, 1.368543253740891e+04
1110, 1.999999999998927e-04, 9.999999999987105e-05, 4.473535651717630e-07, -4.833302796252240e-07, 6.976494581395101e+03, -1.236681087083937e+04, 1.044390306012508e+03, 1.945575673839533e+04
