"PointID","x","y","Displacement_x","Displacement_y","Sxx","Syy","Sxy","Von_Mises_Stress"
0, -2.500000000000000e-04, 0.000000000000000e+00, 0.000000000000000e+00, 0.000000000000000e+00, 5.973529278277908e+04, 7.299441992740367e+04, 7.551150391476559e+03, 2.009686397366781e+04
1, 2.500000000000000e-04, 0.000000000000000e+00, 0.000000000000000e+00, 0.000000000000000e+00, -6.072106646082206e+04, -7.422624111720572e+04, 7.375156572873004e+03, 1.999903698673998e+04
2, 2.500000000000000e-04, 1.000000000000000e-02, 1.141784121421089e-03, -1.131001485234719e-04, 2.727418763651099e+01, 2.447662255843102e+01, 3.269676114825415e+00, 7.112629468033024e+00
3, -2.500000000000000e-04, 1.000000000000000e-02, 1.147650101562267e-03, -3.676200207251327e-05, 1.936852121102227e+01, 5.569424181468757e+01, 4.762731013098922e+00, 3.755386004378366e+01
4, -2.000000000000817e-04, 0.000000000000000e+00, 0.000000000000000e+00, 0.000000000000000e+00, 4.040117690172770e+04, 4.937195044906656e+04, 4.311793651924087e+03, 1.244351381341807e+04
5, -1.500000000001972e-04, 0.000000000000000e+00, 0.000000000000000e+00, 0.000000000000000e+00, 2.911357553206507e+04, 3.558917752320513e+04, 2.029110630517384e+03, 7.642158134399724e+03
6, -1.000000000003456e-04, 0.000000000000000e+00, 0.000000000000000e+00, 0.000000000000000e+00, 1.898524194826206e+04, 2.320837051035521e+04, 4.990433987575178e+02, 4.339469104319192e+03
7, -5.000000000047588e-05, 0.000000000000000e+00, 0.000000000000000e+00, 0.000000000000000e+00, 9.535240362309385e+03, 1.165393868267204e+04, -3.940056194280504e+02, 2.260496468758816e+03
8, -6.410887445906788e-16, 0.000000000000000e+00, 0.000000000000000e+00, 0.000000000000000e+00, 3.286159925012290e+02, 3.992865701568276e+02, -7.047334977744721e+02, 1.411237592359254e+03
9, 4.999999999945738e-05, 0.000000000000000e+00, 0.000000000000000e+00, 0.000000000000000e+00, -8.924816714943508e+03, -1.090859007862965e+04, -4.490438124568532e+02, 2.177594576704713e+03
10, 9.999999999958566e-05, 0.000000000000000e+00, 0.000000000000000e+00, 0.000000000000000e+00, -1.851762246164042e+04, -2.262859067217211e+04, 3.933791651572417e+02, 4.185576220584373e+03
11, 1.499999999997626e-04, 0.000000000000000e+00, 0.000000000000000e+00, 0.000000000000000e+00, -2.889520726502586e+04, -3.530985749838758e+04, 1.882344840693546e+03, 7.437783676170594e+03
12, 1.999999999998909e-04, 0.000000000000000e+00, 0.000000000000000e+00, 0.000000000000000e+00, -4.052658560096936e+04, -4.953793239171047e+04, 4.140672760232668e+03, 1.223867045934042e+04
13, 2.500000000000000e-04, 9.999999999981111e-05, 9.299262378588719e-07, -8.428672337718715e-07, 3.226364451378333e+03, -2.484506160226539e+04, 1.822526959212889e+03, 2.830709060912864e+04
14, 2.500000000000000e-04, 1.999999999996242e-04, 1.595895286065568e-06, -1.901360344453477e-06, -6.529370797587993e+03, -3.610315949436868e+04, -3.795966519181746e+02, 2.958353177621670e+04
15, 2.500000000000000e-04, 2.999999999994322e-04, 2.624560657541618e-06, -2.973301987372539e-06, -6.954665812052842e+03, -3.665306407370018e+04, -3.300199416661894e+02, 2.970573197137225e+04
16, 2.500000000000000e-04, 3.999999999992179e-04, 4.068116190793022e-06, -4.053679569012302e-06, -7.580753146837933e+03, -3.698596129630966e+04, -4.004891402668359e+02, 2.941611518402192e+04
17, 2.500000000000000e-04, 4.999999999990053e-04, 5.934960541682071e-06, -5.125685709597366e-06, -7.599434627226541e+03, -3.647320230644966e+04, -4.901717226070405e+02, 2.889040555728361e+04
18, 2.500000000000000e-04, 5.999999999988090e-04, 8.218096890667867e-06, -6.185956121430854e-06, -7.490071925797009e+03, -3.576043567664146e+04, -5.912615839835685e+02, 2.829508486730228e+04
19, 2.500000000000000e-04, 6.999999999986395e-04, 1.090868826530501e-05, -7.234638439308549e-06, -7.336870727055543e+03, -3.499081360410640e+04, -6.891197930174299e+02, 2.768826648607141e+04
20, 2.500000000000000e-04, 7.999999999985029e-04, 1.399784249390413e-05, -8.273140553274123e-06, -7.179038628068263e+03, -3.422054452693945e+04, -7.807783022309920e+02, 2.708655571141566e+04
21, 2.500000000000000e-04, 8.999999999983563e-04, 1.747693717894624e-05, -9.303025925209073e-06, -7.023436215045102e+03, -3.345942733011086e+04, -8.655329851211088e+02, 2.649260681075319e+04
22, 2.500000000000000e-04, 9.999999999981935e-04, 2.133753518261590e-05, -1.032577808555237e-05, -6.871016275640572e+03, -3.270826289084124e+04, -9.435936434865772e+02, 2.590607628551286e+04
23, 2.500000000000000e-04, 1.099999999998054e-03, 2.557132119601182e-05, -1.134276297452083e-05, -6.721229984745200e+03, -3.196616885522185e+04, -1.015259596002096e+03, 2.532646731708155e+04
24, 2.500000000000000e-04, 1.199999999997903e-03, 3.017007311157317e-05, -1.235524232590198e-05, -6.573683205874201e+03, -3.123266731833042e+04, -1.080813857662406e+03, 2.475354786365034e+04
25, 2.500000000000000e-04, 1.299999999997659e-03, 3.512565467926590e-05, -1.336438605300681e-05, -6.428172661099485e+03, -3.050762259019134e+04, -1.140510874754453e+03, 2.418724806813240e+04
26, 2.500000000000000e-04, 1.399999999997322e-03, 4.043001508781844e-05, -1.437127968897496e-05, -6.284598781825214e+03, -2.979105143793502e+04, -1.194590353707364e+03, 2.362755808217629e+04
27, 2.500000000000000e-04, 1.499999999997028e-03, 4.607519002662868e-05, -1.537692884938636e-05, -6.142896645859008e+03, -2.908300844568399e+04, -1.243283803834267e+03, 2.307448261296395e+04
28, 2.500000000000000e-04, 1.599999999996764e-03, 5.205330269439915e-05, -1.638226263388257e-05, -6.003012882225733e+03, -2.838354970709183e+04, -1.286816962191453e+03, 2.252802743575038e+04
29, 2.500000000000000e-04, 1.699999999996466e-03, 5.835656458812328e-05, -1.738813674102509e-05, -5.864899669353783e+03, -2.769272464807865e+04, -1.325410559540458e+03, 2.198819674068818e+04
30, 2.500000000000000e-04, 1.799999999996210e-03, 6.497727616671806e-05, -1.839533647008554e-05, -5.728511105665357e+03, -2.701057345282425e+04, -1.359280426874050e+03, 2.145499361136912e+04
31, 2.500000000000000e-04, 1.899999999995898e-03, 7.190782730363749e-05, -1.940457967645877e-05, -5.593809964928369e+03, -2.633713426431980e+04, -1.388637115502849e+03, 2.092841979567333e+04
32, 2.500000000000000e-04, 1.999999999995521e-03, 7.914069792472057e-05, -2.041651971215827e-05, -5.460757488515928e+03, -2.567243501433084e+04, -1.413686516754627e+03, 2.040847732385116e+04
33, 2.500000000000000e-04, 2.099999999995151e-03, 8.666845830002336e-05, -2.143174822716467e-05, -5.329323073936892e+03, -2.501650226087106e+04, -1.434629236013189e+03, 1.989516696380679e+04
34, 2.500000000000000e-04, 2.199999999994897e-03, 9.448376953906467e-05, -2.245079798617366e-05, -5.199477858673739e+03, -2.436935672972889e+04, -1.451660901499546e+03, 1.938848971484620e+04
35, 2.500000000000000e-04, 2.299999999994653e-03, 1.025793839344567e-04, -2.347414556985755e-05, -5.071194876754012e+03, -2.373101337882067e+04, -1.464972426579040e+03, 1.888844629324013e+04
36, 2.500000000000000e-04, 2.399999999994409e-03, 1.109481451735153e-04, -2.450221400953518e-05, -4.944456489661292e+03, -2.310148853809068e+04, -1.474749426369130e+03, 1.839503618615621e+04
37, 2.500000000000000e-04, 2.499999999994080e-03, 1.195829888237455e-04, -2.553537540137632e-05, -4.819244932950956e+03, -2.248079299729879e+04, -1.481172274335088e+03, 1.790825969362475e+04
38, 2.500000000000000e-04, 2.599999999993751e-03, 1.284769426177555e-04, -2.657395344755771e-05, -4.695541821538214e+03, -2.186893096634657e+04, -1.484417155371835e+03, 1.742811727880181e+04
39, 2.500000000000000e-04, 2.699999999993507e-03, 1.376231265373478e-04, -2.761822586140238e-05, -4.573335805547918e+03, -2.126590710043443e+04, -1.484655215709830e+03, 1.695460824888050e+04
40, 2.500000000000000e-04, 2.799999999993264e-03, 1.470147531031820e-04, -2.866842678982817e-05, -4.452619355007380e+03, -2.067172468921234e+04, -1.482052457849756e+03, 1.648773167519746e+04
41, 2.500000000000000e-04, 2.899999999993009e-03, 1.566451277099140e-04, -2.972474914395635e-05, -4.333381597535035e+03, -2.008637967660970e+04, -1.476770390101863e+03, 1.602748737699259e+04
42, 2.500000000000000e-04, 2.999999999992623e-03, 1.665076485890662e-04, -3.078734684982982e-05, -4.215623519384463e+03, -1.950987398582681e+04, -1.468965480146073e+03, 1.557387349562449e+04
43, 2.500000000000000e-04, 3.099999999992220e-03, 1.765958072990103e-04, -3.185633709759390e-05, -4.099335883834822e+03, -1.894219746534917e+04, -1.458789848179381e+03, 1.512689033518123e+04
44, 2.500000000000000e-04, 3.199999999991949e-03, 1.869031885625633e-04, -3.293180245176547e-05, -3.984518439894757e+03, -1.838334353165303e+04, -1.446391410216631e+03, 1.468653657161012e+04
45, 2.500000000000000e-04, 3.299999999991705e-03, 1.974234704756032e-04, -3.401379293240194e-05, -3.871172267169562e+03, -1.783330363029644e+04, -1.431913171275079e+03, 1.425281072355539e+04
46, 2.500000000000000e-04, 3.399999999991461e-03, 2.081504246626529e-04, -3.510232804862097e-05, -3.759300168563586e+03, -1.729206827227844e+04, -1.415493377629211e+03, 1.382571150275351e+04
47, 2.500000000000000e-04, 3.499999999991149e-03, 2.190779164487570e-04, -3.619739879237765e-05, -3.648900361599548e+03, -1.675962106215181e+04, -1.397266614800827e+03, 1.340523827685422e+04
48, 2.500000000000000e-04, 3.599999999990803e-03, 2.301999046962201e-04, -3.729896947680940e-05, -3.539979321311861e+03, -1.623594972644125e+04, -1.377363085647518e+03, 1.299138871740582e+04
49, 2.500000000000000e-04, 3.699999999990560e-03, 2.415104419474912e-04, -3.840697961258391e-05, -3.432550950571584e+03, -1.572104654345630e+04, -1.355907764675151e+03, 1.258415938398638e+04
50, 2.500000000000000e-04, 3.799999999990315e-03, 2.530036748982740e-04, -3.952134573925614e-05, -3.326613336414554e+03, -1.521488871117113e+04, -1.333021883190611e+03, 1.218354959567629e+04
51, 2.500000000000000e-04, 3.899999999990071e-03, 2.646738440032786e-04, -4.064196310980081e-05, -3.222173682245549e+03, -1.471745882895586e+04, -1.308823210277027e+03, 1.178955696314404e+04
52, 2.500000000000000e-04, 3.999999999989709e-03, 2.765152835535632e-04, -4.176870737022310e-05, -3.119240988345270e+03, -1.422873956575417e+04, -1.283425056738305e+03, 1.140217865789276e+04
53, 2.500000000000000e-04, 4.099999999989249e-03, 2.885224217706626e-04, -4.290143619109590e-05, -3.017823115986976e+03, -1.374871136045888e+04, -1.256936839654069e+03, 1.102141204160626e+04
54, 2.500000000000000e-04, 4.199999999988788e-03, 3.006897807404367e-04, -4.403999083254520e-05, -2.917929529994994e+03, -1.327735532829782e+04, -1.229464233891143e+03, 1.064725467339879e+04
55, 2.500000000000000e-04, 4.299999999988333e-03, 3.130119764202236e-04, -4.518419769705873e-05, -2.819572420146839e+03, -1.281465470510640e+04, -1.201108871963309e+03, 1.027970427455714e+04
56, 2.500000000000000e-04, 4.399999999988144e-03, 3.254837187962744e-04, -4.633386983274840e-05, -2.722756258341065e+03, -1.236058508394480e+04, -1.171969393413633e+03, 9.918759675888488e+03
57, 2.500000000000000e-04, 4.499999999988117e-03, 3.380998115681763e-04, -4.748880827968359e-05, -2.627498027942994e+03, -1.191513166520283e+04, -1.142140125301898e+03, 9.564417119890732e+03
58, 2.500000000000000e-04, 4.599999999988090e-03, 3.508551525013982e-04, -4.864880349826179e-05, -2.533808306721663e+03, -1.147827377608414e+04, -1.111711283189980e+03, 9.216673501936873e+03
59, 2.500000000000000e-04, 4.699999999988035e-03, 3.637447334140819e-04, -4.981363664525217e-05, -2.441691471724287e+03, -1.104998543343883e+04, -1.080770369157940e+03, 8.875527212210567e+03
60, 2.500000000000000e-04, 4.799999999987717e-03, 3.767636397152587e-04, -5.098308086235972e-05, -2.351167564558802e+03, -1.063025340069869e+04, -1.049401812756269e+03, 8.540974121295338e+03
61, 2.500000000000000e-04, 4.899999999987257e-03, 3.899070508668514e-04, -5.215690251559170e-05, -2.262240751056991e+03, -1.021905114226322e+04, -1.017686043509061e+03, 8.213012305738983e+03
62, 2.500000000000000e-04, 4.999999999986965e-03, 4.031702400936877e-04, -5.333486234721587e-05, -2.174923670747809e+03, -9.816358974901583e+03, -9.857002333517366e+02, 7.891638189101573e+03
63, 2.500000000000000e-04, 5.099999999987202e-03, 4.165485744481798e-04, -5.451671661056844e-05, -2.089227184374847e+03, -9.422155334716863e+03, -9.535184136577169e+02, 7.576847940853484e+03
64, 2.500000000000000e-04, 5.199999999987608e-03, 4.300375147131613e-04, -5.570221812630795e-05, -2.005163191545746e+03, -9.036419503212106e+03, -9.212113404242912e+02, 7.268637193811045e+03
65, 2.500000000000000e-04, 5.299999999988015e-03, 4.436326154328607e-04, -5.689111734181976e-05, -1.922739169314323e+03, -8.659127311894150e+03, -8.888469665828638e+02, 6.967002291337670e+03
66, 2.500000000000000e-04, 5.399999999988211e-03, 4.573295247154227e-04, -5.808316330561508e-05, -1.841965522350809e+03, -8.290257120529081e+03, -8.564904640704597e+02, 6.671938863277377e+03
67, 2.500000000000000e-04, 5.499999999988184e-03, 4.711239841777162e-04, -5.927810462425753e-05, -1.762854812319595e+03, -7.929789533343370e+03, -8.242036858074913e+02, 6.383441917661914e+03
68, 2.500000000000000e-04, 5.599999999988157e-03, 4.850118290379279e-04, -6.047569039188990e-05, -1.685415287077261e+03, -7.577701928992914e+03, -7.920453699162168e+02, 6.101506809184147e+03
69, 2.500000000000000e-04, 5.699999999988293e-03, 4.989889880200538e-04, -6.167567104707162e-05, -1.609655174835208e+03, -7.233971235534716e+03, -7.600716557773309e+02, 5.826127945583308e+03
70, 2.500000000000000e-04, 5.799999999988694e-03, 5.130514832231068e-04, -6.287779915590375e-05, -1.535584202092632e+03, -6.898575515508028e+03, -7.283361170924584e+02, 5.557298788585536e+03
71, 2.500000000000000e-04, 5.899999999989099e-03, 5.271954299740557e-04, -6.408183020324653e-05, -1.463210420713612e+03, -6.571492707722959e+03, -6.968901902328209e+02, 5.295013850099393e+03
72, 2.500000000000000e-04, 5.999999999989505e-03, 5.414170366709187e-04, -6.528752339486539e-05, -1.392543966715565e+03, -6.252704475413566e+03, -6.657826029595329e+02, 5.039268406021046e+03
73, 2.500000000000000e-04, 6.099999999989911e-03, 5.557126049039280e-04, -6.649464244148124e-05, -1.323590124577305e+03, -5.942189177782259e+03, -6.350593412916135e+02, 4.790058317193295e+03
74, 2.500000000000000e-04, 6.199999999990317e-03, 5.700785293658155e-04, -6.770295619879677e-05, -1.256360682457684e+03, -5.639930280125423e+03, -6.047629573044728e+02, 4.547376755417074e+03
75, 2.500000000000000e-04, 6.299999999990723e-03, 5.845112980234497e-04, -6.891223930539303e-05, -1.190850361913611e+03, -5.345895937535855e+03, -5.749352757955901e+02, 4.311218623650927e+03
76, 2.500000000000000e-04, 6.399999999990975e-03, 5.990074912549029e-04, -7.012227264888823e-05, -1.127080432243371e+03, -5.060075493163269e+03, -5.456149831206121e+02, 4.081572367169684e+03
77, 2.500000000000000e-04, 6.499999999990961e-03, 6.135637826040573e-04, -7.133284400522223e-05, -1.065052150820975e+03, -4.782441701568541e+03, -5.168367927698359e+02, 3.858427938092098e+03
78, 2.500000000000000e-04, 6.599999999990934e-03, 6.281769385208540e-04, -7.254374849433331e-05, -1.004757767034951e+03, -4.512960274365312e+03, -4.886348487243605e+02, 3.641777161495546e+03
79, 2.500000000000000e-04, 6.699999999991035e-03, 6.428438174345125e-04, -7.375478907176020e-05, -9.462182527656537e+02, -4.251620165618182e+03, -4.610420370080138e+02, 3.431606161120934e+03
80, 2.500000000000000e-04, 6.799999999991401e-03, 6.575613703394856e-04, -7.496577699728289e-05, -8.894291257930413e+02, -3.998390637679840e+03, -4.340879160065933e+02, 3.227905041615264e+03
81, 2.500000000000000e-04, 6.899999999991809e-03, 6.723266403421037e-04, -7.617653232606148e-05, -8.343987464763493e+02, -3.753253850143969e+03, -4.077993373124838e+02, 3.030662685660763e+03
82, 2.500000000000000e-04, 6.999999999992214e-03, 6.871367629636447e-04, -7.738688440070540e-05, -7.811109800532795e+02, -3.516172369244443e+03, -3.822032567323041e+02, 2.839872905689868e+03
83, 2.500000000000000e-04, 7.099999999992620e-03, 7.019889648852212e-04, -7.859667211989004e-05, -7.295822802996767e+02, -3.287134774687266e+03, -3.573258014849944e+02, 2.655522862860674e+03
84, 2.500000000000000e-04, 7.199999999993026e-03, 7.168805644798274e-04, -7.980574432757005e-05, -6.798336827565873e+02, -3.066133869901850e+03, -3.331868331965232e+02, 2.477596102360436e+03
85, 2.500000000000000e-04, 7.299999999993359e-03, 7.318089727685478e-04, -8.101396021836125e-05, -6.318265799758153e+02, -2.853113584428233e+03, -3.098068238697202e+02, 2.306086951659493e+03
86, 2.500000000000000e-04, 7.399999999993427e-03, 7.467716912172317e-04, -8.222118945171557e-05, -5.855903860942874e+02, -2.648071294649496e+03, -2.872053470879763e+02, 2.140975278637850e+03
87, 2.500000000000000e-04, 7.499999999993399e-03, 7.617663130325616e-04, -8.342731242175107e-05, -5.411147420568786e+02, -2.450967518469952e+03, -2.653982028269917e+02, 1.982241774312082e+03
88, 2.500000000000000e-04, 7.599999999993372e-03, 7.767905224485944e-04, -8.463222024383924e-05, -4.984070778684166e+02, -2.261775200564240e+03, -2.443967347574153e+02, 1.829859609910043e+03
89, 2.500000000000000e-04, 7.699999999993440e-03, 7.918420952014867e-04, -8.583581500412930e-05, -4.574377411244735e+02, -2.080437229447126e+03, -2.242124935450922e+02, 1.683808869243307e+03
90, 2.500000000000000e-04, 7.799999999993771e-03, 8.069188965968123e-04, -8.703800982609532e-05, -4.181973036402085e+02, -1.906916090464628e+03, -2.048605542268147e+02, 1.544070922255983e+03
91, 2.500000000000000e-04, 7.899999999994177e-03, 8.220188807271340e-04, -8.823872922628268e-05, -3.807190046635170e+02, -1.741209791154936e+03, -1.863531388519759e+02, 1.410618711618407e+03
92, 2.500000000000000e-04, 7.999999999994584e-03, 8.371400920830745e-04, -8.943790928617651e-05, -3.449804491042257e+02, -1.583271129358867e+03, -1.686981962334574e+02, 1.283432948951830e+03
93, 2.500000000000000e-04, 8.099999999994990e-03, 8.522806643176709e-04, -9.063549777533109e-05, -3.109736582829909e+02, -1.433065600045407e+03, -1.519033955993518e+02, 1.162492534232630e+03
94, 2.500000000000000e-04, 8.199999999995398e-03, 8.674388201900038e-04, -9.183145425975131e-05, -2.786976123392157e+02, -1.290560501638098e+03, -1.359743480737338e+02, 1.047770299291113e+03
95, 2.500000000000000e-04, 8.299999999995804e-03, 8.826128712785373e-04, -9.302574994144573e-05, -2.481485993833837e+02, -1.155715054289583e+03, -1.209143109028483e+02, 9.392326401884937e+02
96, 2.500000000000000e-04, 8.399999999996209e-03, 8.978012177327038e-04, -9.421836755450824e-05, -2.193155633704739e+02, -1.028477382921293e+03, -1.067234338908875e+02, 8.368407348980112e+02
97, 2.500000000000000e-04, 8.499999999996616e-03, 9.130023479878420e-04, -9.540930119530299e-05, -1.921670808966545e+02, -9.087749626920807e+02, -9.340086090370606e+01, 7.405550212654973e+02
98, 2.500000000000000e-04, 8.599999999997021e-03, 9.282148371506831e-04, -9.659855612627012e-05, -1.666870527608466e+02, -7.965463235230305e+02, -8.094701110188572e+01, 6.503325114050391e+02
99, 2.500000000000000e-04, 8.699999999997429e-03, 9.434373460403920e-04, -9.778614874884418e-05, -1.428847085075182e+02, -6.917471093398337e+02, -6.936094583482648e+01, 5.661216285179540e+02
100, 2.500000000000000e-04, 8.799999999997834e-03, 9.586686214629083e-04, -9.897210643347022e-05, -1.207442189021197e+02, -5.943125607508175e+02, -5.863713876398487e+01, 4.878731705792320e+02
101, 2.500000000000000e-04, 8.899999999997930e-03, 9.739074955239013e-04, -1.001564676089778e-04, -1.002285229863006e+02, -5.041649501273089e+02, -4.877118113005827e+01, 4.155468079611813e+02
102, 2.500000000000000e-04, 8.999999999997496e-03, 9.891528840366025e-04, -1.013392817928096e-04, -8.131161630488513e+01, -4.212325749365316e+02, -3.976111646848336e+01, 3.490989023877598e+02
103, 2.500000000000000e-04, 9.099999999997034e-03, 1.004403785689865e-03, -1.025206092071909e-04, -6.399278921273066e+01, -3.454541408120762e+02, -3.159844535158915e+01, 2.884689574957414e+02
104, 2.500000000000000e-04, 9.199999999996832e-03, 1.019659282757645e-03, -1.037005203192376e-04, -4.823563195671818e+01, -2.767180494747470e+02, -2.426567400625800e+01, 2.335797655080482e+02
105, 2.500000000000000e-04, 9.299999999997156e-03, 1.034918540570206e-03, -1.048790946335761e-04, -3.395008414421251e+01, -2.148380653536721e+02, -1.773889140284599e+01, 1.843343017966045e+02
106, 2.500000000000000e-04, 9.399999999997563e-03, 1.050180804087546e-03, -1.060564190194835e-04, -2.107718770606028e+01, -1.596242668924365e+02, -1.198820441058722e+01, 1.406064057254721e+02
107, 2.500000000000000e-04, 9.499999999997968e-03, 1.065445395148309e-03, -1.072325863163101e-04, -9.479920047975153e+00, -1.107859103288231e+02, -6.987991387009933e+00, 1.022654964359092e+02
108, 2.500000000000000e-04, 9.599999999998375e-03, 1.080711705713982e-03, -1.084076929442219e-04, 7.871267017194192e-01, -6.819844828658606e+01, -2.704602991559574e+00, 6.919731978794357e+01
109, 2.500000000000000e-04, 9.699999999998783e-03, 1.095979194734442e-03, -1.095818402277396e-04, 9.704570759505941e+00, -3.199576788274316e+01, 8.235812905707445e-01, 4.173285740812587e+01
110, 2.500000000000000e-04, 9.799999999999188e-03, 1.111247364780635e-03, -1.107551510596165e-04, 1.590453689243780e+01, -4.079144992098211e+00, 3.328648266372578e+00, 2.106340757776940e+01
111, 2.500000000000000e-04, 9.899999999999593e-03, 1.126515782244030e-03, -1.119278069563955e-04, 1.776324389088912e+01, 1.172761704687450e+01, 4.222731107755791e+00, 1.038049244659538e+01
112, 2.000000000000817e-04, 1.000000000000000e-02, 1.142370236526731e-03, -1.054661961143492e-04, 2.648986844529620e+01, 2.457829523672745e+01, 4.965886331181579e+00, 1.011406052723544e+01
113, 1.500000000001972e-04, 1.000000000000000e-02, 1.142956384094990e-03, -9.783243342325357e-05, 2.269595055901574e+01, 2.429000469702884e+01, 8.215971754290580e+00, 1.650908162388566e+01
114, 1.000000000003456e-04, 1.000000000000000e-02, 1.143542628776136e-03, -9.019882156809728e-05, 1.564001725894053e+01, 2.392142274070473e+01, 1.111160839057872e+01, 2.371609244491410e+01
115, 5.000000000047588e-05, 1.000000000000000e-02, 1.144129022730214e-03, -8.256529443062941e-05, 6.666685180065141e+00, 2.390951719688295e+01, 1.329080237582189e+01, 3.168433314956791e+01
116, 6.410887445906788e-16, 1.000000000000000e-02, 1.144715597393520e-03, -7.493176757549010e-05, -2.167501088809091e+00, 2.529930071496740e+01, 1.435800024521649e+01, 3.973705934633924e+01
117, -4.999999999945738e-05, 1.000000000000000e-02, 1.145302362215578e-03, -6.729813892142463e-05, -8.005910207556429e+00, 3.000559955045679e+01, 1.397859036808111e+01, 4.718557861039721e+01
118, -9.999999999958566e-05, 1.000000000000000e-02, 1.145889300361081e-03, -5.966431090927970e-05, -7.310346486624218e+00, 4.037036202958835e+01, 1.214592844825449e+01, 5.351209467109745e+01
119, -1.499999999997626e-04, 1.000000000000000e-02, 1.146476358098169e-03, -5.203023273734466e-05, 4.837112157144464e+00, 5.885993312025087e+01, 9.729526789853630e+00, 5.742055338491406e+01
120, -1.999999999998909e-04, 1.000000000000000e-02, 1.147063406654817e-03, -4.439600474709640e-05, 3.889302306346974e+01, 8.867465595890152e+01, 8.769645373518447e+00, 5.278103535972586e+01
121, -2.500000000000000e-04, 9.899999999999590e-03, 1.132381852389255e-03, -3.559096720210597e-05, -2.241282935402846e+01, 4.460291014186091e+01, 3.312994185104383e-01, 6.701901504349142e+01
122, -2.500000000000000e-04, 9.799999999999181e-03, 1.117113051052034e-03, -3.442120562167426e-05, 8.374927686819097e+00, 9.938991073055766e+01, 7.055791165159096e+00, 9.210246410556761e+01
123, -2.500000000000000e-04, 9.699999999999055e-03, 1.101844432396687e-03, -3.325237809405335e-05, 1.872746404753684e+01, 1.328179169776980e+02, 1.329249191351867e+01, 1.171468856388985e+02
124, -2.500000000000000e-04, 9.599999999999458e-03, 1.086576300009877e-03, -3.208464272998097e-05, 2.656325318107107e+01, 1.687774115458070e+02, 1.995683118593160e+01, 1.477090629694918e+02
125, -2.500000000000000e-04, 9.499999999999916e-03, 1.071309006883928e-03, -3.091826644990822e-05, 3.580387405075023e+01, 2.117096686333353e+02, 2.728297537701935e+01, 1.841746224359447e+02
126, -2.500000000000000e-04, 9.400000000000373e-03, 1.056043007033307e-03, -2.975352456410995e-05, 4.640316679438170e+01, 2.614080886791756e+02, 3.529619326475450e+01, 2.262971530325071e+02
127, -2.500000000000000e-04, 9.300000000000832e-03, 1.040778824419365e-03, -2.859069997730748e-05, 5.916036099264830e+01, 3.184157614017861e+02, 4.400831434344478e+01, 2.737887681529470e+02
128, -2.500000000000000e-04, 9.200000000001289e-03, 1.025517090088283e-03, -2.743008873178851e-05, 7.313861289936399e+01, 3.818761674707823e+02, 5.347124316873251e+01, 3.267347134706969e+02
129, -2.500000000000000e-04, 9.100000000001746e-03, 1.010258490826860e-03, -2.627199423472523e-05, 8.897511024168072e+01, 4.523213315626301e+02, 6.370453872065895e+01, 3.850370755689120e+02
130, -2.500000000000000e-04, 9.000000000002204e-03, 9.950038041210644e-04, -2.511673682884328e-05, 1.065763744803511e+02, 5.297840792901513e+02, 7.469780612765527e+01, 4.488026407804638e+02
131, -2.500000000000000e-04, 8.900000000002661e-03, 9.797538926138501e-04, -2.396465378481865e-05, 1.258232879310097e+02, 6.142620854188908e+02, 8.647818026060261e+01, 5.181566959290872e+02
132, -2.500000000000000e-04, 8.800000000003118e-03, 9.645096985227985e-04, -2.281609799652232e-05, 1.467524835607141e+02, 7.058579894682305e+02, 9.907185752149684e+01, 5.931777967415326e+02
133, -2.500000000000000e-04, 8.700000000003576e-03, 9.492722477237358e-04, -2.167143750485992e-05, 1.692856963342017e+02, 8.045655679083109e+02, 1.124967226122264e+02, 6.739455212561217e+02
134, -2.500000000000000e-04, 8.600000000004033e-03, 9.340426471495823e-04, -2.053105471773827e-05, 1.934469710335615e+02, 9.104627889190531e+02, 1.267651829528719e+02, 7.605191184541652e+02
135, -2.500000000000000e-04, 8.500000000004490e-03, 9.188220869044023e-04, -1.939534686987800e-05, 2.192480772690269e+02, 1.023613154159575e+03, 1.418879665951414e+02, 8.529548388860647e+02
136, -2.500000000000000e-04, 8.400000000004949e-03, 9.036118408605574e-04, -1.826472546991822e-05, 2.467871053103398e+02, 1.144164385745061e+03, 1.578583131620902e+02, 9.512954176163879e+02
137, -2.500000000000000e-04, 8.300000000005149e-03, 8.884132716121084e-04, -1.713961783310097e-05, 2.759936104999969e+02, 1.272112652441184e+03, 1.746846215594482e+02, 1.055609782900527e+03
138, -2.500000000000000e-04, 8.200000000005172e-03, 8.732278265155789e-04, -1.602046508506925e-05, 3.069875011618439e+02, 1.407621802546094e+03, 1.923548673867848e+02, 1.165932007199882e+03
139, -2.500000000000000e-04, 8.100000000005195e-03, 8.580570443477518e-04, -1.490772448163089e-05, 3.396712219398072e+02, 1.550669670672846e+03, 2.108757993433622e+02, 1.282338353878817e+03
140, -2.500000000000000e-04, 8.000000000005220e-03, 8.429025501797598e-04, -1.380186714052218e-05, 3.740478359858353e+02, 1.701283234177108e+03, 2.302572269883300e+02, 1.404858485589694e+03
141, -2.500000000000000e-04, 7.900000000005243e-03, 8.277660557637441e-04, -1.270337725134683e-05, 4.103153013716106e+02, 1.859686528348576e+03, 2.504686374440129e+02, 1.533497670999522e+03
142, -2.500000000000000e-04, 7.800000000005240e-03, 8.126493706663946e-04, -1.161275542319418e-05, 4.482010052434163e+02, 2.025691034852195e+03, 2.715192834568388e+02, 1.668342194716290e+03
143, -2.500000000000000e-04, 7.700000000005121e-03, 7.975543883263506e-04, -1.053051398399458e-05, 4.878206300375138e+02, 2.199418362796301e+03, 2.934030510432492e+02, 1.809394429147766e+03
144, -2.500000000000000e-04, 7.600000000005145e-03, 7.824830933177875e-04, -9.457179405090591e-06, 5.291678450803571e+02, 2.380895507034843e+03, 3.161116318513068e+02, 1.956681269193891e+03
145, -2.500000000000000e-04, 7.500000000005337e-03, 7.674375617352510e-04, -8.393290843234330e-06, 5.721275194274446e+02, 2.570038914845668e+03, 3.396429147414722e+02, 2.110232020911048e+03
146, -2.500000000000000e-04, 7.400000000005796e-03, 7.524199552143338e-04, -7.339399033290491e-06, 6.169224412416097e+02, 2.767078955789218e+03, 3.639675411339795e+02, 2.270035797305404e+03
147, -2.500000000000000e-04, 7.300000000006254e-03, 7.374325327634423e-04, -6.296069474707429e-06, 6.634503833414810e+02, 2.971985190234142e+03, 3.890691504058610e+02, 2.436151097494793e+03
148, -2.500000000000000e-04, 7.200000000006711e-03, 7.224776450023316e-04, -5.263880308267222e-06, 7.116829936621860e+02, 3.184756514840620e+03, 4.149422495075501e+02, 2.608601334596653e+03
149, -2.500000000000000e-04, 7.100000000007169e-03, 7.075577333494315e-04, -4.243421231038181e-06, 7.616985469322976e+02, 3.405487707184398e+03, 4.415607100881909e+02, 2.787386691264931e+03
150, -2.500000000000000e-04, 7.000000000007627e-03, 6.926753351657306e-04, -3.235294485414965e-06, 8.133955164673605e+02, 3.634128407710477e+03, 4.689064075198669e+02, 2.972545528632572e+03
151, -2.500000000000000e-04, 6.900000000008085e-03, 6.778330788651920e-04, -2.240113590051890e-06, 8.668176971768703e+02, 3.870739465677835e+03, 4.969605971666099e+02, 3.164083648043891e+03
152, -2.500000000000000e-04, 6.800000000008542e-03, 6.630336871336876e-04, -1.258503186778499e-06, 9.219191672167422e+02, 4.115304254702133e+03, 5.257012356164679e+02, 3.362016578407788e+03
153, -2.500000000000000e-04, 6.700000000009001e-03, 6.482799750546662e-04, -2.910981952217367e-07, 9.787498389421038e+02, 4.367897111710547e+03, 5.550974899684587e+02, 3.566349973010347e+03
154, -2.500000000000000e-04, 6.600000000009459e-03, 6.335748532803630e-04, 6.614553860981642e-07, 1.037290121741797e+03, 4.628534492587703e+03, 5.851205132984981e+02, 3.777102089097300e+03
155, -2.500000000000000e-04, 6.500000000009916e-03, 6.189213279716261e-04, 1.598501709414047e-06, 1.097436251130631e+03, 4.897150227728145e+03, 6.157479847306267e+02, 3.994297012835901e+03
156, -2.500000000000000e-04, 6.400000000010177e-03, 6.043224961282058e-04, 2.519376197302755e-06, 1.159278846317266e+03, 5.173844227212899e+03, 6.469487315118412e+02, 4.217926723202385e+03
157, -2.500000000000000e-04, 6.300000000010201e-03, 5.897815509838462e-04, 3.423405038158512e-06, 1.222815376556217e+03, 5.458648909660984e+03, 6.786829079013820e+02, 4.448002661654410e+03
158, -2.500000000000000e-04, 6.200000000010225e-03, 5.753017822666272e-04, 4.309905665886113e-06, 1.288017606316537e+03, 5.751572674440729e+03, 7.109127695174127e+02, 4.684539647567180e+03
159, -2.500000000000000e-04, 6.100000000010248e-03, 5.608865756233980e-04, 5.178187558694402e-06, 1.354832345567837e+03, 6.052595856246403e+03, 7.436050203303615e+02, 4.927552709743963e+03
160, -2.500000000000000e-04, 6.000000000010509e-03, 5.465394107087286e-04, 6.027553326007340e-06, 1.423298719765530e+03, 6.361777458131774e+03, 7.767186247514115e+02, 5.177039649977422e+03
161, -2.500000000000000e-04, 5.900000000010967e-03, 5.322638640049759e-04, 6.857298729384302e-06, 1.493425991380406e+03, 6.679158678861231e+03, 8.102048323967499e+02, 5.433005704742384e+03
162, -2.500000000000000e-04, 5.800000000011424e-03, 5.180636101609841e-04, 7.666713189623744e-06, 1.565158626469570e+03, 7.004725376265917e+03, 8.440166522918904e+02, 5.695466869614293e+03
163, -2.500000000000000e-04, 5.700000000011876e-03, 5.039424202916552e-04, 8.455080812047773e-06, 1.638450651881296e+03, 7.338465474514617e+03, 8.781111923158669e+02, 5.964435098357693e+03
164, -2.500000000000000e-04, 5.600000000012062e-03, 4.899041608150523e-04, 9.221681430217751e-06, 1.713302955810196e+03, 7.680403599273708e+03, 9.124421704100247e+02, 6.239911293166985e+03
165, -2.500000000000000e-04, 5.500000000012085e-03, 4.759527943673490e-04, 9.965791294107665e-06, 1.789751486566486e+03, 8.030599074556362e+03, 9.469525907858720e+02, 6.521890481547767e+03
166, -2.500000000000000e-04, 5.400000000012110e-03, 4.620923824592423e-04, 1.068668339169081e-05, 1.867766982013969e+03, 8.389060822178246e+03, 9.815825362919655e+02, 6.810381079791204e+03
167, -2.500000000000000e-04, 5.300000000012160e-03, 4.483270848589601e-04, 1.138362841183796e-05, 1.947314025370382e+03, 8.755789990609248e+03, 1.016273831915339e+03, 7.105391964907977e+03
168, -2.500000000000000e-04, 5.200000000012475e-03, 4.346611589187268e-04, 1.205589580284898e-05, 2.028378056997154e+03, 9.130804181952302e+03, 1.050965971899854e+03, 7.406927484241427e+03
169, -2.500000000000000e-04, 5.100000000012934e-03, 4.210989599901165e-04, 1.270275465067604e-05, 2.110951842612189e+03, 9.514128168547411e+03, 1.085593989681568e+03, 7.714990405348454e+03
170, -2.500000000000000e-04, 5.000000000013221e-03, 4.076449421677687e-04, 1.332347457773735e-05, 2.195017348616750e+03, 9.905779076177019e+03, 1.120089239606631e+03, 8.029585670377923e+03
171, -2.500000000000000e-04, 4.900000000012981e-03, 3.943036584825300e-04, 1.391732671316540e-05, 2.280541491304868e+03, 1.030575917470721e+04, 1.154383490101868e+03, 8.350719959073755e+03
172, -2.500000000000000e-04, 4.800000000012570e-03, 3.810797601987592e-04, 1.448358498536552e-05, 2.367534034171153e+03, 1.071410564376491e+04, 1.188402831983617e+03, 8.678390564980537e+03
173, -2.500000000000000e-04, 4.700000000012160e-03, 3.679779984120169e-04, 1.502152700197195e-05, 2.455994042396619e+03, 1.113085104510080e+04, 1.222065156628541e+03, 9.012597683550945e+03
174, -2.500000000000000e-04, 4.600000000011960e-03, 3.550032252996529e-04, 1.553043498533662e-05, 2.545850001062945e+03, 1.155596778804976e+04, 1.255291319069956e+03, 9.353354891070147e+03
175, -2.500000000000000e-04, 4.500000000011985e-03, 3.421603916345086e-04, 1.600959738137737e-05, 2.637094515286890e+03, 1.198947759852866e+04, 1.288001836530636e+03, 9.700663083487234e+03
176, -2.500000000000000e-04, 4.400000000012010e-03, 3.294545475849085e-04, 1.645831003696256e-05, 2.729743611280493e+03, 1.243142315286143e+04, 1.320108277469559e+03, 1.005451785937568e+04
177, -2.500000000000000e-04, 4.300000000011870e-03, 3.168908446544365e-04, 1.687587728334342e-05, 2.823767580043422e+03, 1.288181004097930e+04, 1.351517829563560e+03, 1.041492294357005e+04
178, -2.500000000000000e-04, 4.200000000011467e-03, 3.044745352121643e-04, 1.726161335251142e-05, 2.919140543695215e+03, 1.334064500010543e+04, 1.382136789650756e+03, 1.078188126238656e+04
179, -2.500000000000000e-04, 4.100000000011056e-03, 2.922109723523598e-04, 1.761484384331696e-05, 3.015853662027516e+03, 1.380794894018212e+04, 1.411866445882262e+03, 1.115539277375744e+04
180, -2.500000000000000e-04, 4.000000000010646e-03, 2.801056107191816e-04, 1.793490703911518e-05, 3.113877508311303e+03, 1.428372580628891e+04, 1.440605200347612e+03, 1.153546203551932e+04
181, -2.500000000000000e-04, 3.900000000010236e-03, 2.681640061239597e-04, 1.822115547076818e-05, 3.213193159015845e+03, 1.476798619711194e+04, 1.468249644009372e+03, 1.192209168819669e+04
182, -2.500000000000000e-04, 3.800000000009824e-03, 2.563918156066834e-04, 1.847295750102581e-05, 3.313805395812611e+03, 1.526075919749237e+04, 1.494690173162036e+03, 1.231527912775261e+04
183, -2.500000000000000e-04, 3.700000000009415e-03, 2.447947987663566e-04, 1.868969883498466e-05, 3.415689802581514e+03, 1.576204937860432e+04, 1.519812247154164e+03, 1.271502700928508e+04
184, -2.500000000000000e-04, 3.600000000009160e-03, 2.333788175313226e-04, 1.887078420288505e-05, 3.518826795696811e+03, 1.627186348928685e+04, 1.543498898197291e+03, 1.312133759580169e+04
185, -2.500000000000000e-04, 3.500000000009170e-03, 2.221498362167586e-04, 1.901563911139282e-05, 3.623201760038862e+03, 1.679021100244735e+04, 1.565629262635591e+03, 1.353421266057815e+04
186, -2.500000000000000e-04, 3.400000000009196e-03, 2.111139217304168e-04, 1.912371158759003e-05, 3.728808016949200e+03, 1.731710564150081e+04, 1.586078280456491e+03, 1.395365219504693e+04
187, -2.500000000000000e-04, 3.300000000009092e-03, 2.002772440918225e-04, 1.919447404909167e-05, 3.835635584921064e+03, 1.785255552888711e+04, 1.604715615039479e+03, 1.437965554302881e+04
188, -2.500000000000000e-04, 3.200000000008720e-03, 1.896460767882727e-04, 1.922742521555269e-05, 3.943667141179029e+03, 1.839656079398176e+04, 1.621406679534841e+03, 1.481222378378703e+04
189, -2.500000000000000e-04, 3.100000000008311e-03, 1.792267967134630e-04, 1.922209205720584e-05, 4.052890281730839e+03, 1.894912324451013e+04, 1.636013570722960e+03, 1.525135790989612e+04
190, -2.500000000000000e-04, 3.000000000007901e-03, 1.690258842539913e-04, 1.917803183425840e-05, 4.163301405340247e+03, 1.951024878187459e+04, 1.648393615899082e+03, 1.569705704359456e+04
191, -2.500000000000000e-04, 2.900000000007490e-03, 1.590499237563196e-04, 1.909483418528292e-05, 4.274894343019794e+03, 2.007993825783223e+04, 1.658398671443769e+03, 1.614932065948705e+04
192, -2.500000000000000e-04, 2.800000000007079e-03, 1.493056037972017e-04, 1.897212326677967e-05, 4.387655068297979e+03, 2.065818319231243e+04, 1.665876983109112e+03, 1.660815070758199e+04
193, -2.500000000000000e-04, 2.700000000006744e-03, 1.397997168825191e-04, 1.880955997818626e-05, 4.501585165534714e+03, 2.124498358785119e+04, 1.670673194527060e+03, 1.707354639259445e+04
194, -2.500000000000000e-04, 2.600000000006672e-03, 1.305391598222420e-04, 1.860684428755088e-05, 4.616692351956450e+03, 2.184033961959821e+04, 1.672625420254001e+03, 1.754550450645586e+04
195, -2.500000000000000e-04, 2.500000000006697e-03, 1.215309343778404e-04, 1.836371758928741e-05, 4.732965777993300e+03, 2.244423214775388e+04, 1.671567054384924e+03, 1.802402569044531e+04
196, -2.500000000000000e-04, 2.400000000006722e-03, 1.127821467696015e-04, 1.807996513784730e-05, 4.850412084678654e+03, 2.305665230404279e+04, 1.667327669695410e+03, 1.850910881587009e+04
197, -2.500000000000000e-04, 2.300000000006651e-03, 1.043000079767987e-04, 1.775541851053304e-05, 4.969038251769878e+03, 2.367758566507095e+04, 1.659731834089988e+03, 1.900075223142760e+04
198, -2.500000000000000e-04, 2.200000000006315e-03, 9.609183389859026e-05, 1.738995825087977e-05, 5.088850367910334e+03, 2.430701183864311e+04, 1.648598760082788e+03, 1.949895488999715e+04
199, -2.500000000000000e-04, 2.100000000005904e-03, 8.816504525909231e-05, 1.698351644641388e-05, 5.209864090455219e+03, 2.494491222119212e+04, 1.633743376047011e+03, 2.000371451499976e+04
200, -2.500000000000000e-04, 2.000000000005494e-03, 8.052716784505534e-05, 1.653607950948915e-05, 5.332092406759744e+03, 2.559125920657127e+04, 1.614975016904649e+03, 2.051502904320367e+04
201, -2.500000000000000e-04, 1.900000000005083e-03, 7.318583241339387e-05, 1.604769095430646e-05, 5.455555131973304e+03, 2.624602420327631e+04, 1.592098164431444e+03, 2.103289591248791e+04
202, -2.500000000000000e-04, 1.800000000004675e-03, 6.614877475943009e-05, 1.551845427195245e-05, 5.580272262549408e+03, 2.690917174904677e+04, 1.564912382488107e+03, 2.155731329188696e+04
203, -2.500000000000000e-04, 1.700000000004264e-03, 5.942383553434408e-05, 1.494853586358509e-05, 5.706271972223981e+03, 2.758066449431604e+04, 1.533212709808635e+03, 2.208827772970614e+04
204, -2.500000000000000e-04, 1.600000000003854e-03, 5.301896027534199e-05, 1.433816813413818e-05, 5.833584768549606e+03, 2.826045873681792e+04, 1.496788271304007e+03, 2.262578565497879e+04
205, -2.500000000000000e-04, 1.500000000003443e-03, 4.694219928487057e-05, 1.368765254170528e-05, 5.962245536200931e+03, 2.894850617351240e+04, 1.455423623096564e+03, 2.316983404724955e+04
206, -2.500000000000000e-04, 1.400000000003032e-03, 4.120170745736859e-05, 1.299736279273781e-05, 6.092295149194650e+03, 2.964475384623298e+04, 1.408898213958794e+03, 2.372041920761270e+04
207, -2.500000000000000e-04, 1.300000000002622e-03, 3.580574415538914e-05, 1.226774811348942e-05, 6.223777874496389e+03, 3.034914138395829e+04, 1.356986312884257e+03, 2.427753718722508e+04
208, -2.500000000000000e-04, 1.200000000002211e-03, 3.076267295367219e-05, 1.149933661359019e-05, 6.356747574177618e+03, 3.106160628197326e+04, 1.299457329394096e+03, 2.484118357034967e+04
209, -2.500000000000000e-04, 1.100000000002113e-03, 2.608096135243652e-05, 1.069273866452760e-05, 6.491282903859514e+03, 3.178210314382215e+04, 1.236077383831293e+03, 2.541135843683648e+04
210, -2.500000000000000e-04, 1.000000000002544e-03, 2.176918056349655e-05, 9.848649885286768e-06, 6.627535777147058e+03, 3.251067450700008e+04, 1.166614143877812e+03, 2.598809005586215e+04
211, -2.500000000000000e-04, 9.000000000030026e-04, 1.783600639379319e-05, 8.967852368257645e-06, 6.765780799274748e+03, 3.324755650203393e+04, 1.090847457276594e+03, 2.657149294020630e+04
212, -2.500000000000000e-04, 8.000000000032027e-04, 1.429022528510300e-05, 8.051212941861990e-06, 6.906331222712381e+03, 3.399313047009981e+04, 1.008546970227001e+03, 2.716179967220296e+04
213, -2.500000000000000e-04, 7.000000000028719e-04, 1.114075700967193e-05, 7.099682778195133e-06, 7.047894069892645e+03, 3.474580458751712e+04, 9.193376845793671e+02, 2.775887198996896e+04
214, -2.500000000000000e-04, 6.000000000024631e-04, 8.396703308169164e-06, 6.114350245196103e-06, 7.183381292471729e+03, 3.549509273224637e+04, 8.218394261003463e+02, 2.835938442241365e+04
215, -2.500000000000000e-04, 5.000000000020526e-04, 6.067399591194904e-06, 5.096691006805924e-06, 7.274833248351511e+03, 3.618597888482772e+04, 7.123960930283104e+02, 2.894623248001345e+04
216, -2.500000000000000e-04, 4.000000000016421e-04, 4.162041574106400e-06, 4.049694432951211e-06, 7.242617100704080e+03, 3.668197666574204e+04, 5.766768835032769e+02, 2.946194352909293e+04
217, -2.500000000000000e-04, 3.000000000012316e-04, 2.687775551264337e-06, 2.980133561151061e-06, 6.623885842854803e+03, 3.635576989036716e+04, 4.116887638553383e+02, 2.974328293191353e+04
218, -2.500000000000000e-04, 2.000000000008210e-04, 1.636068326545737e-06, 1.908814991588023e-06, 6.220734408247419e+03, 3.584245781764884e+04, 1.390884975884126e+02, 2.962302955782419e+04
219, -2.500000000000000e-04, 1.000000000004105e-04, 9.521168927541638e-07, 8.445452865148340e-07, -3.212935090709038e+03, 2.482857377555595e+04, 2.212859541057982e+03, 2.838861054878564e+04
220, -1.999999999998928e-04, 9.899999999999593e-03, 1.131794562401406e-03, -4.322553173475720e-05, -1.368604258691858e+00, 6.498494062005597e+01, 7.057028811362917e+00, 6.783803903823892e+01
221, -1.499999999997670e-04, 9.899999999999591e-03, 1.131207359569004e-03, -5.085967961379560e-05, 2.203792101854071e+00, 5.922691439759316e+01, 1.321892063451081e+01, 6.285376621429140e+01
222, -9.999999999959327e-05, 9.899999999999591e-03, 1.130620339651057e-03, -5.849351956992477e-05, 6.999985765990607e+00, 5.137810946114949e+01, 1.705275541810662e+01, 5.596966796490650e+01
223, -4.999999999946756e-05, 9.899999999999593e-03, 1.130033529577352e-03, -6.612707334057805e-05, 1.163133102769104e+01, 4.318031697700960e+01, 1.955285237814093e+01, 5.024534464918901e+01
224, 6.282680539010377e-16, 9.899999999999593e-03, 1.129446917131005e-03, -7.376041579624895e-05, 1.507553182399901e+01, 3.497502732932687e+01, 2.038449495890212e+01, 4.536629211523228e+01
225, 5.000000000046569e-05, 9.899999999999590e-03, 1.128860478554411e-03, -8.139365597519464e-05, 1.741887106131035e+01, 2.733658115883018e+01, 1.940216526403652e+01, 4.005167963157585e+01
226, 1.000000000003380e-04, 9.899999999999590e-03, 1.128274184889812e-03, -8.902691280735838e-05, 1.877609433116184e+01, 2.073173147572777e+01, 1.670494708756453e+01, 3.346708151952495e+01
227, 1.500000000001929e-04, 9.899999999999593e-03, 1.127688001108979e-03, -9.666029865449019e-05, 1.925164858305301e+01, 1.575104907670418e+01, 1.254909759138814e+01, 2.534114437701233e+01
228, 2.000000000000797e-04, 9.899999999999593e-03, 1.127101884233103e-03, -1.042939099390747e-04, 1.863834755485761e+01, 1.274018182730184e+01, 7.384750147539069e+00, 1.590366303453474e+01
229, -1.999999999998947e-04, 9.799999999999184e-03, 1.116525500534934e-03, -4.205555906395700e-05, 3.556965961738238e+00, 8.385262603216745e+01, 1.246438350050140e+01, 8.407637272347212e+01
230, -1.499999999997712e-04, 9.799999999999181e-03, 1.115938185828070e-03, -4.968940179141162e-05, 8.655045269563258e+00, 7.245799368334460e+01, 1.979631731570250e+01, 7.508923320521774e+01
231, -9.999999999960086e-05, 9.799999999999184e-03, 1.115351117393635e-03, -5.732283740707164e-05, 1.189381195627417e+01, 5.849818406503752e+01, 2.477068590182142e+01, 6.801702007467584e+01
232, -4.999999999947776e-05, 9.799999999999184e-03, 1.114764304190644e-03, -6.495597798633665e-05, 1.553418324215405e+01, 4.541553857111793e+01, 2.756808126485899e+01, 6.271277234183859e+01
233, 6.154473632113966e-16, 9.799999999999184e-03, 1.114177735022375e-03, -7.258893001469181e-05, 1.892756164334514e+01, 3.362211940482732e+01, 2.821238054187354e+01, 5.830680655947020e+01
234, 5.000000000045551e-05, 9.799999999999184e-03, 1.113591384263048e-03, -8.022181278829385e-05, 2.145900088712084e+01, 2.315880538138799e+01, 2.659153740759785e+01, 5.321023193068635e+01
235, 1.000000000003303e-04, 9.799999999999184e-03, 1.113005217894277e-03, -8.785475352666444e-05, 2.281696541230984e+01, 1.415988744073371e+01, 2.270649217064135e+01, 4.623077055152268e+01
236, 1.500000000001885e-04, 9.799999999999188e-03, 1.112419194984994e-03, -9.548787906232363e-05, 2.277463900187755e+01, 6.861234113397678e+00, 1.670679268923983e+01, 3.700951422255695e+01
237, 2.000000000000778e-04, 9.799999999999188e-03, 1.111833265967758e-03, -1.031213077478185e-04, 2.076896299202552e+01, 1.413433333595139e+00, 8.825591946434152e+00, 2.619543512099449e+01
238, -1.999999999998966e-04, 9.699999999999027e-03, 1.101256609543191e-03, -4.088628676165288e-05, 6.072535919174925e+00, 1.049068964603724e+02, 1.909074642330738e+01, 1.059530897123038e+02
239, -1.499999999997756e-04, 9.699999999998999e-03, 1.100669097570127e-03, -4.851962595596210e-05, 1.057046454790918e+01, 8.706192452431443e+01, 2.727667172945467e+01, 9.395217257662397e+01
240, -9.999999999960846e-05, 9.699999999998973e-03, 1.100081911134175e-03, -5.615251733042133e-05, 1.483863686243560e+01, 6.891666684919832e+01, 3.274195203391218e+01, 8.492688042789064e+01
241, -4.999999999948794e-05, 9.699999999998947e-03, 1.099495049133005e-03, -6.378509348436544e-05, 1.848234649505885e+01, 5.089907984764651e+01, 3.544975665483464e+01, 7.795887113600826e+01
242, 6.026266725217555e-16, 9.699999999998920e-03, 1.098908499370557e-03, -7.141749321202924e-05, 2.156919413733791e+01, 3.390583115452019e+01, 3.540912216394153e+01, 7.188474346186021e+01
243, 5.000000000044535e-05, 9.699999999998892e-03, 1.098322237164535e-03, -7.904985732011974e-05, 2.375660089960860e+01, 1.833566388483919e+01, 3.263752098968058e+01, 6.549975315621776e+01
244, 1.000000000003228e-04, 9.699999999998864e-03, 1.097736226827003e-03, -8.668232971865156e-05, 2.468070358622152e+01, 4.464870788816166e+00, 2.716800668450205e+01, 5.797484147912129e+01
245, 1.500000000001842e-04, 9.699999999998836e-03, 1.097150422696154e-03, -9.431505507998889e-05, 2.400549588180414e+01, -7.409216051919365e+00, 1.908081347337241e+01, 4.942867484670563e+01
246, 2.000000000000759e-04, 9.699999999998809e-03, 1.096564768135561e-03, -1.019481774612563e-04, 2.154030527609136e+01, -1.675508381538057e+01, 8.483993363719641e+00, 4.188614805934992e+01
247, -1.999999999998985e-04, 9.599999999999352e-03, 1.085988149699884e-03, -3.971794010295451e-05, 7.864226514926049e+00, 1.301090559606855e+02, 2.644244749976241e+01, 1.331938829125932e+02
248, -1.499999999997800e-04, 9.599999999999241e-03, 1.085400399336244e-03, -4.735058668395191e-05, 1.235040374281852e+01, 1.058722348224494e+02, 3.541857587632556e+01, 1.173210763542303e+02
249, -9.999999999961608e-05, 9.599999999999132e-03, 1.084813063445183e-03, -5.498273971737465e-05, 1.669173527049334e+01, 8.149103753016331e+01, 4.106633539914991e+01, 1.046170406090803e+02
250, -4.999999999949810e-05, 9.599999999999024e-03, 1.084226141713213e-03, -6.261455867852446e-05, 2.049273403216839e+01, 5.747162986459735e+01, 4.341073769338176e+01, 9.436846573575315e+01
251, 5.898059818321144e-16, 9.599999999998917e-03, 1.083639620227425e-03, -7.024620655837794e-05, 2.342630319363032e+01, 3.429958948146285e+01, 4.247863217406906e+01, 8.565024880417212e+01
252, 5.000000000043517e-05, 9.599999999998809e-03, 1.083053473037330e-03, -7.787784872101099e-05, 2.525693758447115e+01, 1.250616072588480e+01, 3.831541181344234e+01, 7.768439637554100e+01
253, 1.000000000003152e-04, 9.599999999998698e-03, 1.082467662470301e-03, -8.550965146759550e-05, 2.569851020632545e+01, -7.465862860943290e+00, 3.098219495296244e+01, 7.028130090826767e+01
254, 1.500000000001798e-04, 9.599999999998591e-03, 1.081882139490152e-03, -9.314178173633820e-05, 2.449788150997184e+01, -2.516503734709799e+01, 2.055237494092967e+01, 6.446709216533748e+01
255, 2.000000000000740e-04, 9.599999999998483e-03, 1.081296844113155e-03, -1.007744065216847e-04, 2.145603963191723e+01, -4.009964794950846e+01, 7.103580473212753e+00, 6.317393525639924e+01
256, -1.999999999999004e-04, 9.499999999999719e-03, 1.070720484855116e-03, -3.855073629269586e-05, 9.251873607596778e+00, 1.594382455968889e+02, 3.432390222870752e+01, 1.651316668241725e+02
257, -1.499999999997843e-04, 9.499999999999528e-03, 1.070132471578380e-03, -4.618247070573235e-05, 1.404790528376008e+01, 1.279492204991041e+02, 4.398790606617527e+01, 1.439209961337531e+02
258, -9.999999999962368e-05, 9.499999999999330e-03, 1.069544979943615e-03, -5.381365763920174e-05, 1.847976271402663e+01, 9.624535846621802e+01, 4.970246425448691e+01, 1.262094596080953e+02
259, -4.999999999950831e-05, 9.499999999999136e-03, 1.068958008466093e-03, -6.144448614685742e-05, 2.224886657705385e+01, 6.492451498724483e+01, 5.153633838531749e+01, 1.115580013441171e+02
260, 5.769988436696294e-16, 9.499999999998942e-03, 1.068371542110428e-03, -6.907514605913675e-05, 2.504550135547673e+01, 3.451800949540869e+01, 4.955587442041251e+01, 9.956338267027621e+01
261, 5.000000000042495e-05, 9.499999999998747e-03, 1.067785553006308e-03, -7.670582795841996e-05, 2.658121418293893e+01, 5.532990286101198e+00, 4.383113679973372e+01, 9.015376831746578e+01
262, 1.000000000003075e-04, 9.499999999998551e-03, 1.067200001103662e-03, -8.433672276349887e-05, 2.660169094868947e+01, -2.152204036136764e+01, 3.444106480290937e+01, 8.402762220981492e+01
263, 1.500000000001755e-04, 9.499999999998359e-03, 1.066614834614706e-03, -9.196802113807267e-05, 2.486596861922400e+01, -4.615592220443628e+01, 2.147402389328262e+01, 8.299785409783200e+01
264, 2.000000000000721e-04, 9.499999999998164e-03, 1.066029990480075e-03, -9.959991300430311e-05, 2.116635005298142e+01, -6.788232477394688e+01, 5.032447616597638e+00, 8.961567164557331e+01
265, -1.999999999999023e-04, 9.400000000000087e-03, 1.055454077777905e-03, -3.738490552408797e-05, 1.034024812540897e+01, 1.928619081331339e+02, 4.275109923118417e+01, 2.015559036939225e+02
266, -1.499999999997887e-04, 9.399999999999811e-03, 1.054865786288210e-03, -4.501546338742825e-05, 1.554517152664083e+01, 1.529331826041532e+02, 5.297137530376146e+01, 1.734915905573594e+02
267, -9.999999999963125e-05, 9.399999999999530e-03, 1.054278142478902e-03, -5.264541708487712e-05, 2.019357971923132e+01, 1.128416305041000e+02, 5.863606152137987e+01, 1.494537124235854e+02
268, -4.999999999951849e-05, 9.399999999999249e-03, 1.053691142374604e-03, -6.027498461258566e-05, 2.398768028394208e+01, 7.315811691351917e+01, 5.984428779399459e+01, 1.293950809135535e+02
269, 5.641646004528322e-16, 9.399999999998968e-03, 1.053104768637616e-03, -6.790438355704849e-05, 2.665036339376826e+01, 3.444698433654289e+01, 5.668805291333959e+01, 1.136438677208219e+02
270, 5.000000000041476e-05, 9.399999999998687e-03, 1.052518990971898e-03, -7.553383109288524e-05, 2.790870988296737e+01, -2.751243729087159e+00, 4.925997703431936e+01, 1.031804928519922e+02
271, 1.000000000003000e-04, 9.399999999998406e-03, 1.051933766531735e-03, -8.316354377395581e-05, 2.750022224915273e+01, -3.791332166908511e+01, 3.765805502203169e+01, 9.975694542292631e+01
272, 1.500000000001711e-04, 9.399999999998125e-03, 1.051349040326536e-03, -9.079373713711361e-05, 2.517645635768582e+01, -7.052861747389012e+01, 2.199000117795903e+01, 1.053266431836407e+02
273, 2.000000000000702e-04, 9.399999999997844e-03, 1.050764745609126e-03, -9.842462505270059e-05, 2.068641051937648e+01, -1.001133907331421e+02, 2.376956965753059e+00, 1.208933070120764e+02
274, -1.999999999999042e-04, 9.300000000000464e-03, 1.040189465482728e-03, -3.622068443627225e-05, 1.184190817856449e+01, 2.308907936504827e+02, 5.173599687521182e+01, 2.422578537781124e+02
275, -1.499999999997930e-04, 9.300000000000100e-03, 1.039600890908115e-03, -4.384975893379120e-05, 1.735606735653679e+01, 1.812273112351346e+02, 6.237102058608902e+01, 2.059474724441168e+02
276, -9.999999999963886e-05, 9.299999999999729e-03, 1.039013107132277e-03, -5.147817154335326e-05, 2.213335812476926e+01, 1.314950308373720e+02, 6.786710481054419e+01, 1.743093546541894e+02
277, -4.999999999952863e-05, 9.299999999999361e-03, 1.038426107343397e-03, -5.910616889820667e-05, 2.591107200294069e+01, 8.228204554108348e+01, 6.833496950624863e+01, 1.478389626834473e+02
278, 5.513303572360351e-16, 9.299999999998993e-03, 1.037839871385339e-03, -6.673399659602406e-05, 2.840991390735969e+01, 3.415143584956643e+01, 6.388183677028275e+01, 1.278926164827080e+02
279, 5.000000000040461e-05, 9.299999999998625e-03, 1.037254365995409e-03, -7.436189913421287e-05, 2.935546126137047e+01, -1.234589176760396e+01, 5.461672080014402e+01, 1.169228275756736e+02
280, 1.000000000002923e-04, 9.299999999998258e-03, 1.036669545070570e-03, -8.199011971760850e-05, 2.847899933293332e+01, -5.667172885805586e+01, 4.065355135742579e+01, 1.177348353858753e+02
281, 1.500000000001668e-04, 9.299999999997890e-03, 1.036085349929428e-03, -8.961889992229843e-05, 2.551616524696328e+01, -9.830086893154402e+01, 2.211431889778374e+01, 1.314793913661497e+02
282, 2.000000000000683e-04, 9.299999999997520e-03, 1.035501709518788e-03, -9.724847925684638e-05, 2.020879465433367e+01, -1.367159400807377e+02, -8.679807188321185e-01, 1.569343363760320e+02
283, -1.999999999999061e-04, 9.200000000000841e-03, 1.024927281146761e-03, -3.505832546929013e-05, 1.315540488134535e+01, 2.730590894471437e+02, 6.134316356547765e+01, 2.874053933310261e+02
284, -1.499999999997973e-04, 9.200000000000397e-03, 1.024338420996662e-03, -4.268556709385990e-05, 1.905862181211373e+01, 2.125359939926139e+02, 7.224299127733818e+01, 2.414740000510656e+02
285, -9.999999999964642e-05, 9.199999999999951e-03, 1.023750512823463e-03, -5.031208929280051e-05, 2.405113291574196e+01, 1.520595145633130e+02, 7.743647986166405e+01, 2.009272988558146e+02
286, -4.999999999953884e-05, 9.199999999999505e-03, 1.023163546341411e-03, -5.793816718749493e-05, 2.786301611016019e+01, 9.221437919812305e+01, 7.703275522349394e+01, 1.669649048170596e+02
287, 5.385367716007061e-16, 9.199999999999058e-03, 1.022577497930276e-03, -6.556407457476119e-05, 3.022195572826607e+01, 3.357333524290461e+01, 7.114811381601865e+01, 1.423356882266697e+02
288, 5.000000000039439e-05, 9.199999999998614e-03, 1.021992330751074e-03, -7.319008377803068e-05, 3.085519612755123e+01, -2.330121028579335e+01, 5.990206799832105e+01, 1.314760333958599e+02
289, 1.000000000002848e-04, 9.199999999998171e-03, 1.021407994895082e-03, -8.081646543793953e-05, 2.949156969182877e+01, -7.785589606851536e+01, 4.341892145071456e+01, 1.380734926223768e+02
290, 1.500000000001625e-04, 9.199999999997726e-03, 1.020824427519848e-03, -8.844348824913671e-05, 2.586210597435532e+01, -1.295446686344987e+02, 2.182962428823758e+01, 1.614230329927845e+02
291, 2.000000000000664e-04, 9.199999999997280e-03, 1.020241552954809e-03, -9.607141862740788e-05, 1.970002776745346e+01, -1.778264719917011e+02, -4.726338002452692e+00, 1.977525504026611e+02
292, -1.999999999999080e-04, 9.100000000001274e-03, 1.009668220727778e-03, -3.389809363600986e-05, 1.480699817499275e+01, 3.198063613105376e+02, 7.160829349642943e+01, 3.369504448772417e+02
293, -1.499999999998017e-04, 9.100000000000802e-03, 1.009079080636777e-03, -4.152311141717396e-05, 2.100508564192100e+01, 2.471755073447172e+02, 8.263678816145502e+01, 2.801221424375185e+02
294, -9.999999999965405e-05, 9.100000000000334e-03, 1.008491070455451e-03, -4.914735286486607e-05, 2.615480403540970e+01, 1.747515208145623e+02, 8.737999129378548e+01, 2.293949340145762e+02
295, -4.999999999954905e-05, 9.099999999999862e-03, 1.007904176344585e-03, -5.677112173642194e-05, 2.996202349375755e+01, 1.031039982195078e+02, 8.595767044302590e+01, 1.868278161804331e+02
296, 5.257025283839090e-16, 9.099999999999390e-03, 1.007318370962066e-03, -6.439472032186396e-05, 3.214773563398558e+01, 3.280787281305061e+01, 7.849142701427613e+01, 1.569842420118813e+02
297, 5.000000000038422e-05, 9.099999999998916e-03, 1.006733613584264e-03, -7.201844921275846e-05, 3.243560054070896e+01, -3.556674106085385e+01, 6.510694611268377e+01, 1.469012463928583e+02
298, 1.000000000002772e-04, 9.099999999998446e-03, 1.006149850196394e-03, -7.964260711998781e-05, 3.055071351008006e+01, -1.014545303167063e+02, 4.593429648315967e+01, 1.608266855076625e+02
299, 1.500000000001581e-04, 9.099999999997978e-03, 1.005567013563066e-03, -8.726749066313550e-05, 2.621889880432714e+01, -1.642942654656302e+02, 2.110888400366792e+01, 1.951348397792485e+02
300, 2.000000000000645e-04, 9.099999999997506e-03, 1.004985023265449e-03, -9.489339413393721e-05, 1.916538353966929e+01, -2.235278263649006e+02, -9.227348335636183e+00, 2.433938576936819e+02
301, -1.999999999999099e-04, 9.000000000001736e-03, 9.944130663532490e-04, -3.274026649568451e-05, 1.666877641064171e+01, 3.710901068114376e+02, 8.251987252513311e+01, 3.909636771994644e+02
302, -1.499999999998060e-04, 9.000000000001264e-03, 9.938236571692559e-04, -4.036262891061001e-05, 2.315996522587278e+01, 2.851825926932665e+02, 9.353776980436643e+01, 3.219520380814745e+02
303, -9.999999999966160e-05, 9.000000000000792e-03, 9.932355726757465e-04, -4.798415870535672e-05, 2.842965103215709e+01, 1.996250402880928e+02, 9.768896767583441e+01, 2.597698961095612e+02
304, -4.999999999955923e-05, 9.000000000000320e-03, 9.926487952721563e-04, -5.560518879641305e-05, 3.219433971001962e+01, 1.150024786115827e+02, 9.509934630555706e+01, 2.074433188591950e+02
305, 5.128818376942679e-16, 8.999999999999852e-03, 9.920632937146700e-04, -6.322605032373682e-05, 3.416930691342633e+01, 3.189274843371805e+01, 8.589620933921466e+01, 1.718075022631325e+02
306, 5.000000000037403e-05, 8.999999999999380e-03, 9.914790232064289e-04, -7.084707257985045e-05, 3.407358718921706e+01, -4.912753089792922e+01, 7.020942444473546e+01, 1.632172759679420e+02
307, 1.000000000002695e-04, 8.999999999998908e-03, 9.908959254574204e-04, -7.846858286655257e-05, 3.162780909591100e+01, -1.274839210437952e+02, 4.817245538635488e+01, 1.860077538702409e+02
308, 1.500000000001538e-04, 8.999999999998436e-03, 9.903139287212100e-04, -8.609090633983097e-05, 2.655325505417037e+01, -2.026037432965720e+02, 1.992285209542676e+01, 2.325953783624841e+02
309, 2.000000000000626e-04, 8.999999999997964e-03, 9.897329478054920e-04, -9.371436584639301e-05, 1.857029610846357e+01, -2.739155655929091e+02, -1.439764525967725e+01, 2.938998946091825e+02
310, -1.999999999999118e-04, 8.900000000002187e-03, 9.791626849170994e-04, -3.158513891695764e-05, 1.864365635664708e+01, 4.269362345140880e+02, 9.409872984887329e+01, 4.495788175783363e+02
311, -1.499999999998104e-04, 8.900000000001712e-03, 9.785730217569764e-04, -3.920437253707869e-05, 2.542406267437744e+01, 3.265678379312131e+02, 1.049557058164715e+02, 3.670836064300262e+02
312, -9.999999999966923e-05, 8.900000000001240e-03, 9.779848952584630e-04, -4.682271866156568e-05, 3.080784452189620e+01, 2.267063363804412e+02, 1.083635906660151e+02, 2.921419008642532e+02
313, -4.999999999956943e-05, 8.900000000000770e-03, 9.773982837998974e-04, -5.444053946923425e-05, 3.451033697860766e+01, 1.279381218680634e+02, 1.044513765096376e+02, 2.288429837429645e+02
314, 5.000475944774707e-16, 8.900000000000293e-03, 9.768131520500232e-04, -6.205819526600643e-05, 3.624831833463968e+01, 3.084910579175824e+01, 9.334942989648455e+01, 1.867769143766915e+02
315, 5.000000000036387e-05, 8.899999999999823e-03, 9.762294509909580e-04, -6.967604441166327e-05, 3.573848341680485e+01, -6.397706062097282e+01, 7.519036041621192e+01, 1.804371107084941e+02
316, 1.000000000002620e-04, 8.899999999999349e-03, 9.756471179454655e-04, -7.729444322087683e-05, 3.269838009398742e+01, -1.559578146688016e+02, 5.010964615144462e+01, 2.136236559280534e+02
317, 1.500000000001494e-04, 8.899999999998874e-03, 9.750660765947182e-04, -8.491374584291869e-05, 2.684620065002017e+01, -2.445112693140520e+02, 1.824595571697849e+01, 2.738001755028767e+02
318, 2.000000000000606e-04, 8.899999999998404e-03, 9.744862369840227e-04, -9.253430414418243e-05, 1.790134321350237e+01, -3.290549551667921e+02, -2.025894974766797e+01, 3.493141468152557e+02
319, -1.999999999999137e-04, 8.800000000002590e-03, 9.639180240362651e-04, -3.043302156322530e-05, 2.076358406411115e+01, 4.874497702038539e+02, 1.063664278441362e+02, 5.128852349433993e+02
320, -1.499999999998147e-04, 8.800000000002060e-03, 9.633281272357466e-04, -3.804861104586306e-05, 2.780693310778799e+01, 3.714193585525228e+02, 1.169050828162154e+02, 4.156160397206515e+02
321, -9.999999999967683e-05, 8.800000000001532e-03, 9.627399961895548e-04, -4.566325985804571e-05, 3.327838602247633e+01, 2.560576066219905e+02, 1.194111284176367e+02, 3.265986091379145e+02
322, -4.999999999957961e-05, 8.800000000001001e-03, 9.621536051933788e-04, -5.327735956901211e-05, 3.689428522964701e+01, 1.419561624503452e+02, 1.140141866716068e+02, 2.510675946726082e+02
323, 4.872540088421418e-16, 8.800000000000474e-03, 9.615689147357042e-04, -6.089129987353580e-05, 3.836935745643565e+01, 2.970568808803061e+01, 1.008457250953259e+02, 2.018774386773648e+02
324, 5.000000000035368e-05, 8.799999999999947e-03, 9.609858714972365e-04, -6.850546850377012e-05, 3.741827230047263e+01, -8.010373733059495e+01, 8.003968012879010e+01, 1.985870698917754e+02
325, 1.000000000002544e-04, 8.799999999999419e-03, 9.604044083564550e-04, -7.612025112930341e-05, 3.375588156074325e+01, -1.868827199882319e+02, 5.173270714505488e+01, 2.436934230702820e+02
326, 1.500000000001451e-04, 8.799999999998892e-03, 9.598244443980880e-04, -8.373603124929825e-05, 2.709780076352031e+01, -2.900420202582446e+02, 1.606434973508257e+01, 3.187631086047462e+02
327, 2.000000000000587e-04, 8.799999999998365e-03, 9.592458849225722e-04, -9.135319007927214e-05, 1.716107777325617e+01, -3.889920334767345e+02, -2.682288048032766e+01, 4.096806285963434e+02
328, -1.999999999999156e-04, 8.700000000002964e-03, 9.486801145667999e-04, -2.928424040215210e-05, 2.297221734247218e+01, 5.526501747305541e+02, 1.193404403377466e+02, 5.809709987106411e+02
329, -1.499999999998191e-04, 8.700000000002345e-03, 9.480900094784299e-04, -3.689562839996732e-05, 3.026138291002312e+01, 4.197612252540331e+02, 1.294008753254165e+02, 4.676413939397843e+02
330, -9.999999999968445e-05, 8.700000000001731e-03, 9.475019165324054e-04, -4.450602431335149e-05, 3.580443085564677e+01, 2.877036739341715e+02, 1.308426685835716e+02, 3.632250601924585e+02
331, -4.999999999958977e-05, 8.700000000001117e-03, 9.469158059074321e-04, -5.211584928801157e-05, 3.931552158527092e+01, 1.570746896477008e+02, 1.237942071927002e+02, 2.741664541854680e+02
332, 4.743926605710325e-16, 8.700000000000502e-03, 9.463316338598955e-04, -5.972552263953325e-05, 4.050743834511336e+01, 2.847077851298763e+01, 1.083871872298887e+02, 2.171082923389664e+02
333, 5.000000000034347e-05, 8.699999999999888e-03, 9.457493427124976e-04, -6.733546174079568e-05, 3.909248866910003e+01, -9.751209423895035e+01, 8.475616310562683e+01, 2.177044804523620e+02
334, 1.000000000002468e-04, 8.699999999999274e-03, 9.451688608552754e-04, -7.494608190857939e-05, 3.478317831236195e+01, -2.202782512118424e+02, 5.303853011535664e+01, 2.762402496706826e+02
335, 1.500000000001407e-04, 8.699999999998657e-03, 9.445901027501759e-04, -8.255779629187338e-05, 2.729234014034110e+01, -3.392323341041927e+02, 1.337455923160087e+01, 3.674994587324178e+02
336, 2.000000000000568e-04, 8.699999999998044e-03, 9.440129689369777e-04, -9.017101575618438e-05, 1.633323549094834e+01, -4.537792916497153e+02, -3.409238562020214e+01, 4.750315265365948e+02
337, -1.999999999999175e-04, 8.600000000003331e-03, 9.334500689617897e-04, -2.813913612374566e-05, 2.528385456120236e+01, 6.226020410800547e+02, 1.330344544054111e+02, 6.538973009440795e+02
338, -1.499999999998235e-04, 8.600000000002632e-03, 9.328597865413988e-04, -3.574572312314203e-05, 3.279229654672677e+01, 4.716426190159324e+02, 1.424576715450706e+02, 5.232268707353423e+02
339, -9.999999999969208e-05, 8.600000000001931e-03, 9.322717800277915e-04, -4.335126832704004e-05, 3.838410160487501e+01, 3.216800940068985e+02, 1.426699819629815e+02, 4.020889383262330e+02
340, -4.999999999959999e-05, 8.600000000001230e-03, 9.316860154907364e-04, -5.095622271687296e-05, 4.176821499744777e+01, 1.733165093967714e+02, 1.337996964989118e+02, 2.981851587389533e+02
341, 4.615584173542353e-16, 8.600000000000526e-03, 9.311024449273813e-04, -5.856103549647768e-05, 4.265360055368048e+01, 2.715349375551029e+01, 1.159786141666868e+02, 2.324745342760267e+02
342, 5.000000000033329e-05, 8.599999999999825e-03, 9.305210062680915e-04, -6.616615394651458e-05, 4.074968497121025e+01, -1.162073759000271e+02, 8.934172182923612e+01, 2.378303849279728e+02
343, 1.000000000002392e-04, 8.599999999999124e-03, 9.299416233800300e-04, -7.377202330372012e-05, 3.576619044336355e+01, -2.561647364912845e+02, 5.402693837596583e+01, 3.112865342125233e+02
344, 1.500000000001364e-04, 8.599999999998423e-03, 9.293642060721375e-04, -8.137908664485951e-05, 2.741312467475159e+01, -3.921174535243744e+02, 1.017503999524077e+01, 4.200238467036269e+02
345, 2.000000000000548e-04, 8.599999999997722e-03, 9.287886500986406e-04, -8.898778477640885e-05, 1.539991635614030e+01, -5.234652227108857e+02, -4.207036266400960e+01, 5.453946275500432e+02
346, -1.999999999999195e-04, 8.500000000003703e-03, 9.182290829099628e-04, -2.699806363851644e-05, 2.769331226170704e+01, 6.973414302636099e+02, 1.474572561400273e+02, 7.317124923744797e+02
347, -1.499999999998278e-04, 8.500000000002915e-03, 9.176386599264873e-04, -3.459920772569375e-05, 3.540235732666903e+01, 5.270969623165881e+02, 1.560831146858911e+02, 5.824185259213418e+02
348, -9.999999999969967e-05, 8.500000000002127e-03, 9.170507941478283e-04, -4.219926190803787e-05, 4.102201130570256e+01, 3.580140805423520e+02, 1.548993554623538e+02, 4.432371975021313e+02
349, -4.999999999961013e-05, 8.500000000001340e-03, 9.164654475052531e-04, -4.979870735641160e-05, 4.425575045618007e+01, 1.906997157537990e+02, 1.440348977262445e+02, 3.231563739494070e+02
350, 4.487512791917503e-16, 8.500000000000552e-03, 9.158825677160235e-04, -5.739802344892486e-05, 4.480959803790363e+01, 2.576154064492094e+01, 1.236221394720970e+02, 2.479769383654068e+02
351, 5.000000000032310e-05, 8.499999999999765e-03, 9.153020882952382e-04, -6.499768765038290e-05, 4.239002596111030e+01, -1.361931983992413e+02, 9.379645688327577e+01, 2.590039947922899e+02
352, 1.000000000002316e-04, 8.499999999998977e-03, 9.147239285655486e-04, -7.259817538850241e-05, 3.670394385762696e+01, -2.945574822599031e+02, 5.469615149752663e+01, 3.488564294777743e+02
353, 1.500000000001320e-04, 8.499999999998190e-03, 9.141479936633132e-04, -8.019995993924278e-05, 2.745865105819670e+01, -4.487244258754190e+02, 6.462352891945489e+00, 4.763584477865024e+02
354, 2.000000000000531e-04, 8.499999999997402e-03, 9.135741745439220e-04, -8.780351231699361e-05, 1.436217674661166e+01, -5.980868598529906e+02, -5.076125321095449e+01, 6.208064446685195e+02
355, -1.999999999999213e-04, 8.400000000004074e-03, 9.030184363497384e-04, -2.586139179816665e-05, 3.025883790076816e+01, 7.769622027894052e+02, 1.626035599796651e+02, 8.144480253572081e+02
356, -1.499999999998322e-04, 8.400000000003200e-03, 9.024279157553988e-04, -3.345640830042951e-05, 3.813473765847282e+01, 5.861929800899304e+02, 1.702735633006714e+02, 6.452442812869321e+02
357, -9.999999999970726e-05, 8.400000000002326e-03, 9.018402512393478e-04, -4.105028841059888e-05, 4.374738364965320e+01, 3.967525037966321e+02, 1.675278439078230e+02, 4.866979851895821e+02
358, -4.999999999962035e-05, 8.400000000001451e-03, 9.012554005962728e-04, -4.864354378897110e-05, 4.679873931190783e+01, 2.092543618499583e+02, 1.544974503722441e+02, 3.490983786561056e+02
359, 4.359305885021092e-16, 8.400000000000581e-03, 9.006733072610641e-04, -5.623668429274664e-05, 4.699066213357004e+01, 2.431074693933724e+01, 1.313155601714278e+02, 2.636085809031282e+02
360, 5.000000000031294e-05, 8.399999999999703e-03, 9.000939003353549e-04, -6.383021784993200e-05, 4.402621868594849e+01, -1.574661480862238e+02, 9.811812149330399e+01, 2.812611543191676e+02
361, 1.000000000002240e-04, 8.399999999998832e-03, 8.995170946007047e-04, -7.142465035192066e-05, 3.760914928577415e+01, -3.354641588344500e+02, 5.504377972065559e+01, 3.889768167584181e+02
362, 1.500000000001277e-04, 8.399999999997958e-03, 8.989427905269135e-04, -7.902048554319057e-05, 2.744377480149000e+01, -5.090710402118820e+02, 2.233937783505361e+00, 5.365334180094610e+02
363, 2.000000000000511e-04, 8.399999999997083e-03, 8.983708742784479e-04, -8.661822491081940e-05, 1.323577246832685e+01, -6.776738856859073e+02, -6.016706403373723e+01, 7.013105290158990e+02
364, -1.999999999999233e-04, 8.300000000004210e-03, 8.878194971549579e-04, -2.472950412269593e-05, 3.291359148231267e+01, 8.614562021338270e+02, 1.784768295537984e+02, 9.021633845460198e+02
365, -1.499999999998365e-04, 8.300000000003279e-03, 8.872289274390073e-04, -3.231766508390305e-05, 4.094551644758477e+01, 6.489308537337478e+02, 1.850273381017162e+02, 7.117489963006599e+02
366, -9.999999999971485e-05, 8.300000000002344e-03, 8.866415305480667e-04, -3.990464484118588e-05, 4.653562585953404e+01, 4.379008320220744e+02, 1.805526816477849e+02, 5.325070966620756e+02
367, -4.999999999963053e-05, 8.300000000001409e-03, 8.860572600556026e-04, -4.749098585202933e-05, 4.938302699462120e+01, 2.289844603036045e+02, 1.651841614026424e+02, 3.760317853052027e+02
368, 4.231098978124681e-16, 8.300000000000474e-03, 8.854760550768446e-04, -5.507722870781332e-05, 4.918851724854808e+01, 2.279991549324313e+01, 1.390559514782242e+02, 2.793610367761707e+02
369, 5.000000000030276e-05, 8.299999999999542e-03, 8.848978402827196e-04, -6.266391206013647e-05, 4.565324622647407e+01, -1.800350182812671e+02, 1.023044559931213e+02, 3.046309235791896e+02
370, 1.000000000002164e-04, 8.299999999998609e-03, 8.843225259106458e-04, -7.025157252152193e-05, 3.847858139951907e+01, -3.789028425450580e+02, 5.506856556791351e+01, 4.316682067385008e+02
371, 1.500000000001233e-04, 8.299999999997672e-03, 8.837500077701639e-04, -7.784074456544844e-05, 2.736608507551661e+01, -5.731860543434318e+02, -2.510219914034320e+00, 6.005731237549207e+02
372, 2.000000000000492e-04, 8.299999999996739e-03, 8.831801672438777e-04, -8.543196041979449e-05, 1.201685794724871e+01, -7.622674865432610e+02, -7.028749112805642e+01, 7.869419112993060e+02
373, -1.999999999999252e-04, 8.200000000004194e-03, 8.726337189481269e-04, -2.360279840346984e-05, 3.573961737813799e+01, 9.509410960558981e+02, 1.950683996834487e+02, 9.948871638503560e+02
374, -1.499999999998408e-04, 8.200000000003217e-03, 8.720431548411868e-04, -3.118333219474289e-05, 4.388537647761298e+01, 7.153918061824604e+02, 2.003382894259007e+02, 7.819607445232368e+02
375, -9.999999999972244e-05, 8.200000000002240e-03, 8.714560981217016e-04, -3.876264180748728e-05, 4.941367828247580e+01, 4.815111105402499e+02, 1.939672808910420e+02, 5.806904641793415e+02
376, -4.999999999964069e-05, 8.200000000001265e-03, 8.708724981486138e-04, -4.634130066980436e-05, 5.202178844480211e+01, 2.499207045799263e+02, 1.760889332637720e+02, 4.039718191648392e+02
377, 4.102892071228270e-16, 8.200000000000287e-03, 8.702922897157386e-04, -5.391988035026312e-05, 5.140784358101335e+01, 2.124296231933625e+01, 1.468378909032065e+02, 2.952209086110585e+02
378, 5.000000000029257e-05, 8.199999999999309e-03, 8.697153930649379e-04, -6.149895046111834e-05, 4.726992007037701e+01, -2.039004799436277e+02, 1.063509836526591e+02, 3.291332507340269e+02
379, 1.000000000002088e-04, 8.199999999998328e-03, 8.691417138973546e-04, -6.907907857489853e-05, 3.930643209901862e+01, -4.248879132551828e+02, 5.476720489949511e+01, 4.769425302788889e+02
380, 1.500000000001190e-04, 8.199999999997352e-03, 8.685711433766093e-04, -7.666083013881331e-05, 2.721571574852800e+01, -6.410974808411386e+02, -7.772169458066449e+00, 6.684939455284828e+02
381, 2.000000000000473e-04, 8.199999999996377e-03, 8.680035581224556e-04, -8.424476838692391e-05, 1.069552517446685e+01, -8.519069969383308e+02, -8.112350732851559e+01, 8.777284346086087e+02
382, -1.999999999999271e-04, 8.100000000004175e-03, 8.574626456298855e-04, -2.248168712892532e-05, 3.864760537652037e+01, 1.045394747532893e+03, 2.123802419456609e+02, 1.092685351286277e+03
383, -1.499999999998452e-04, 8.100000000003150e-03, 8.568721472384827e-04, -3.005377812699012e-05, 4.689435972472477e+01, 7.855692109166066e+02, 2.162028729946040e+02, 8.559294742838525e+02
384, -9.999999999973005e-05, 8.100000000002133e-03, 8.562855089082169e-04, -3.762460383404753e-05, 5.234175346556386e+01, 5.275821396133306e+02, 2.077673618542785e+02, 6.312864098279206e+02
385, -4.999999999965090e-05, 8.100000000001112e-03, 8.557026757255699e-04, -4.519476889123719e-05, 5.468894391548528e+01, 2.720632925798867e+02, 1.872065923545153e+02, 4.329397652575142e+02
386, 3.974685164331859e-16, 8.100000000000092e-03, 8.551235781171811e-04, -5.276487604539113e-05, 5.363104416127685e+01, 1.963747716633607e+01, 1.546559385511335e+02, 3.111742275857168e+02
387, 5.000000000028236e-05, 8.099999999999071e-03, 8.545481318743158e-04, -6.033552607430177e-05, 4.886424690558862e+01, -2.290698866864005e+02, 1.102524907566405e+02, 3.547813826678369e+02
388, 1.000000000002012e-04, 8.099999999998051e-03, 8.539762381598945e-04, -6.790731771871158e-05, 4.008486575430778e+01, -4.734331057566069e+02, 5.413512058556341e+01, 5.248077287806827e+02
389, 1.500000000001146e-04, 8.099999999997031e-03, 8.534077835078046e-04, -7.548084761373006e-05, 2.698913260663720e+01, -7.128259344903852e+02, -1.355543804914212e+01, 7.403116459347294e+02
390, 2.000000000000454e-04, 8.099999999996011e-03, 8.528426398136528e-04, -8.305671022332224e-05, 9.272935261109197e+00, -9.466213473129076e+02, -9.267654009611556e+01, 9.736989492622664e+02
391, -1.999999999999291e-04, 8.000000000004158e-03, 8.423079082095396e-04, -2.136659736578356e-05, 4.164116548407696e+01, 1.144847251482593e+03, 2.304198342354969e+02, 1.195590593899359e+03
392, -1.499999999998495e-04, 8.000000000003093e-03, 8.417175416317329e-04, -2.892938542584022e-05, 4.996775239229268e+01, 8.594810108848096e+02, 2.326258541770685e+02, 9.336867075211127e+02
393, -9.999999999973761e-05, 8.000000000002028e-03, 8.411314059913738e-04, -3.649086914652152e-05, 5.531884251152080e+01, 5.761323933452624e+02, 2.219527087649230e+02, 6.843235889872549e+02
394, -4.999999999966106e-05, 8.000000000000966e-03, 8.405494420182132e-04, -4.405168454198555e-05, 5.738312634008786e+01, 2.954255985888635e+02, 1.985343098820341e+02, 4.629554054070990e+02
395, 3.846478257435448e-16, 7.999999999999901e-03, 8.399715757441850e-04, -5.161246568792140e-05, 5.585679897396658e+01, 1.799042919724226e+01, 1.625061539281249e+02, 3.272107305974444e+02
396, 5.000000000027218e-05, 7.999999999998840e-03, 8.393977185051676e-04, -5.917384468823170e-05, 5.043542489114391e+01, -2.555436247651613e+02, 1.140049953817004e+02, 3.815910569136832e+02
397, 1.000000000001936e-04, 7.999999999997775e-03, 8.388277669410710e-04, -6.673645162164571e-05, 4.081426169196001e+01, -5.245467255789833e+02, 5.316911378933398e+01, 5.752745992763356e+02
398, 1.500000000001103e-04, 7.999999999996709e-03, 8.382616029886106e-04, -7.430091448752560e-05, 2.668819466600745e+01, -7.883884264855269e+02, -1.986157881539266e+01, 8.160440108229226e+02
399, 2.000000000000435e-04, 7.999999999995648e-03, 8.376990938706213e-04, -8.186785914903511e-05, 7.751900581224945e+00, -1.046437291319954e+03, -1.049455427093830e+02, 1.074880979485416e+03
400, -1.999999999999309e-04, 7.900000000004136e-03, 8.271712253381353e-04, -2.025796886070236e-05, 4.485324649684605e+01, 1.249442746973193e+03, 2.491614842050417e+02, 1.303595660280783e+03
401, -1.499999999998538e-04, 7.900000000003030e-03, 8.265810634500140e-04, -2.781054954551588e-05, 5.320548098632021e+01, 9.372414466958925e+02, 2.495868153844587e+02, 1.015230960088924e+03
402, -9.999999999974523e-05, 7.900000000001926e-03, 8.259955212719446e-04, -3.536178896281054e-05, 5.840150269361177e+01, 6.272348253708487e+02, 2.365077018597838e+02, 7.398073540753776e+02
403, -4.999999999967128e-05, 7.900000000000816e-03, 8.254145352748386e-04, -4.291235458922468e-05, 6.013665062251528e+01, 3.200538494798977e+02, 2.100603988117648e+02, 4.940227068239868e+02
404, 3.718271350539037e-16, 7.899999999999709e-03, 8.248380271608486e-04, -5.046291197322319e-05, 5.810308113946688e+01, 1.632842205578326e+01, 1.703799941444515e+02, 3.433110714209655e+02
405, 5.000000000026201e-05, 7.899999999998603e-03, 8.242659038708287e-04, -5.801412469055449e-05, 5.199362708942617e+01, -2.833101371666897e+02, 1.176027328028946e+02, 4.095732234596849e+02
406, 1.000000000001860e-04, 7.899999999997496e-03, 8.236980575787139e-04, -6.556665431112198e-05, 4.150105411092301e+01, -5.782295070361228e+02, 5.186613187269310e+01, 6.283520915548661e+02
407, 1.500000000001060e-04, 7.899999999996389e-03, 8.231343656830973e-04, -7.312116035453856e-05, 2.631776954052752e+01, -8.677965139992066e+02, -2.669082944998879e+01, 8.957063991826147e+02
408, 2.000000000000416e-04, 7.899999999995286e-03, 8.225746907948146e-04, -8.067830024077509e-05, 6.136089998375255e+00, -1.151376774495046e+03, -1.179275132373842e+02, 1.181297432902137e+03
409, -1.999999999999328e-04, 7.800000000004094e-03, 8.120544109618396e-04, -1.915625624435455e-05, 4.807321957807247e+01, 1.359058386637488e+03, 2.686082315695663e+02, 1.416786376458188e+03
410, -1.499999999998583e-04, 7.800000000002947e-03, 8.114645312544751e-04, -2.669768032553376e-05, 5.645362462636989e+01, 1.018768372593740e+03, 2.670810408518261e+02, 1.100626550509065e+03
411, -9.999999999975283e-05, 7.800000000001799e-03, 8.108796784456491e-04, -3.423772839255746e-05, 6.149276312492151e+01, 6.808447016769178e+02, 2.514280446368627e+02, 7.977851028364597e+02
412, -4.999999999968147e-05, 7.800000000000654e-03, 8.102997846726087e-04, -4.177709949298214e-05, 6.288676914154944e+01, 3.459219534239684e+02, 2.217812545171943e+02, 5.261716592165193e+02
413, 3.590064443642627e-16, 7.799999999999507e-03, 8.097247672939450e-04, -4.931649073080687e-05, 6.032911410092493e+01, 1.463381678532890e+01, 1.782751271746958e+02, 3.594664714175393e+02
414, 5.000000000025183e-05, 7.799999999998360e-03, 8.091545288624469e-04, -5.685659727360070e-05, 5.351232892064144e+01, -3.123848778274647e+02, 1.210449787280279e+02, 4.387349010588755e+02
415, 1.000000000001784e-04, 7.799999999997211e-03, 8.085889571086584e-04, -6.439811231344560e-05, 4.212825825505413e+01, -6.344983890728694e+02, 5.022743274647681e+01, 6.840429810146680e+02
416, 1.500000000001016e-04, 7.799999999996065e-03, 8.080279249275502e-04, -7.194172702496047e-05, 2.586819919511015e+01, -9.510700579237384e+02, -3.403952917892336e+01, 9.793074677593879e+02
417, 2.000000000000397e-04, 7.799999999994919e-03, 8.074712903658148e-04, -7.948813052530132e-05, 4.421815363449042e+00, -1.261463232601290e+03, -1.316164896111057e+02, 1.292964251636870e+03
418, -1.999999999999347e-04, 7.700000000003952e-03, 7.969593649151953e-04, -1.806192808464153e-05, 5.139933038246974e+01, 1.473803427288183e+03, 2.887602578270559e+02, 1.535175351839506e+03
419, -1.499999999998626e-04, 7.700000000002785e-03, 7.963698511111000e-04, -2.559120125838392e-05, 5.976633776967076e+01, 1.104132133538581e+03, 2.851149309945138e+02, 1.189900000368121e+03
420, -9.999999999976044e-05, 7.700000000001617e-03, 7.957857896109974e-04, -3.311906601662243e-05, 6.461758418527337e+01, 7.370057862608618e+02, 2.667175527702674e+02, 8.582883583700083e+02
421, -4.999999999969162e-05, 7.700000000000449e-03, 7.952071083094302e-04, -4.064625292274421e-05, 6.564338247299769e+01, 3.730554614858938e+02, 2.337000308132633e+02, 5.594327519295880e+02
422, 3.461857536746216e-16, 7.699999999999279e-03, 7.946337202761720e-04, -4.817349072680069e-05, 6.253684255309035e+01, 1.291850697110232e+01, 1.861945914991805e+02, 3.756802933880264e+02
423, 5.000000000024164e-05, 7.699999999998113e-03, 7.940655237192422e-04, -5.570150629630876e-05, 5.498905518617323e+01, -3.427673486614614e+02, 1.243351492639573e+02, 4.690917545339769e+02
424, 1.000000000001708e-04, 7.699999999996944e-03, 7.935024019629112e-04, -6.323102456818472e-05, 4.269019215866186e+01, -6.933634305910368e+02, 4.825714444492323e+01, 7.423543247822219e+02
425, 1.500000000000973e-04, 7.699999999995776e-03, 7.929442234325791e-04, -7.076276849812761e-05, 2.532986289078382e+01, -1.038230114695275e+03, -4.190245230630847e+01, 1.066856638897649e+03
426, 2.000000000000377e-04, 7.699999999994609e-03, 7.923908416448051e-04, -7.829745901177690e-05, 2.597744128497027e+00, -1.376726383688012e+03, -1.460055449321232e+02, 1.409895572792708e+03
427, -1.999999999999367e-04, 7.600000000003967e-03, 7.818880775826273e-04, -1.697546540693025e-05, 5.481891557698773e+01, 1.593692931727597e+03, 3.096084750226179e+02, 1.658783550921225e+03
428, -1.499999999998669e-04, 7.600000000002791e-03, 7.812990192225998e-04, -2.449154873126463e-05, 6.314395389566799e+01, 1.193358774762520e+03, 3.036804893931683e+02, 1.283071665909347e+03
429, -9.999999999976803e-05, 7.600000000001615e-03, 7.807158568241304e-04, -3.200619326795373e-05, 6.777384083229525e+01, 7.957354254481672e+02, 2.823741565787534e+02, 9.213407219322833e+02
430, -4.999999999970180e-05, 7.600000000000435e-03, 7.801385141633141e-04, -3.952016127556715e-05, 6.840554796334210e+01, 4.014660892679337e+02, 2.458176112733113e+02, 5.938303766418277e+02
431, 3.333650629849805e-16, 7.599999999999259e-03, 7.795669000977205e-04, -4.703421326938259e-05, 6.472793862181739e+01, 1.118924267139688e+01, 1.941414054293770e+02, 3.919565450052422e+02
432, 5.000000000023146e-05, 7.599999999998081e-03, 7.790009085496784e-04, -5.454910794804348e-05, 5.642959987171686e+01, -3.744549438175861e+02, 1.274779710756794e+02, 5.006635820874391e+02
433, 1.000000000001632e-04, 7.599999999996904e-03, 7.784404184897679e-04, -6.206560212624496e-05, 4.319853890626911e+01, -7.548251040897819e+02, 4.596149707390095e+01, 8.033004242708862e+02
434, 1.500000000000929e-04, 7.599999999995727e-03, 7.778852939239765e-04, -6.958445067378111e-05, 2.472250337530707e+01, -1.129278586087059e+03, -5.027212658118573e+01, 1.158372850736889e+03
435, 2.000000000000358e-04, 7.599999999994550e-03, 7.773353838853816e-04, -7.710640645657989e-05, 6.902176230013168e-01, -1.497170917597352e+03, -1.610850579334702e+02, 1.532116693976449e+03
436, -1.999999999999386e-04, 7.500000000004145e-03, 7.668426302287324e-04, -1.589736288597131e-05, 5.825503722062736e+01, 1.718686319910201e+03, 3.311546237302871e+02, 1.787648059268360e+03
437, -1.499999999998712e-04, 7.500000000002950e-03, 7.662541221775859e-04, -2.339917222019499e-05, 6.652205090422598e+01, 1.286408711530858e+03, 3.227827904178264e+02, 1.380173316628918e+03
438, -9.999999999977570e-05, 7.500000000001755e-03, 7.656719722911374e-04, -3.089951438077902e-05, 7.092618503493894e+01, 8.570138206015295e+02, 2.984024588018434e+02, 9.869700504405471e+02
439, -4.999999999971198e-05, 7.500000000000564e-03, 7.650961002284848e-04, -3.839918348565307e-05, 7.115285974249127e+01, 4.311419473158526e+02, 2.581391503942709e+02, 6.293929035483361e+02
440, 3.205443722953394e-16, 7.499999999999370e-03, 7.645264106611412e-04, -4.589897196497599e-05, 6.689069128867040e+01, 9.436471143701539e+00, 2.021218649968307e+02, 4.083062339123110e+02
441, 5.000000000022125e-05, 7.499999999998177e-03, 7.639627932611498e-04, -5.339967048014530e-05, 5.782729830261385e+01, -4.074586119208424e+02, 1.304815276616712e+02, 5.334722996521600e+02
442, 1.000000000001556e-04, 7.499999999996980e-03, 7.634051226885028e-04, -6.090206785532174e-05, 4.364959553939988e+01, -8.188982170555220e+02, 4.335086842460986e+01, 8.668944112087445e+02
443, 1.500000000000885e-04, 7.499999999995787e-03, 7.628532585760288e-04, -6.840695101333489e-05, 2.404376947244893e+01, -1.224236155802967e+03, -5.913550955857544e+01, 1.253870330540047e+03
444, 2.000000000000339e-04, 7.499999999994593e-03, 7.623070455148352e-04, -7.591510490440452e-05, -1.305327106783224e+00, -1.622825700525077e+03, -1.768408710528100e+02, 1.659644267941016e+03
445, -1.999999999999404e-04, 7.400000000004559e-03, 7.518251911880820e-04, -1.482812685179166e-05, 6.185797566128437e+01, 1.848923433010518e+03, 3.533758786756584e+02, 1.921744258576047e+03
446, -1.499999999998756e-04, 7.400000000003323e-03, 7.512373350177313e-04, -2.231453300398735e-05, 7.001551393550690e+01, 1.383386698763785e+03, 3.424078544589210e+02, 1.481187504780499e+03
447, -9.999999999978329e-05, 7.400000000002085e-03, 7.506563174712344e-04, -2.979944545008916e-05, 7.414511290003301e+01, 9.209059746355853e+02, 3.147932734903356e+02, 1.055169738528441e+03
448, -4.999999999972218e-05, 7.400000000000849e-03, 7.500820542069382e-04, -3.728369037224123e-05, 7.392817266607553e+01, 4.621223670549040e+02, 2.706596445449682e+02, 6.661240915160070e+02
449, 3.077507866600104e-16, 7.399999999999613e-03, 7.495144458043657e-04, -4.476809227871742e-05, 6.904927905739572e+01, 7.680689506336080e+00, 2.101347838707888e+02, 4.247265159525350e+02
450, 5.000000000021107e-05, 7.399999999998373e-03, 7.489533777707753e-04, -5.225347393787524e-05, 5.919331178443265e+01, -4.417726719259987e+02, 1.333481609142817e+02, 5.675331223037514e+02
451, 1.000000000001480e-04, 7.399999999997137e-03, 7.483987205316687e-04, -5.974065632295267e-05, 4.404462304534844e+01, -8.855899973731674e+02, 4.043089726777907e+01, 9.331447675983555e+02
452, 1.500000000000842e-04, 7.399999999995899e-03, 7.478503294148841e-04, -6.723045855553366e-05, 2.328656301957754e+01, -1.323122342705488e+03, -6.848414993848965e+01, 1.353357771096379e+03
453, 2.000000000000320e-04, 7.399999999994663e-03, 7.473080446268428e-04, -7.472369784928016e-05, -3.399109229703924e+00, -1.753719623378101e+03, -1.932622657049054e+02, 1.792490757474158e+03
454, -1.999999999999424e-04, 7.300000000004963e-03, 7.368380243159206e-04, -1.376827632736811e-05, 6.552518780815325e+01, 1.984358823806216e+03, 3.762530574685284e+02, 2.061113285497720e+03
455, -1.499999999998800e-04, 7.300000000003675e-03, 7.362509267370442e-04, -2.123810471865559e-05, 7.356243200870657e+01, 1.484272006403959e+03, 3.625343950244997e+02, 1.586135635307887e+03
456, -9.999999999979085e-05, 7.300000000002383e-03, 7.356711667749717e-04, -2.870641472039213e-05, 7.739516046239851e+01, 9.874040404008748e+02, 3.315308358407681e+02, 1.125951571791608e+03
457, -4.999999999973237e-05, 7.300000000001096e-03, 7.350986560891393e-04, -3.617406475753492e-05, 7.671050666470589e+01, 4.944041000710513e+02, 2.833683912938533e+02, 7.040301973002087e+02
458, 2.949029909160572e-16, 7.299999999999806e-03, 7.345332912151530e-04, -4.364191155714143e-05, 7.119171276984939e+01, 5.919474059540391e+00, 2.181740552760211e+02, 4.412030583853571e+02
459, 5.000000000020089e-05, 7.299999999998517e-03, 7.339749535582517e-04, -5.111081013282206e-05, 6.052171385984005e+01, -4.774009423897560e+02, 1.360758621560734e+02, 6.028493552726883e+02
460, 1.000000000001404e-04, 7.299999999997227e-03, 7.334235093808229e-04, -5.858161374477636e-05, 4.438280677756354e+01, -9.549066673428971e+02, 3.720321295511887e+01, 1.002055771554000e+03
461, 1.500000000000799e-04, 7.299999999995936e-03, 7.328788097833690e-04, -6.605517385674964e-05, 2.245649543613044e+01, -1.425945456044317e+03, -7.831302023718800e+01, 1.456845883958578e+03
462, 2.000000000000302e-04, 7.299999999994650e-03, 7.323406906804222e-04, -7.353234009455840e-05, -5.576817556490099e+00, -1.889863249110045e+03, -2.103405441328216e+02, 1.930675512394871e+03
463, -1.999999999999443e-04, 7.200000000005343e-03, 7.218834855666720e-04, -1.271834368560713e-05, 6.924369535036928e+01, 2.125014585117994e+03, 3.997805557838694e+02, 2.205786010098761e+03
464, -1.499999999998843e-04, 7.200000000003976e-03, 7.212972585483652e-04, -2.017037376642239e-05, 7.713743507867372e+01, 1.589071203106774e+03, 3.831563824337194e+02, 1.695045419008715e+03
465, -9.999999999979844e-05, 7.200000000002606e-03, 7.207188867657544e-04, -2.762086283281095e-05, 8.065691933305507e+01, 1.056514017968215e+03, 3.486081284627149e+02, 1.199336310580873e+03
466, -4.999999999974257e-05, 7.200000000001237e-03, 7.201482778952254e-04, -3.507070156802643e-05, 7.948595940307015e+01, 5.279912863314494e+02, 2.962598396445590e+02, 7.431262333063013e+02
467, 2.821094052807283e-16, 7.199999999999870e-03, 7.195853244680065e-04, -4.252077901090645e-05, 7.330832345448852e+01, 4.153697646514587e+00, 2.262366296589873e+02, 4.577274436479334e+02
468, 5.000000000019069e-05, 7.199999999998501e-03, 7.190299038466489e-04, -4.997198252666201e-05, 6.180613411659843e+01, -5.143469959906561e+02, 1.386646573076656e+02, 6.394247243244480e+02
469, 1.000000000001328e-04, 7.199999999997132e-03, 7.184818782031454e-04, -5.742519777862432e-05, 4.466032194606987e+01, -1.026857447152970e+03, 3.367125797817353e+01, 1.073631847492573e+03
470, 1.500000000000756e-04, 7.199999999995762e-03, 7.179410944944278e-04, -6.488130869461593e-05, 2.155061804903224e+01, -1.532722587394609e+03, -8.861490268295557e+01, 1.564345102932882e+03
471, 2.000000000000282e-04, 7.199999999994395e-03, 7.174073844355804e-04, -7.234119742878304e-05, -7.843638707552628e+00, -2.031284823584040e+03, -2.280637737388891e+02, 2.074214687109908e+03
472, -1.999999999999461e-04, 7.100000000005715e-03, 7.069640222030861e-04, -1.167887295834146e-05, 7.307354781398433e+01, 2.270965135204176e+03, 4.239374616733758e+02, 2.355763000719903e+03
473, -1.499999999998886e-04, 7.100000000004259e-03, 7.063787834227139e-04, -1.911183842345642e-05, 8.078118107169743e+01, 1.697842214838830e+03, 4.042584794892907e+02, 1.807923134395930e+03
474, -9.999999999980600e-05, 7.100000000002804e-03, 7.058019359779726e-04, -2.654324224193577e-05, 8.395103113198181e+01, 1.128273560654615e+03, 3.660142199555785e+02, 1.275333361324526e+03
475, -4.999999999975274e-05, 7.100000000001348e-03, 7.052333836791850e-04, -3.397400742404183e-05, 8.226553712202036e+01, 5.629084542589877e+02, 3.093269418215320e+02, 7.834221349569972e+02
476, 2.692616095367750e-16, 7.099999999999895e-03, 7.046730151512062e-04, -4.140505538991406e-05, 7.540623020959603e+01, 2.398439027713579e+00, 2.343195080511260e+02, 4.742917509155563e+02
477, 5.000000000018050e-05, 7.099999999998441e-03, 7.041207038108985e-04, -4.883730594557783e-05, 6.305376733182965e+01, -5.526026792681533e+02, 1.411157985663439e+02, 6.772647448820775e+02
478, 1.000000000001252e-04, 7.099999999996985e-03, 7.035763078406636e-04, -5.627167725670258e-05, 4.488757603329486e+01, -1.101439165426693e+03, 2.984082115879666e+01, 1.147879304028084e+03
479, 1.500000000000712e-04, 7.099999999995530e-03, 7.030396701619222e-04, -6.370908581904024e-05, 2.058590338881837e+01, -1.643453257549045e+03, -9.937919869919763e+01, 1.675867306701568e+03
480, 2.000000000000263e-04, 7.099999999994075e-03, 7.025106184066824e-04, -7.115044642854564e-05, -1.017467114592874e+01, -2.177985585322301e+03, -2.464165054852341e+02, 2.223125848062682e+03
481, -1.999999999999481e-04, 7.000000000006086e-03, 6.920821762101277e-04, -1.065042027119507e-05, 7.692939451424729e+01, 2.422170940745405e+03, 4.487078934726870e+02, 2.511078056299225e+03
482, -1.499999999998929e-04, 7.000000000004546e-03, 6.914980481584343e-04, -1.806300886180765e-05, 8.443678612472198e+01, 1.810564994942179e+03, 4.258275021815184e+02, 1.924794752624800e+03
483, -9.999999999981362e-05, 7.000000000003004e-03, 6.909228661918456e-04, -2.547401714236731e-05, 8.724016043349201e+01, 1.202674042240659e+03, 3.837399348232406e+02, 1.353963845527636e+03
484, -4.999999999976293e-05, 7.000000000001462e-03, 6.903565303182018e-04, -3.288440050512994e-05, 8.502250924797900e+01, 5.991500895193706e+02, 3.225645122346453e+02, 8.249355290011546e+02
485, 2.564544713742900e-16, 6.999999999999921e-03, 6.897989253361462e-04, -4.029511281704163e-05, 7.746505678749944e+01, 6.472642387667804e-01, 2.424215654022893e+02, 4.908908582775258e+02
486, 5.000000000017032e-05, 6.999999999998381e-03, 6.892499207997120e-04, -4.770710640204619e-05, 6.424720251511334e+01, -5.921785197680202e+02, 1.434324399509271e+02, 7.163701474768745e+02
487, 1.000000000001176e-04, 6.999999999996837e-03, 6.887093709890648e-04, -5.512133201257041e-05, 4.504694667319666e+01, -1.178669268659590e+03, 2.571961822800849e+01, 1.224796869164669e+03
488, 1.500000000000668e-04, 6.999999999995296e-03, 6.881771148806858e-04, -6.253873880230033e-05, 1.954088690641828e+01, -1.758164898612149e+03, -1.105932228778524e+02, 1.791413214100038e+03
489, 2.000000000000244e-04, 6.999999999993755e-03, 6.876529761168380e-04, -6.996027429769544e-05, -1.259631474499045e+01, -2.330003489381143e+03, -2.653813801330913e+02, 2.377411432785770e+03
490, -1.999999999999499e-04, 6.900000000006458e-03, 6.772405813428178e-04, -9.633553268588686e-06, 8.084731145227812e+01, 2.578687265246325e+03, 4.740762373483338e+02, 2.671740546917545e+03
491, -1.499999999998973e-04, 6.900000000004828e-03, 6.766576917194930e-04, -1.702440667847190e-05, 8.812060278444582e+01, 1.927275617490284e+03, 4.478522435329083e+02, 2.045672920157930e+03
492, -9.999999999982122e-05, 6.900000000003202e-03, 6.760843215257131e-04, -2.441366304411697e-05, 9.053047396270489e+01, 1.279738921816163e+03, 4.017776312827929e+02, 1.435241370795476e+03
493, -4.999999999977310e-05, 6.900000000001573e-03, 6.755203670927137e-04, -3.180231017744356e-05, 8.775938487780414e+01, 6.367318245914381e+02, 3.359686706796502e+02, 8.676811224627079e+02
494, 2.436337806846489e-16, 6.899999999999946e-03, 6.749657094977037e-04, -3.919133446455014e-05, 7.948644411817668e+01, -1.090332065278403e+00, 2.505427353821731e+02, 5.075226752286493e+02
495, 5.000000000016015e-05, 6.899999999998319e-03, 6.744202145363419e-04, -4.658172082127063e-05, 6.538941030892153e+01, -6.330698951612635e+02, 1.456183939028768e+02, 7.567458410650875e+02
496, 1.000000000001100e-04, 6.899999999996692e-03, 6.738837326915632e-04, -5.397445266709636e-05, 4.514464157734466e+01, -1.258546854316663e+03, 2.131533776568631e+01, 1.304388320617222e+03
497, 1.500000000000625e-04, 6.899999999995065e-03, 6.733560991020279e-04, -6.137051189778462e-05, 1.842708688001352e+01, -1.876858856750473e+03, -1.222455726539823e+02, 1.910990509724552e+03
498, 2.000000000000225e-04, 6.899999999993437e-03, 6.728371335302161e-04, -6.877087886075329e-05, -1.508884920932894e+01, -2.487340561691615e+03, -2.849422643987026e+02, 2.537084331675680e+03
499, -1.999999999999519e-04, 6.800000000006828e-03, 6.624419650328580e-04, -8.628850589252220e-06, 8.479174359829648e+01, 2.740505634520170e+03, 5.000246293067131e+02, 2.837765809591880e+03
500, -1.499999999999017e-04, 6.800000000005111e-03, 6.618604463523540e-04, -1.599656442801239e-05, 9.180792410790957e+01, 2.047971118074667e+03, 4.703196865443792e+02, 2.170570632721967e+03
501, -9.999999999982880e-05, 6.800000000003401e-03, 6.612890391313617e-04, -2.336266629321083e-05, 9.380745416884201e+01, 1.359470366049190e+03, 4.201190814330815e+02, 1.519178322925307e+03
502, -4.999999999978328e-05, 6.800000000001686e-03, 6.607276361138164e-04, -3.072817652608632e-05, 9.046761073443454e+01, 6.756568935643129e+02, 3.495357153283531e+02, 9.116728370963793e+02
503, 2.308130899950078e-16, 6.799999999999972e-03, 6.601761147613570e-04, -3.809411409312929e-05, 8.146641225161886e+01, -2.812155968500036e+00, 2.586840883139506e+02, 5.241876641514110e+02
504, 5.000000000014997e-05, 6.799999999998255e-03, 6.596343372230601e-04, -4.546149657158533e-05, 6.648064228173871e+01, -6.752768364876674e+02, 1.476796795899099e+02, 7.983992161603492e+02
505, 1.000000000001024e-04, 6.799999999996542e-03, 6.591021503012080e-04, -5.283134012311360e-05, 4.518551555987779e+01, -1.341074689939865e+03, 1.663911994565007e+01, 1.386659582811315e+03
506, 1.500000000000582e-04, 6.799999999994830e-03, 6.585793854165440e-04, -6.020465946689327e-05, 1.725477918744707e+01, -1.999540712784258e+03, -1.343197136867128e+02, 2.034608364864578e+03
507, 2.000000000000206e-04, 6.799999999993115e-03, 6.580658585756940e-04, -6.758246784878766e-05, -1.763943315414485e+01, -2.650007670802243e+03, -3.050775096814131e+02, 2.702156858184255e+03
508, -1.999999999999538e-04, 6.700000000007203e-03, 6.476891473350571e-04, -7.636901292840914e-06, 8.879055960427002e+01, 2.907669791699207e+03, 5.265277179196942e+02, 3.009153681035089e+03
509, -1.499999999999060e-04, 6.700000000005407e-03, 6.471091371338010e-04, -1.498002497062629e-05, 9.552209337789682e+01, 2.172688269768028e+03, 4.932118576258481e+02, 2.299489306422223e+03
510, -9.999999999983645e-05, 6.700000000003612e-03, 6.465398490158365e-04, -2.232152353493336e-05, 9.708385656264761e+01, 1.441893983874481e+03, 4.387520944535199e+02, 1.605779524115896e+03
511, -4.999999999979346e-05, 6.700000000001816e-03, 6.459811722732299e-04, -2.966244988531794e-05, 9.315290025537655e+01, 7.159413062003075e+02, 3.632596896883094e+02, 9.569199586115943e+02
512, 2.179923993053667e-16, 6.700000000000018e-03, 6.454329808914231e-04, -3.700385563427830e-05, 8.340638349979073e+01, -4.510421468066681e+00, 2.668457370455937e+02, 5.408844184420373e+02
513, 5.000000000013978e-05, 6.699999999998221e-03, 6.448951335086939e-04, -4.434679108964285e-05, 6.751957410037954e+01, -7.187992182829747e+02, 1.496223837588248e+02, 8.413350546256282e+02
514, 1.000000000000948e-04, 6.699999999996424e-03, 6.443674733773796e-04, -5.169230523209141e-05, 4.516597769858049e+01, -1.426260447568626e+03, 1.170297235747806e+01, 1.471612572392147e+03
515, 1.500000000000538e-04, 6.699999999994629e-03, 6.438498283263739e-04, -5.904144568699347e-05, 1.601728136476945e+01, -2.126226950291173e+03, -1.467978324645658e+02, 2.162269354758638e+03
516, 2.000000000000187e-04, 6.699999999992831e-03, 6.433420107233944e-04, -6.639525869273938e-05, -2.025675504080542e+01, -2.818029106624966e+03, -3.257639654298716e+02, 2.872632725563632e+03
517, -1.999999999999557e-04, 6.600000000007607e-03, 6.329850433889085e-04, -6.658304608778945e-06, 9.282611899773647e+01, 3.080197368854841e+03, 5.535591418236194e+02, 3.185921825541048e+03
518, -1.499999999999103e-04, 6.600000000005753e-03, 6.324066836009799e-04, -1.397534135311396e-05, 9.924626459526618e+01, 2.301442599993436e+03, 5.165063540018913e+02, 2.432444029065919e+03
519, -9.999999999984406e-05, 6.600000000003900e-03, 6.318396751511978e-04, -2.129074151282367e-05, 1.003449842370182e+02, 1.527020458195686e+03, 4.576623432015551e+02, 1.695058167006119e+03
520, -4.999999999980367e-05, 6.600000000002050e-03, 6.312839040347315e-04, -2.860559059446090e-05, 9.580394126739725e+01, 7.575920369575542e+02, 3.771334577230326e+02, 1.003435131602301e+03
521, 2.051717086157256e-16, 6.600000000000198e-03, 6.307392409051606e-04, -3.592097291942295e-05, 8.529842482355312e+01, -6.181804674446425e+00, 2.750272091321091e+02, 5.576096263883850e+02
522, 5.000000000012958e-05, 6.599999999998345e-03, 6.302055410278961e-04, -4.323797160399621e-05, 6.850167103720327e+01, -7.636373408044054e+02, 1.514522586817099e+02, 8.855543358077442e+02
523, 1.000000000000872e-04, 6.599999999996491e-03, 6.296826442396500e-04, -5.055766853103946e-05, 4.508512196925787e+01, -1.514107949171490e+03, 6.518530359412402e+00, 1.559247574327280e+03
524, 1.500000000000495e-04, 6.599999999994639e-03, 6.291703749092556e-04, -5.788114432106793e-05, 1.471852378428730e+01, -2.256924066194122e+03, -1.596627384289378e+02, 2.293976638236389e+03
525, 2.000000000000168e-04, 6.599999999992787e-03, 6.286685418984165e-04, -6.520947830510810e-05, -2.293023798876047e+01, -2.991413355517860e+03, -3.469789252274441e+02, 3.048519233539991e+03
526, -1.999999999999576e-04, 6.500000000008018e-03, 6.183326631502828e-04, -5.693670338213401e-06, 9.682892199091327e+01, 3.258060816674135e+03, 5.811027499241729e+02, 3.368101648679894e+03
527, -1.499999999999147e-04, 6.500000000006126e-03, 6.177560995691663e-04, -1.298307687344794e-05, 1.029215914015164e+02, 2.434209624240544e+03, 5.401932550612613e+02, 2.569462765504335e+03
528, -9.999999999985163e-05, 6.500000000004228e-03, 6.171915353910847e-04, -2.027083696374619e-05, 1.035515101636908e+02, 1.614836135144510e+03, 4.768436670652367e+02, 1.787036862793911e+03
529, -4.999999999981387e-05, 6.500000000002332e-03, 6.166388534295324e-04, -2.755806875992951e-05, 9.839478749492349e+01, 8.006008624214485e+02, 3.911553046354416e+02, 1.051238917202696e+03
530, 1.923510179260846e-16, 6.500000000000438e-03, 6.160979211196192e-04, -3.484588935860200e-05, 8.712581667447236e+01, -7.832725449752587e+00, 2.832316942146444e+02, 5.743673869163790e+02
531, 5.000000000011942e-05, 6.499999999998543e-03, 6.155685904738903e-04, -4.213541475580478e-05, 6.941667127965351e+01, -8.097984549737422e+02, 1.531777423975841e+02, 9.310601061676186e+02
532, 1.000000000000796e-04, 6.499999999996646e-03, 6.150506980395496e-04, -4.942775981553571e-05, 4.493738915186438e+01, -1.604627171233244e+03, 1.099657358013829e+00, 1.649566026524473e+03
533, 1.500000000000451e-04, 6.499999999994751e-03, 6.145440648555490e-04, -5.672403824013605e-05, 1.335604264805633e+01, -2.391646708396736e+03, -1.728949825224922e+02, 2.429734333720217e+03
534, 2.000000000000149e-04, 6.499999999992855e-03, 6.140484964105318e-04, -6.402536253823492e-05, -2.566085081690073e+01, -3.170181563252842e+03, -3.686972442163826e+02, 3.229823701459518e+03
535, -1.999999999999595e-04, 6.400000000008258e-03, 6.037351082257083e-04, -4.743617188018115e-06, 1.008620073768937e+02, 3.441325778529825e+03, 6.091335027868399e+02, 3.555681749433535e+03
536, -1.499999999999190e-04, 6.400000000006336e-03, 6.031604912350472e-04, -1.200380384352317e-05, 1.065956435294500e+02, 2.571039793180253e+03, 5.642562994815999e+02, 2.710539734585484e+03
537, -9.999999999985919e-05, 6.400000000004416e-03, 6.025985403831277e-04, -1.926233562798450e-05, 1.067325558447841e+02, 1.705374547328127e+03, 4.962859658748387e+02, 1.881716040382054e+03
538, -4.999999999982406e-05, 6.400000000002495e-03, 6.020491354720790e-04, -2.652036344915740e-05, 1.009436828877462e+02, 8.449897031214316e+02, 4.053210525881431e+02, 1.100338631017846e+03
539, 1.795438797635995e-16, 6.400000000000575e-03, 6.015121408791947e-04, -3.377903725166230e-05, 8.890100816453139e+01, -9.449908090296958e+00, 2.914611320541763e+02, 5.911609499293507e+02
540, 5.000000000010922e-05, 6.399999999998654e-03, 6.009874055222811e-04, -4.103950598380214e-05, 7.027501742074003e+01, -8.572758961700680e+02, 1.548070509521153e+02, 9.778607208601366e+02
541, 1.000000000000720e-04, 6.399999999996736e-03, 6.004747628160786e-04, -4.830291756855536e-05, 4.473414163101091e+01, -1.697816655443804e+03, -4.539029441624805e+00, 1.742574443614723e+03
542, 1.500000000000408e-04, 6.399999999994814e-03, 5.999740306272359e-04, -5.557041887423492e-05, 1.194469707703419e+01, -2.530397381457913e+03, -1.864735656570683e+02, 2.569551090569097e+03
543, 2.000000000000129e-04, 6.399999999992895e-03, 5.994850112283513e-04, -6.284315568526521e-05, -2.842905295142336e+01, -3.354340093533150e+03, -3.908913750406945e+02, 3.416557992803318e+03
544, -1.999999999999615e-04, 6.300000000008254e-03, 5.891955757444195e-04, -3.808772276505359e-06, 1.049102317694119e+02, 3.630001753955153e+03, 6.376162096872195e+02, 3.748664824068614e+03
545, -1.499999999999234e-04, 6.300000000006307e-03, 5.886230597151231e-04, -1.103810294008406e-05, 1.102653324335620e+02, 2.711948613745424e+03, 5.886672089230833e+02, 2.855673690690663e+03
546, -9.999999999986685e-05, 6.300000000004357e-03, 5.880638952424285e-04, -1.826577163288025e-05, 1.098875616229660e+02, 1.798649491360490e+03, 5.159702888850522e+02, 1.979095301237235e+03
547, -4.999999999983422e-05, 6.300000000002410e-03, 5.875179592700565e-04, -2.549296210903641e-05, 1.034499204057330e+02, 8.907679895409285e+02, 4.196206208841877e+02, 1.150736982925159e+03
548, 1.667096365468024e-16, 6.300000000000461e-03, 5.869851132892042e-04, -3.272085723815772e-05, 9.062310796135972e+01, -1.102889954927403e+01, 2.997138033884977e+02, 6.079856794344240e+02
549, 5.000000000009904e-05, 6.299999999998514e-03, 5.864652032935278e-04, -3.995063899790456e-05, 7.107572892278745e+01, -9.060707536445825e+02, 1.563464866143751e+02, 1.025959133640526e+03
550, 1.000000000000644e-04, 6.299999999996569e-03, 5.859580597336835e-04, -4.718348845044561e-05, 4.447424729391361e+01, -1.793683730540844e+03, -1.038340985853335e+01, 1.838275281963701e+03
551, 1.500000000000364e-04, 6.299999999994618e-03, 5.854634974701384e-04, -5.442058571654411e-05, 1.048293749103846e+01, -2.673190552426287e+03, -2.003765867791008e+02, 2.713430763185604e+03
552, 2.000000000000111e-04, 6.299999999992672e-03, 5.849813157247869e-04, -6.166310994698872e-05, -3.123666021710295e+01, -3.543910840208574e+03, -4.135323485859290e+02, 3.608727740920162e+03
553, -1.999999999999633e-04, 6.200000000008235e-03, 5.747173589394612e-04, -2.889771363250197e-06, 1.089538109805923e+02, 3.824106354751532e+03, 6.665185233137166e+02, 3.947068049979488e+03
554, -1.499999999999277e-04, 6.200000000006244e-03, 5.741471016771294e-04, -1.008656324995764e-05, 1.139075495499745e+02, 2.856945628348912e+03, 6.134000834492967e+02, 3.004878791439579e+03
555, -9.999999999987445e-05, 6.200000000004252e-03, 5.735909001284401e-04, -1.728168735988262e-05, 1.129983995620758e+02, 1.894667906706633e+03, 5.358785924658006e+02, 2.079184863387871e+03
556, -4.999999999984441e-05, 6.200000000002263e-03, 5.730486285438212e-04, -2.447636031289363e-05, 1.059005608069165e+02, 9.379403428661212e+02, 4.340441394020459e+02, 1.202442289145795e+03
557, 1.538618408028491e-16, 6.200000000000271e-03, 5.725201456931395e-04, -3.167179797083144e-05, 9.228341518962281e+01, -1.256805576361040e+01, 3.079878686716515e+02, 6.248359304302871e+02
558, 5.000000000008886e-05, 6.199999999998280e-03, 5.720052948138190e-04, -3.886921541536818e-05, 7.181367006106228e+01, -9.561850054464553e+02, 1.578020546135951e+02, 1.075354467422858e+03
559, 1.000000000000568e-04, 6.199999999996288e-03, 5.715039035621935e-04, -4.606982692753524e-05, 4.415571470440895e+01, -1.892234617605169e+03, -1.641982454387787e+01, 1.936668779532062e+03
560, 1.500000000000321e-04, 6.199999999994299e-03, 5.710157839637866e-04, -5.327484596513137e-05, 8.971593089265866e+00, -2.820037346381414e+03, -2.145829912507145e+02, 2.861376420560817e+03
561, 2.000000000000091e-04, 6.199999999992307e-03, 5.705407323613338e-04, -6.048548514029497e-05, -3.407861524114492e+01, -3.738909576767489e+03, -4.365913079635930e+02, 3.806339492772770e+03
562, -1.999999999999653e-04, 6.100000000008216e-03, 5.603038465485245e-04, -1.987258424032801e-06, 1.129564362652138e+02, 4.023637686631123e+03, 6.958134517016404e+02, 4.150909934007154e+03
563, -1.499999999999321e-04, 6.100000000006179e-03, 5.597360089726755e-04, -9.149781940859905e-06, 1.174914414552225e+02, 3.006029359912874e+03, 6.384353103360841e+02, 3.158171921904093e+03
564, -9.999999999988203e-05, 6.100000000004146e-03, 5.591829500879349e-04, -1.631063306272959e-05, 1.160429366623002e+02, 1.993430505074924e+03, 5.559975798702849e+02, 2.181998468678820e+03
565, -4.999999999985460e-05, 6.100000000002112e-03, 5.586445416119233e-04, -2.347106132715116e-05, 1.082811016430132e+02, 9.865083846037426e+02, 4.485849761421487e+02, 1.255466878821737e+03
566, 1.410275975860520e-16, 6.100000000000079e-03, 5.581206397520045e-04, -3.063231564024232e-05, 9.387387304253525e+01, -1.406628788354874e+01, 3.162839081378730e+02, 6.417110880517921e+02
567, 5.000000000007866e-05, 6.099999999998046e-03, 5.576110851568811e-04, -3.779564424946047e-05, 7.248673161081535e+01, -1.007619062048375e+03, 1.591819209255372e+02, 1.126047983566564e+03
568, 1.000000000000492e-04, 6.099999999996011e-03, 5.571157028649226e-04, -4.496229472394532e-05, 4.378265569410817e+01, -1.993471656432624e+03, -2.263228473161607e+01, 2.037757103662666e+03
569, 1.500000000000277e-04, 6.099999999993980e-03, 5.566343022504751e-04, -5.213351393579122e-05, 7.422148791333257e+00, -2.970941857512288e+03, -2.290687576915837e+02, 3.013393790570097e+03
570, 2.000000000000072e-04, 6.099999999991945e-03, 5.561666769692915e-04, -5.931054803949927e-05, -3.693678967295642e+01, -3.939343552459366e+03, -4.600361234383509e+02, 4.009402883437115e+03
571, -1.999999999999672e-04, 6.000000000008407e-03, 5.459585215351045e-04, -1.101884424605113e-06, 1.169422962746614e+02, 4.228634014112239e+03, 7.254670316135935e+02, 4.360185596779923e+03
572, -1.499999999999365e-04, 6.000000000006308e-03, 5.453932678828670e-04, -8.228363170372198e-06, 1.210358460982644e+02, 3.159230982261739e+03, 6.637484444529124e+02, 3.315550885669234e+03
573, -9.999999999988962e-05, 6.000000000004209e-03, 5.448435346399266e-04, -1.535316596632735e-05, 1.190318850513904e+02, 2.094959874224566e+03, 5.763107156638004e+02, 2.287537449388235e+03
574, -4.999999999986476e-05, 6.000000000002106e-03, 5.443091911766088e-04, -2.247757533602311e-05, 1.105967222461026e+02, 1.036487019581516e+03, 4.632346793657014e+02, 1.309816138001069e+03
575, 1.282204594235670e-16, 6.000000000000007e-03, 5.437900913291436e-04, -2.960287327969396e-05, 9.539663629035101e+01, -1.551555242401690e+01, 3.246018098178351e+02, 6.586097883826717e+02
576, 5.000000000006848e-05, 5.999999999997906e-03, 5.432860733516719e-04, -3.673034126265546e-05, 7.309568267853092e+01, -1.060371471436304e+03, 1.604945520330900e+02, 1.178041507921683e+03
577, 1.000000000000416e-04, 5.999999999995806e-03, 5.427969598604549e-04, -4.386126020280325e-05, 4.335527145162536e+01, -2.097400233818848e+03, -2.900354148399136e+01, 2.141541256903610e+03
578, 1.500000000000234e-04, 5.999999999993707e-03, 5.423225577759319e-04, -5.099691045514711e-05, 5.834047283901498e+00, -3.125917262899315e+03, -2.438076798581984e+02, 3.169484975175878e+03
579, 2.000000000000053e-04, 5.999999999991606e-03, 5.418626582635530e-04, -5.813857179372029e-05, -3.981232064588730e+01, -4.145234022069517e+03, -4.838317366202087e+02, 4.217921282333728e+03
580, -1.999999999999690e-04, 5.900000000008779e-03, 5.316849632509970e-04, -2.343065984357308e-07, 1.209098433490937e+02, 4.439119044943420e+03, 7.554367490245802e+02, 4.574895565566630e+03
581, -1.499999999999408e-04, 5.900000000006594e-03, 5.311224606214256e-04, -7.322917363248278e-06, 1.245423751433895e+02, 3.316574272585380e+03, 6.893056320339902e+02, 3.477015480509430e+03
582, -9.999999999989724e-05, 5.900000000004408e-03, 5.305762388185794e-04, -1.440984958323354e-05, 1.219651179963878e+02, 2.199274818670750e+03, 5.967949016797514e+02, 2.395803040986380e+03
583, -4.999999999987495e-05, 5.900000000002220e-03, 5.300461650681545e-04, -2.149641880474964e-05, 1.128461533002991e+02, 1.087889648187353e+03, 4.779806482764636e+02, 1.365493250598008e+03
584, 1.153862162067698e-16, 5.900000000000033e-03, 5.295320910519178e-04, -2.858394016367054e-05, 9.685061050298930e+01, -1.690765886863886e+01, 3.329390808133236e+02, 6.755254769301534e+02
585, 5.000000000005830e-05, 5.899999999997847e-03, 5.290338528456279e-04, -3.567372839562755e-05, 7.364084056557044e+01, -1.114438976219650e+03, 1.617472232710341e+02, 1.231333548635772e+03
586, 1.000000000000340e-04, 5.899999999995659e-03, 5.285512708573880e-04, -4.276709782826413e-05, 4.287634437090998e+01, -2.204021780129816e+03, -3.551680704659408e+01, 2.248020675219874e+03
587, 1.500000000000191e-04, 5.899999999993472e-03, 5.280841497661547e-04, -4.986536236809868e-05, 4.213761479267646e+00, -3.284969185066186e+03, -2.587736681924840e+02, 3.329651588566679e+03
588, 2.000000000000034e-04, 5.899999999991286e-03, 5.276322784599403e-04, -5.696983548601212e-05, -4.269308116285583e+01, -4.356589893538135e+03, -5.079427173297112e+02, 4.431899020078724e+03
589, -1.999999999999710e-04, 5.800000000009150e-03, 5.174868485183739e-04, 6.148115339639064e-07, 1.248194657359552e+02, 4.655095779763215e+03, 7.856829843891684e+02, 4.795059383289335e+03
590, -1.499999999999452e-04, 5.800000000006880e-03, 5.169272661283148e-04, -6.434061072949449e-06, 1.279750934538040e+02, 3.478061460283658e+03, 7.150760487758255e+02, 3.642583380974365e+03
591, -9.999999999990477e-05, 5.800000000004606e-03, 5.163847437401069e-04, -1.348125342725325e-05, 1.248153015628698e+02, 2.306378554562583e+03, 6.174293344689768e+02, 2.506809557802488e+03
592, -4.999999999988512e-05, 5.800000000002332e-03, 5.158591466519161e-04, -2.052811407501053e-05, 1.150096504716362e+02, 1.140718980453555e+03, 4.928122696429350e+02, 1.422510232671259e+03
593, 1.025655255171287e-16, 5.800000000000059e-03, 5.153503246069811e-04, -2.757599132050230e-05, 9.822242515780709e+01, -1.824167937381480e+01, 3.412951221130723e+02, 6.924545682982099e+02
594, 5.000000000004811e-05, 5.799999999997786e-03, 5.148581117181739e-04, -3.462623322059445e-05, 7.411430845807956e+01, -1.169823454264385e+03, 1.629491788388223e+02, 1.285920252995479e+03
595, 1.000000000000264e-04, 5.799999999995513e-03, 5.143823264009296e-04, -4.168018757374724e-05, 4.234288654059065e+01, -2.313341774680527e+03, -4.215312404143975e+01, 2.357192772468612e+03
596, 1.500000000000147e-04, 5.799999999993240e-03, 5.139227713085851e-04, -4.873920190594327e-05, 2.562806038673273e+00, -3.448107435225820e+03, -2.739380943899706e+02, 3.493893735101339e+03
597, 2.000000000000015e-04, 5.799999999990969e-03, 5.134792332690486e-04, -5.580462345508894e-05, -4.557410849883394e+01, -4.573426573099869e+03, -5.323307096333433e+02, 4.651338719000006e+03
598, -1.999999999999729e-04, 5.700000000009518e-03, 5.033679503018907e-04, 1.444800787779901e-06, 1.286419923820307e+02, 4.876571179809845e+03, 8.161713540835974e+02, 5.020694601918699e+03
599, -1.499999999999495e-04, 5.700000000007160e-03, 5.028114591820640e-04, -5.562416452435828e-06, 1.313055183281157e+02, 3.643696621634109e+03, 7.410356058924826e+02, 3.812273119725927e+03
600, -9.999999999991239e-05, 5.700000000004800e-03, 5.022728260424993e-04, -1.256795244933849e-05, 1.275594107913335e+02, 2.416274403421163e+03, 6.381988508334415e+02, 2.620573870416375e+03
601, -4.999999999989533e-05, 5.700000000002444e-03, 5.017519144896028e-04, -1.957318876277975e-05, 1.170703454535044e+02, 1.194977487518884e+03, 5.077233000948259e+02, 1.480883386614988e+03
602, 8.974483482748763e-17, 5.700000000000083e-03, 5.012485725461198e-04, -2.657950690040490e-05, 9.950089060446902e+01, -1.951688068656551e+01, 3.496728706815558e+02, 7.094009415315187e+02
603, 5.000000000003792e-05, 5.699999999997726e-03, 5.007626325789827e-04, -3.358828828900092e-05, 7.451016392232970e+01, -1.226526722477204e+03, 1.641127615539776e+02, 1.341800646069186e+03
604, 1.000000000000188e-04, 5.699999999995369e-03, 5.002939112299938e-04, -4.060091425603061e-05, 4.175403884139081e+01, -2.425365245778014e+03, -4.889058306722892e+01, 2.469056240953530e+03
605, 1.500000000000104e-04, 5.699999999993010e-03, 4.998422093481080e-04, -4.761876601267222e-05, 8.852672085857876e-01, -3.615340814901055e+03, -2.892694043086577e+02, 3.662212204393184e+03
606, 1.999999999999996e-04, 5.699999999990651e-03, 4.994073119228882e-04, -5.464322463588982e-05, -4.844639886026300e+01, -4.795756939701233e+03, -5.569545151482123e+02, 4.876243502836554e+03
607, -1.999999999999748e-04, 5.600000000009672e-03, 4.893321367792870e-04, 2.254987558335906e-06, 1.323757368615384e+02, 5.103563134961707e+03, 8.468642248869342e+02, 5.251801615503323e+03
608, -1.499999999999538e-04, 5.600000000007281e-03, 4.887789097551742e-04, -4.708610086913315e-06, 1.345334888351768e+02, 3.813495817936413e+03, 7.671582989085177e+02, 3.986087209442718e+03
609, -9.999999999991998e-05, 5.600000000004890e-03, 4.882443574729016e-04, -1.167052599316323e-05, 1.301964123187681e+02, 2.528975131750082e+03, 6.590872506482597e+02, 2.737101269713064e+03
610, -4.999999999990553e-05, 5.600000000002499e-03, 4.877283420877268e-04, -1.863217480943505e-05, 1.190267780097546e+02, 1.250674094376970e+03, 5.227071599337089e+02, 1.540622195356466e+03
611, 7.692414413784654e-17, 5.600000000000110e-03, 4.872307101376751e-04, -2.559497129673076e-05, 1.006851726619205e+02, -2.072837220859765e+01, 3.580755424656852e+02, 7.263701710053932e+02
612, 5.000000000002774e-05, 5.599999999997718e-03, 4.867512924783398e-04, -3.256033030213046e-05, 7.482909929784267e+01, -1.284548186222271e+03, 1.652511915802142e+02, 1.398977637299023e+03
613, 1.000000000000112e-04, 5.599999999995330e-03, 4.862899042129811e-04, -3.952966673932730e-05, 4.111273462680953e+01, -2.540096215042776e+03, -5.570581117276913e+01, 2.583612237052618e+03
614, 1.500000000000060e-04, 5.599999999992939e-03, 4.858463446215582e-04, -4.650439557073962e-05, -8.130978129675555e-01, -3.786678290928925e+03, -3.047340174528924e+02, 3.834609047350049e+03
615, 1.999999999999977e-04, 5.599999999990549e-03, 4.854203970897470e-04, -5.348593178841647e-05, -5.130093297800852e+01, -5.023595240205424e+03, -5.817704888138146e+02, 5.106617107665779e+03
616, -1.999999999999767e-04, 5.500000000009695e-03, 4.753833721939764e-04, 3.044694967196306e-06, 1.360404892956635e+02, 5.336107357164932e+03, 8.777133550070423e+02, 5.488371194128781e+03
617, -1.499999999999582e-04, 5.500000000007305e-03, 4.748335836924872e-04, -3.873271848664166e-06, 1.376759328640937e+02, 3.987488853718020e+03, 7.934079321302015e+02, 4.164017784861435e+03
618, -9.999999999992762e-05, 5.500000000004914e-03, 4.743033054076330e-04, -1.078955673574083e-05, 1.327373174113718e+02, 2.644502777667232e+03, 6.800707124851342e+02, 2.856387652832593e+03
619, -4.999999999991570e-05, 5.500000000002524e-03, 4.737923982981752e-04, -1.770560750899470e-05, 1.208857935011423e+02, 1.307823910822464e+03, 5.377520982748601e+02, 1.601727620772752e+03
620, 6.410345344820545e-17, 5.500000000000133e-03, 4.733007076793249e-04, -2.462287224213055e-05, 1.017800235822770e+02, -2.186719710488273e+01, 3.665031476760507e+02, 7.433618662599471e+02
621, 5.000000000001756e-05, 5.499999999997745e-03, 4.728280631558327e-04, -3.154279925948484e-05, 7.507553801328135e+01, -1.343884557137262e+03, 1.663760149476512e+02, 1.457453829467363e+03
622, 1.000000000000036e-04, 5.499999999995354e-03, 4.723742785503058e-04, -3.846683712259710e-05, 4.042447847913388e+01, -2.657536836726682e+03, -6.257589738530025e+01, 2.700862497440660e+03
623, 1.500000000000017e-04, 5.499999999992964e-03, 4.719391518294607e-04, -4.539643461477858e-05, -2.524514387580666e+00, -3.962127399028250e+03, -3.202978221049769e+02, 4.011086858126545e+03
624, 1.999999999999958e-04, 5.499999999990576e-03, 4.715224650290932e-04, -5.233304072411333e-05, -5.412637092948563e+01, -5.256954316249885e+03, -6.067335059207177e+02, 5.342463927574455e+03
625, -1.999999999999786e-04, 5.400000000009719e-03, 4.615257188991308e-04, 3.813243222525863e-06, 1.396105091883524e+02, 5.574212257389563e+03, 9.086675610937203e+02, 5.730410378662918e+03
626, -1.499999999999625e-04, 5.400000000007331e-03, 4.609795441882336e-04, -3.057034399230215e-06, 1.407128446131957e+02, 4.165684265004784e+03, 8.197445058410618e+02, 4.346069391346105e+03
627, -9.999999999993521e-05, 5.400000000004939e-03, 4.604537339121071e-04, -9.925630078380716e-06, 1.351679629327821e+02, 2.762865377718778e+03, 7.011220999670418e+02, 2.978436250773514e+03
628, -4.999999999992589e-05, 5.400000000002551e-03, 4.599481480848604e-04, -1.679402482883301e-05, 1.226377493473400e+02, 1.366433150338803e+03, 5.528438863701675e+02, 1.664203247898224e+03
629, 5.128276275856436e-17, 5.400000000000158e-03, 4.594626310621375e-04, -2.366370008724067e-05, 1.027795591853717e+02, -2.292997765154178e+01, 3.749541229481242e+02, 7.603717938712215e+02
630, 5.000000000000737e-05, 5.399999999997771e-03, 4.589970114645586e-04, -3.053613771284727e-05, 7.524707647801011e+01, -1.404536055122888e+03, 1.674980661558785e+02, 1.517227908138522e+03
631, 9.999999999999598e-05, 5.399999999995381e-03, 4.585511021014907e-04, -3.741281997906050e-05, 3.969038569965682e+01, -2.777691537014892e+03, -6.947783475828406e+01, 2.820806547165105e+03
632, 1.499999999999973e-04, 5.399999999992991e-03, 4.581246998938460e-04, -4.429522956145443e-05, -4.244055884216607e+00, -4.141697269420367e+03, -3.359258030316406e+02, 4.191646892901456e+03
633, 1.999999999999938e-04, 5.399999999990601e-03, 4.577175857958844e-04, -5.118484952414562e-05, -5.691350703844142e+01, -5.495848522566092e+03, -6.317966272498900e+02, 5.583787425748772e+03
634, -1.999999999999805e-04, 5.300000000009745e-03, 4.477633370258129e-04, 4.559950113482702e-06, 1.430611746041228e+02, 5.817889816286748e+03, 9.396782336062379e+02, 5.977931150767364e+03
635, -1.499999999999669e-04, 5.300000000007331e-03, 4.472209516953448e-04, -2.260532683079151e-06, 1.436201855767740e+02, 4.348090389581223e+03, 8.461312628598687e+02, 4.532253540162616e+03
636, -9.999999999994280e-05, 5.300000000004915e-03, 4.466998037896500e-04, -9.079333566164050e-06, 1.374692314727363e+02, 2.884069870212341e+03, 7.222164998691060e+02, 3.103256637704580e+03
637, -4.999999999993605e-05, 5.300000000002501e-03, 4.461997526447729e-04, -1.589796675727803e-05, 1.242686748684384e+02, 1.426506911663028e+03, 5.679698116746941e+02, 1.728057653339446e+03
638, 3.846207206892327e-17, 5.300000000000087e-03, 4.457206419242268e-04, -2.271794709309670e-05, 1.036745791556445e+02, -2.391423603837330e+01, 3.834281173368058e+02, 7.773978327860212e+02
639, 4.999999999999720e-05, 5.299999999997673e-03, 4.452622995357721e-04, -2.954079001894291e-05, 7.533899402366001e+01, -1.466503569084618e+03, 1.686293927350036e+02, 1.578297176639751e+03
640, 9.999999999998842e-05, 5.299999999995259e-03, 4.448245375496441e-04, -3.636801158125592e-05, 3.891009496631619e+01, -2.900565243408442e+03, -7.638720299552659e+01, 2.943442760448947e+03
641, 1.499999999999930e-04, 5.299999999992844e-03, 4.444071521170002e-04, -4.320112841734746e-05, -5.967771388175549e+00, -4.325397547514630e+03, -3.515811960430444e+02, 4.376289631700816e+03
642, 1.999999999999920e-04, 5.299999999990430e-03, 4.440099233884053e-04, -5.004165774311688e-05, -5.965400199508781e+01, -5.740292832049053e+03, -6.569107018459820e+02, 5.830590381626546e+03
643, -1.999999999999824e-04, 5.200000000009989e-03, 4.341004839514898e-04, 5.284132086941766e-06, 1.463811479232771e+02, 6.067158616972647e+03, 9.706952032725771e+02, 6.230939138575196e+03
644, -1.499999999999712e-04, 5.200000000007502e-03, 4.335620635976143e-04, -1.484402966512919e-06, 1.463874153103781e+02, 4.534723472137259e+03, 8.725312630736026e+02, 4.722577322586700e+03
645, -9.999999999995044e-05, 5.200000000005017e-03, 4.330457724144632e-04, -8.251255986900266e-06, 1.396311619185139e+02, 3.008128856883382e+03, 7.433294533658959e+02, 3.230856501143888e+03
646, -4.999999999994625e-05, 5.200000000002529e-03, 4.325514693494826e-04, -1.501797442967664e-05, 1.257704413982593e+02, 1.488054105706419e+03, 5.831179159005758e+02, 1.793299416555359e+03
647, 2.564138137928218e-17, 5.200000000000042e-03, 4.320789976601230e-04, -2.178610656564805e-05, 1.044597206696962e+02, -2.481488670640027e+01, 3.919258178139463e+02, 7.944402499803030e+02
648, 4.999999999998700e-05, 5.199999999997556e-03, 4.316281848277474e-04, -2.855720147322654e-05, 7.534940416606173e+01, -1.529786045906940e+03, 1.697834294858470e+02, 1.640660069847791e+03
649, 9.999999999998081e-05, 5.199999999995069e-03, 4.311988424712721e-04, -3.533280902995996e-05, 3.808579019923184e+01, -3.026161199595700e+03, -8.327776661880574e+01, 3.068770170625256e+03
650, 1.499999999999887e-04, 5.199999999992581e-03, 4.307907662614242e-04, -4.211447990222780e-05, -7.688865562184048e+00, -4.513236051656417e+03, -3.672249574278015e+02, 4.565016114270908e+03
651, 1.999999999999900e-04, 5.199999999990096e-03, 4.304037358354468e-04, -4.890376553319090e-05, -6.233625541747557e+01, -5.990300141675141e+03, -6.820238603404209e+02, 6.082876130669578e+03
652, -1.999999999999843e-04, 5.100000000010360e-03, 4.205415146392902e-04, 5.985105331445601e-06, 1.495622221888578e+02, 6.322038714817506e+03, 1.001664050512907e+03, 6.489436765422170e+03
653, -1.499999999999755e-04, 5.100000000007788e-03, 4.200072344531723e-04, -7.292817655076156e-07, 1.490077986264549e+02, 4.725601685987662e+03, 8.989039673743744e+02, 4.917044333751479e+03
654, -9.999999999995803e-05, 5.100000000005215e-03, 4.194959939151301e-04, -7.441986350703313e-06, 1.416471340020900e+02, 3.135056683263123e+03, 7.644343003439179e+02, 3.361240831564487e+03
655, -4.999999999995644e-05, 5.100000000002642e-03, 4.190076518908445e-04, -1.415458914743157e-05, 1.271372580587769e+02, 1.551084828051139e+03, 5.982752349905620e+02, 1.859935404603934e+03
656, 1.282069068964109e-17, 5.100000000000066e-03, 4.185420515377408e-04, -2.086867190041945e-05, 1.051310457563827e+02, -2.562615553007612e+01, 4.004478601089221e+02, 8.114994764949186e+02
657, 4.999999999997683e-05, 5.099999999997495e-03, 4.180990202146005e-04, -2.758581736990580e-05, 7.527704541628270e+01, -1.594382206829098e+03, 1.709743852658858e+02, 1.704315399295797e+03
658, 9.999999999997324e-05, 5.099999999994921e-03, 4.176783693923396e-04, -3.430760932235566e-05, 3.721955839229867e+01, -3.154482881455916e+03, -9.012174515949971e+01, 3.196787790945064e+03
659, 1.499999999999843e-04, 5.099999999992348e-03, 4.172798945648321e-04, -4.103563252038927e-05, -9.401341242737601e+00, -4.705221335169700e+03, -3.828157405221511e+02, 4.757826917840782e+03
660, 1.999999999999881e-04, 5.099999999989774e-03, 4.169033751596537e-04, -4.777147271079765e-05, -6.494983443914265e+01, -6.245884342323520e+03, -7.070813361083392e+02, 6.340647242533440e+03
661, -1.999999999999862e-04, 5.000000000010596e-03, 4.070908822463703e-04, 6.662186657183365e-06, 1.525895689073707e+02, 6.582547667963470e+03, 1.032527419189115e+03, 6.753429694690430e+03
662, -1.499999999999799e-04, 5.000000000007969e-03, 4.065609164530281e-04, 4.195076798321302e-09, 1.514673098466250e+02, 4.920739074123372e+03, 9.252064502585521e+02, 5.115660374177273e+03
663, -9.999999999996564e-05, 5.000000000005344e-03, 4.060549195185569e-04, -6.652112940861844e-06, 1.435054082949550e+02, 3.264864329177778e+03, 7.855027238309757e+02, 3.494415491832405e+03
664, -4.999999999996662e-05, 5.000000000002718e-03, 4.055727505456182e-04, -1.330835142045484e-05, 1.283601611923561e+02, 1.615606940935166e+03, 6.134278858479935e+02, 1.927972527916079e+03
665, 0.000000000000000e+00, 5.000000000000093e-03, 4.051142529062908e-04, -1.996613562642202e-05, 1.056825108835538e+02, -2.634377707062129e+01, 4.089946592093625e+02, 8.285755643018257e+02
666, 4.999999999996663e-05, 4.999999999997467e-03, 4.046792541513285e-04, -2.662708205184789e-05, 7.511901605172636e+01, -1.660291899827293e+03, 1.722169046369706e+02, 1.769261341894695e+03
667, 9.999999999996559e-05, 4.999999999994841e-03, 4.042675659186784e-04, -3.329280841056542e-05, 3.631189214541018e+01, -3.285534787745747e+03, -9.689030576869187e+01, 3.327493995503479e+03
668, 1.499999999999799e-04, 4.999999999992216e-03, 4.038789838409922e-04, -3.996493362852129e-05, -1.110102614282414e+01, -4.901363076803615e+03, -3.983105761533332e+02, 4.954721806967116e+03
669, 1.999999999999863e-04, 4.999999999989590e-03, 4.035132874523122e-04, -4.664507783420619e-05, -6.748635584034270e+01, -6.507060706073278e+03, -7.320260632026564e+02, 6.603905393099591e+03
670, -1.999999999999881e-04, 4.900000000010410e-03, 3.937531382742008e-04, 7.314694374336385e-06, 1.554370510179857e+02, 6.848692077269454e+03, 1.063228305910246e+03, 7.022925356886233e+03
671, -1.499999999999843e-04, 4.900000000007836e-03, 3.932276595806690e-04, 7.153933136419759e-07, 1.537444716507730e+02, 5.120141691066214e+03, 9.513961560994214e+02, 5.318432092673595e+03
672, -9.999999999997321e-05, 4.900000000005265e-03, 3.927270977212072e-04, -5.882222347095189e-06, 1.451904957849036e+02, 3.397558338333000e+03, 8.065063919464845e+02, 3.630386594323407e+03
673, -4.999999999997681e-05, 4.900000000002690e-03, 3.922513123471535e-04, -1.247979998063365e-05, 1.294283972856283e+02, 1.681625958478671e+03, 6.285619082232145e+02, 1.997417722673568e+03
674, -1.282069068964109e-17, 4.900000000000120e-03, 3.918001473630157e-04, -1.907898841243107e-05, 1.061074946266037e+02, -2.696450454343113e+01, 4.175668074769001e+02, 8.456691503116997e+02
675, 4.999999999995644e-05, 4.899999999997547e-03, 3.913734308347711e-04, -2.568143791609422e-05, 7.487272006044185e+01, -1.727515057997520e+03, 1.735262318143280e+02, 1.835496421953319e+03
676, 9.999999999995801e-05, 4.899999999994974e-03, 3.909709748943107e-04, -3.228880020896844e-05, 3.536443210148821e+01, -3.419320715219470e+03, -1.035535139054792e+02, 3.460887572298285e+03
677, 1.499999999999756e-04, 4.899999999992402e-03, 3.905925756424346e-04, -3.890272844619515e-05, -1.278161497955892e+01, -5.101669470861098e+03, -4.136648265864935e+02, 5.155701112822382e+03
678, 1.999999999999843e-04, 4.899999999989829e-03, 3.902380130512919e-04, -4.552487721265961e-05, -6.993422495325535e+01, -6.773842230735562e+03, -7.567986895305911e+02, 6.872653023097630e+03
679, -1.999999999999901e-04, 4.800000000010084e-03, 3.805329321905108e-04, 7.941949593053950e-06, 1.581085464561725e+02, 7.120498827212336e+03, 1.093704490759913e+03, 7.297920010112572e+03
680, -1.499999999999886e-04, 4.800000000007600e-03, 3.800121114895183e-04, 1.403681538379749e-06, 1.558420906968782e+02, 5.323832851944728e+03, 9.774264183782558e+02, 5.525357736990258e+03
681, -9.999999999998080e-05, 4.800000000005114e-03, 3.795171743027824e-04, -5.132898295153031e-06, 1.467023114468928e+02, 3.533156674658218e+03, 8.274138559426647e+02, 3.769154800500591e+03
682, -4.999999999998701e-05, 4.800000000002629e-03, 3.790479811656079e-04, -1.166947065865556e-05, 1.303405948693336e+02, 1.749154605399893e+03, 6.436613475558044e+02, 2.068274285978398e+03
683, -2.564138137928218e-17, 4.800000000000143e-03, 3.786043768591922e-04, -1.820771797335058e-05, 1.064050102316817e+02, -2.748060714396945e+01, 4.261639384724074e+02, 8.627793277294692e+02
684, 4.999999999994627e-05, 4.799999999997659e-03, 3.781861903112972e-04, -2.474932433759942e-05, 7.453886335284221e+01, -1.796048915663190e+03, 1.749176086208436e+02, 1.903019526496423e+03
685, 9.999999999995042e-05, 4.799999999995174e-03, 3.777932344952091e-04, -3.129597552684528e-05, 3.438061025237448e+01, -3.555843005614778e+03, -1.100805334776665e+02, 3.596967682275324e+03
686, 1.499999999999713e-04, 4.799999999992687e-03, 3.774253063280486e-04, -3.784935899017530e-05, -1.443617757654772e+01, -5.306148297095650e+03, -4.288321007022997e+02, 5.360765340717345e+03
687, 1.999999999999824e-04, 4.799999999990203e-03, 3.770821865685108e-04, -4.441116384433545e-05, -7.228274549734033e+01, -7.046242863561907e+03, -7.813372631163157e+02, 7.146892429811122e+03
688, -1.999999999999919e-04, 4.700000000009747e-03, 3.674350126965488e-04, 8.543277378987725e-06, 1.606013541139908e+02, 7.397995657512756e+03, 1.123886503992503e+03, 7.578414068807198e+03
689, -1.499999999999929e-04, 4.700000000007334e-03, 3.669190184091883e-04, 2.068432278850217e-06, 1.577556060766413e+02, 5.531836033744916e+03, 1.003244046023472e+03, 5.736439218415325e+03
690, -9.999999999998839e-05, 4.700000000004922e-03, 3.664298929729876e-04, -4.404720574094024e-06, 1.480344408861827e+02, 3.671676679374657e+03, 8.481894688526118e+02, 3.910723222774781e+03
691, -4.999999999999717e-05, 4.700000000002511e-03, 3.659674981763309e-04, -1.087789531876482e-05, 1.310906775205582e+02, 1.818204996220618e+03, 6.587078189212066e+02, 2.140546352498469e+03
692, -3.846207206892327e-17, 4.700000000000096e-03, 3.655316800448173e-04, -1.735280800500805e-05, 1.065707426548003e+02, -2.788479321856659e+01, 4.347846186058663e+02, 8.799028068099275e+02
693, 4.999999999993608e-05, 4.699999999997685e-03, 3.651222687335972e-04, -2.383117660177179e-05, 7.411594596046973e+01, -1.865890886538859e+03, 1.764063192653509e+02, 1.971827393067425e+03
694, 9.999999999994281e-05, 4.699999999995272e-03, 3.647390784217108e-04, -3.031472099863215e-05, 3.336258392606692e+01, -3.695103855806349e+03, -1.164395185061742e+02, 3.735732142176513e+03
695, 1.499999999999669e-04, 4.699999999992859e-03, 3.643819072066924e-04, -3.680516300394335e-05, -1.605802033535724e+01, -5.514806601375127e+03, -4.437640847033413e+02, 5.569914021686264e+03
696, 1.999999999999805e-04, 4.699999999990447e-03, 3.640505369990616e-04, -4.330422634152609e-05, -7.451974374069459e+01, -7.324274523169346e+03, -8.055771882171449e+02, 7.426625262294573e+03
697, -1.999999999999939e-04, 4.600000000009572e-03, 3.544642285649236e-04, 9.118007347418231e-06, 1.628637967376604e+02, 7.681175072338017e+03, 1.153708435421043e+03, 7.864424775701408e+03
698, -1.499999999999973e-04, 4.600000000007185e-03, 3.539532256989197e-04, 2.709022734023844e-06, 1.594417193033041e+02, 5.744146191339442e+03, 1.028799501345555e+03, 5.951692002771640e+03
699, -9.999999999999598e-05, 4.600000000004799e-03, 3.534700957552256e-04, -3.698264172190260e-06, 1.491555207950839e+02, 3.813117413934226e+03, 8.688002458610979e+02, 4.055104465141309e+03
700, -5.000000000000737e-05, 4.600000000002412e-03, 3.530147021362975e-04, -1.010560090409448e-05, 1.316565513706022e+02, 1.888777577922261e+03, 6.736849563702889e+02, 2.214244788569798e+03
701, -5.126921023140829e-17, 4.600000000000025e-03, 3.525868924728096e-04, -1.651473716986736e-05, 1.065898852134475e+02, -2.817735555286185e+01, 4.434291691616370e+02, 8.970395317026353e+02
702, 4.999999999992590e-05, 4.599999999997638e-03, 3.521864985111704e-04, -2.292742485232347e-05, 7.359514350948052e+01, -1.937043654706680e+03, 1.780094199321083e+02, 2.041915226259501e+03
703, 9.999999999993524e-05, 4.599999999995251e-03, 3.518133360033978e-04, -2.934541800905943e-05, 3.230666885814060e+01, -3.837109690363598e+03, -1.225966589196542e+02, 3.877177159239163e+03
704, 1.499999999999625e-04, 4.599999999992864e-03, 3.514672045972483e-04, -3.577047287175926e-05, -1.764644723441870e+01, -5.727655901798725e+03, -4.584102052802524e+02, 5.783145133613205e+03
705, 1.999999999999786e-04, 4.599999999990477e-03, 3.511478877262426e-04, -4.220434784285733e-05, -7.664012478323497e+01, -7.607954551738640e+03, -8.294510477391273e+02, 7.711851474195334e+03
706, -1.999999999999958e-04, 4.500000000009600e-03, 3.416255269041586e-04, 9.665475058332736e-06, 1.648902838612497e+02, 7.970058619671616e+03, 1.183104490683648e+03, 8.155954738339345e+03
707, -1.500000000000016e-04, 4.500000000007212e-03, 3.411196767840094e-04, 3.324836096879897e-06, 1.608933349291276e+02, 5.960780563687696e+03, 1.054044832972147e+03, 6.171120960245220e+03
708, -1.000000000000036e-04, 4.500000000004825e-03, 3.406427223624402e-04, -3.014098002411429e-06, 1.500579364888849e+02, 3.957492232833415e+03, 8.892144648275795e+02, 4.202304769863194e+03
709, -5.000000000001756e-05, 4.500000000002437e-03, 3.401945290393782e-04, -9.353108194060900e-06, 1.320318335285245e+02, 1.960882219528749e+03, 6.885775216065323e+02, 2.289377589525229e+03
710, -6.409667718462742e-17, 4.500000000000053e-03, 3.397749464305124e-04, -1.569397787559893e-05, 1.064585391208733e+02, -2.835190491671165e+01, 4.520991574952747e+02, 9.141927852774596e+02
711, 4.999999999991571e-05, 4.499999999997665e-03, 3.393838082557208e-04, -2.203849288346681e-05, 7.297615130122222e+01, -2.009504390622553e+03, 1.797455404537889e+02, 2.113281581981738e+03
712, 9.999999999992765e-05, 4.499999999995279e-03, 3.390209322255124e-04, -2.838844149364649e-05, 3.121728686615825e+01, -3.981861286842476e+03, -1.285160810715121e+02, 4.021301427540001e+03
713, 1.499999999999582e-04, 4.499999999992891e-03, 3.386861199268792e-04, -3.474561442191406e-05, -1.919091502878825e+01, -5.944700389697839e+03, -4.727172650930291e+02, 6.000459064543381e+03
714, 1.999999999999767e-04, 4.499999999990504e-03, 3.383791567087114e-04, -4.111180482369825e-05, -7.862679821045811e+01, -7.897291253769267e+03, -8.528881523718422e+02, 8.002573752889989e+03
715, -1.999999999999977e-04, 4.400000000009622e-03, 3.289239537724241e-04, 1.018502371630068e-05, 1.666881188630247e+02, 8.264675012954744e+03, 1.212000133083192e+03, 8.452997635587981e+03
716, -1.500000000000059e-04, 4.400000000007235e-03, 3.284234135818144e-04, 3.915263148946554e-06, 1.621166713792538e+02, 6.181764651725800e+03, 1.078924036597735e+03, 6.394722051370462e+03
717, -1.000000000000112e-04, 4.400000000004850e-03, 3.279528105006005e-04, -2.352783416250508e-06, 1.507436911973298e+02, 4.104820301277167e+03, 9.093949765014726e+02, 4.352323371663108e+03
718, -5.000000000002772e-05, 4.400000000002464e-03, 3.275120123317563e-04, -8.620930401726002e-06, 1.322161635838773e+02, 2.034532301458288e+03, 7.033669425885279e+02, 2.365947360387113e+03
719, -7.691736787426851e-17, 4.400000000000076e-03, 3.271008710832804e-04, -1.489099493057498e-05, 1.061757655233467e+02, -2.840048566292523e+01, 4.607944830154231e+02, 9.313629741905970e+02
720, 4.999999999990552e-05, 4.399999999997690e-03, 3.267192228551244e-04, -2.116479683424646e-05, 7.225876537273018e+01, -2.083270573424307e+03, 1.816330213205597e+02, 2.185925192716103e+03
721, 9.999999999991999e-05, 4.399999999995304e-03, 3.263668877226593e-04, -2.744415865700576e-05, 3.009583030476858e+01, -4.129361894694677e+03, -1.341609954123250e+02, 4.168103316475932e+03
722, 1.499999999999539e-04, 4.399999999992917e-03, 3.260436696185735e-04, -3.373090565916056e-05, -2.068803569452496e+01, -6.165949782938667e+03, -4.866299531454473e+02, 6.221854770672126e+03
723, 1.999999999999748e-04, 4.399999999990530e-03, 3.257493562141143e-04, -4.002686581747260e-05, -8.047373348032147e+01, -8.192301084714363e+03, -8.758149887934125e+02, 8.298792114194057e+03
724, -1.999999999999997e-04, 4.300000000009517e-03, 3.163646556696269e-04, 1.067600517860574e-05, 1.682330297158662e+02, 8.565032587341269e+03, 1.240317039242082e+03, 8.755557563186661e+03
725, -1.500000000000103e-04, 4.300000000007164e-03, 3.158695775656469e-04, 4.479703401558786e-06, 1.630916531034637e+02, 6.407106600625651e+03, 1.103377368200601e+03, 6.622498707550621e+03
726, -1.000000000000188e-04, 4.300000000004808e-03, 3.154054966261255e-04, -1.714873001463573e-06, 1.511980997923271e+02, 4.255110049196683e+03, 9.293015416728858e+02, 4.505163560836196e+03
727, -5.000000000003792e-05, 4.300000000002456e-03, 3.149722834620653e-04, -7.909571940978925e-06, 1.321989869592588e+02, 2.109734877300913e+03, 7.180325244981701e+02, 2.443958064807622e+03
728, -8.973805856390960e-17, 4.300000000000101e-03, 3.145697928884781e-04, -1.410624429864300e-05, 1.057347101785500e+02, -2.831854641653808e+01, 4.695138627607705e+02, 9.485480192915417e+02
729, 4.999999999989533e-05, 4.299999999997747e-03, 3.141978638039593e-04, -2.030674394213630e-05, 7.143985218820762e+01, -2.158340990402222e+03, 1.836898552416987e+02, 2.259843016153590e+03
730, 9.999999999991241e-05, 4.299999999995395e-03, 3.138563190691138e-04, -2.651292773480832e-05, 2.894314526101732e+01, -4.279614316410676e+03, -1.394942569957971e+02, 4.317580571508313e+03
731, 1.499999999999495e-04, 4.299999999993039e-03, 3.135449653839683e-04, -3.272665554198508e-05, -2.213260094456928e+01, -6.391411473815782e+03, -5.000921382993337e+02, 6.447331381863258e+03
732, 1.999999999999729e-04, 4.299999999990687e-03, 3.132635931643044e-04, -3.894979023597535e-05, -8.217030111354904e+01, -8.492996272468143e+03, -8.981562057630963e+02, 8.600507647820334e+03
733, -2.000000000000014e-04, 4.200000000009198e-03, 3.039528792934833e-04, 1.113778111589534e-05, 1.695062153778518e+02, 8.871144327256936e+03, 1.267976559327267e+03, 9.063639669035845e+03
734, -1.500000000000147e-04, 4.200000000006931e-03, 3.034634097198661e-04, 5.017566258003944e-06, 1.638006248641767e+02, 6.636817566823755e+03, 1.127345498156468e+03, 6.854456931059554e+03
735, -1.000000000000264e-04, 4.200000000004664e-03, 3.030060160012807e-04, -1.100909373884707e-06, 1.514065816115967e+02, 4.408371221704696e+03, 9.488941321520566e+02, 4.660831282414479e+03
736, -5.000000000004811e-05, 4.200000000002396e-03, 3.025805719801912e-04, -7.219527179524222e-06, 1.319693688677002e+02, 2.186497790742290e+03, 7.325538721225519e+02, 2.523415886955114e+03
737, -1.025587492535507e-16, 4.200000000000129e-03, 3.021869357069401e-04, -1.334017182141077e-05, 1.051284004532025e+02, -2.810076416949244e+01, 4.782566942106947e+02, 9.657473129837996e+02
738, 4.999999999988515e-05, 4.199999999997860e-03, 3.018249493112926e-04, -1.946473124055108e-05, 7.051685604031411e+01, -2.234713349437876e+03, 1.859352966634978e+02, 2.335031913792698e+03
739, 9.999999999990481e-05, 4.199999999995591e-03, 3.014944388749382e-04, -2.559509666807688e-05, 2.776175251328709e+01, -4.432619666966722e+03, -1.444767300340154e+02, 4.469731145083314e+03
740, 1.499999999999452e-04, 4.199999999993324e-03, 3.011952143040404e-04, -3.173316263414240e-05, -2.351601142070945e+01, -6.621090138964214e+03, -5.130447485085721e+02, 6.676888798259286e+03
741, 1.999999999999710e-04, 4.199999999991056e-03, 3.009270692019072e-04, -3.788082697437864e-05, -8.370177300832529e+01, -8.799385981519168e+03, -9.198329137501597e+02, 8.907722580960732e+03
742, -2.000000000000034e-04, 4.100000000008875e-03, 2.916939714580629e-04, 1.156972454778121e-05, 1.705008962058151e+02, 9.183031712780670e+03, 1.294896045234819e+03, 9.377245586608604e+03
743, -1.500000000000190e-04, 4.100000000006694e-03, 2.912102505174463e-04, 5.528272456236901e-06, 1.642354956606675e+02, 6.870916053679241e+03, 1.150766484183195e+03, 7.090600687655577e+03
744, -1.000000000000340e-04, 4.100000000004513e-03, 2.907597027128484e-04, -5.114237826134084e-07, 1.513598817705946e+02, 4.564617892500127e+03, 9.681313957376400e+02, 4.819331890098465e+03
745, -5.000000000005830e-05, 4.100000000002334e-03, 2.903422055728158e-04, -6.551279062465281e-06, 1.315187563401547e+02, 2.264831073419701e+03, 7.469101823878032e+02, 2.604327307467636e+03
746, -1.153726636796137e-16, 4.100000000000152e-03, 2.899576208336840e-04, -1.259321184852966e-05, 1.043501477173957e+02, -2.774116303112737e+01, 4.870227498933801e+02, 9.829612149164901e+02
747, 4.999999999987496e-05, 4.099999999997971e-03, 2.896057943066717e-04, -1.863914419052998e-05, 6.948566058278004e+01, -2.312386064295360e+03, 1.883897376691964e+02, 2.411488272169335e+03
748, 9.999999999989721e-05, 4.099999999995790e-03, 2.892865557457604e-04, -2.469100173465453e-05, 2.655051878648794e+01, -4.588381318117699e+03, -1.490673501834337e+02, 4.624551887354567e+03
749, 1.499999999999408e-04, 4.099999999993610e-03, 2.889997187158250e-04, -3.075071373370370e-05, -2.483642653201969e+01, -6.854995013599122e+03, -5.254260020002470e+02, 6.910525034959233e+03
750, 1.999999999999691e-04, 4.099999999991429e-03, 2.887450804606561e-04, -3.682021305520926e-05, -8.506268503533272e+01, -9.111485575304741e+03, -9.407625784549551e+02, 9.220436383928063e+03
751, -2.000000000000054e-04, 4.000000000008551e-03, 2.795933796713952e-04, 1.197122120940703e-05, 1.711943405705064e+02, 9.500703858988181e+03, 1.320990511982418e+03, 9.696381365501067e+03
752, -1.500000000000234e-04, 4.000000000006458e-03, 2.791155403008059e-04, 6.011255468847298e-06, 1.643766236427973e+02, 7.109410959321978e+03, 1.173576636180757e+03, 7.330936530056724e+03
753, -1.000000000000416e-04, 4.000000000004365e-03, 2.786719899392880e-04, 5.306530130558247e-08, 1.510424219325919e+02, 4.723858618270831e+03, 9.869709919158943e+02, 4.980672135467973e+03
754, -5.000000000006849e-05, 4.000000000002271e-03, 2.782626102640977e-04, -5.905297698899048e-06, 1.308352704156130e+02, 2.344741812564550e+03, 7.610803280354287e+02, 2.686699692980204e+03
755, -1.282069068964109e-16, 4.000000000000177e-03, 2.778872671597542e-04, -1.186578582539636e-05, 1.033918130429702e+02, -2.723496609213521e+01, 4.958121050835425e+02, 1.000190946578056e+03
756, 4.999999999986478e-05, 3.999999999998083e-03, 2.775458105823777e-04, -1.783035527274214e-05, 6.834213200848683e+01, -2.391357346440985e+03, 1.910744807480178e+02, 2.489208579660833e+03
757, 9.999999999988963e-05, 3.999999999995989e-03, 2.772380744238106e-04, -2.380096614905201e-05, 2.530974206876681e+01, -4.746901025737132e+03, -1.532235689249992e+02, 4.782039884887936e+03
758, 1.499999999999365e-04, 3.999999999993896e-03, 2.769638763753820e-04, -2.977958248774216e-05, -2.608843269445492e+01, -7.093131735989024e+03, -5.371721145238939e+02, 7.148238704263374e+03
759, 1.999999999999672e-04, 3.999999999991804e-03, 2.767230177913961e-04, -3.576817225784290e-05, -8.624200136435434e+01, -9.429305153758367e+03, -9.608601135337993e+02, 9.538649679107806e+03
760, -2.000000000000072e-04, 3.900000000008219e-03, 2.676566519067483e-04, 1.234167102106577e-05, 1.715707696944038e+02, 9.824172401647660e+03, 1.346173395978026e+03, 1.002105031986881e+04
761, -1.500000000000277e-04, 3.900000000006203e-03, 2.671848191916294e-04, 6.465963009912208e-06, 1.642104075674098e+02, 7.352313222273558e+03, 1.195711317813380e+03, 7.575468585967108e+03
762, -1.000000000000492e-04, 3.900000000004186e-03, 2.667484099360959e-04, 5.920536981604425e-07, 1.504428877597676e+02, 4.886103334808104e+03, 1.005369770914551e+03, 5.144856982930931e+03
763, -5.000000000007867e-05, 3.900000000002170e-03, 2.663473104383769e-04, -5.282038851900761e-06, 1.299099361061009e+02, 2.426238076731100e+03, 7.750428353614925e+02, 2.770539390805876e+03
764, -1.410275975860520e-16, 3.900000000000153e-03, 2.659813912070306e-04, -1.115830078870553e-05, 1.022470644177077e+02, -2.657673274781416e+01, 5.046251154473086e+02, 1.017438744729619e+03
765, 4.999999999985460e-05, 3.899999999998138e-03, 2.656505068224719e-04, -1.703872248670186e-05, 6.708304611863275e+01, -2.471625043772924e+03, 1.940118351528761e+02, 2.568190244977655e+03
766, 9.999999999988204e-05, 3.899999999996121e-03, 2.653544957967003e-04, -2.292529856181743e-05, 2.403984549680615e+01, -4.908180530622226e+03, -1.569010305823774e+02, 4.942192789865144e+03
767, 1.499999999999321e-04, 3.899999999994104e-03, 2.650931804323220e-04, -2.882002788529660e-05, -2.726739503969873e+01, -7.335506531551669e+03, -5.482166086528969e+02, 7.390028760191450e+03
768, 1.999999999999652e-04, 3.899999999992088e-03, 2.648663666814285e-04, -3.472491359582321e-05, -8.723048037199408e+01, -9.752856106334573e+03, -9.800369776395041e+02, 9.862363238667880e+03
769, -2.000000000000091e-04, 3.800000000007874e-03, 2.558894367484298e-04, 1.268048983481534e-05, 1.716317562555616e+02, 1.015346093266952e+04, 1.370352402940635e+03, 1.035124999891750e+04
770, -1.500000000000321e-04, 3.800000000005924e-03, 2.554237272616044e-04, 6.891858715651323e-06, 1.637360346222733e+02, 7.599642966171994e+03, 1.217100926154672e+03, 7.824196479668403e+03
771, -1.000000000000568e-04, 3.800000000003971e-03, 2.549945942040797e-04, 1.105053154796995e-06, 1.495579572894299e+02, 5.051367750422552e+03, 1.023281115808416e+03, 5.311888196859592e+03
772, -5.000000000008884e-05, 3.800000000002021e-03, 2.546019289911040e-04, -4.681942338103795e-06, 1.287386165175926e+02, 2.509331541281097e+03, 7.887740906941301e+02, 2.855850300354601e+03
773, -1.538415120121150e-16, 3.800000000000070e-03, 2.542456072550991e-04, -1.047114779116171e-05, 1.009123620386168e+02, -2.575873906202378e+01, 5.134611912711281e+02, 1.034705343380575e+03
774, 4.999999999984441e-05, 3.799999999998119e-03, 2.539254887024122e-04, -1.626458779375162e-05, 6.570659156423608e+01, -2.553185546447777e+03, 1.972242455217867e+02, 2.648430788717667e+03
775, 9.999999999987444e-05, 3.799999999996168e-03, 2.536414169683269e-04, -2.206429151577472e-05, 2.274164979289139e+01, -5.072220694051064e+03, -1.600542532722934e+02, 5.105008397755100e+03
776, 1.499999999999278e-04, 3.799999999994218e-03, 2.533932194711296e-04, -2.787229272435627e-05, -2.836919558641125e+01, -7.582125281556966e+03, -5.584909782252472e+02, 7.635894164888167e+03
777, 1.999999999999633e-04, 3.799999999992265e-03, 2.531807072657629e-04, -3.369062979762019e-05, -8.801965915997403e+01, -1.008214953878259e+04, -9.982016240725181e+02, 1.019157779639490e+04
778, -2.000000000000110e-04, 3.700000000007529e-03, 2.442974843736984e-04, 1.298711091518979e-05, 1.713580927295233e+02, 1.048857803989025e+04, 1.393431159497618e+03, 1.068698409389322e+04
779, -1.500000000000364e-04, 3.700000000005644e-03, 2.438380052286118e-04, 7.288423665568078e-06, 1.629370756793329e+02, 7.851409370059404e+03, 1.237672458710083e+03, 8.077124406720984e+03
780, -1.000000000000644e-04, 3.700000000003758e-03, 2.434162739874302e-04, 1.591592885960730e-06, 1.483742503710914e+02, 5.219660814784405e+03, 1.040655927069958e+03, 5.481770375762044e+03
781, -5.000000000009902e-05, 3.700000000001873e-03, 2.430321876899879e-04, -4.105430471716524e-06, 1.273107670856289e+02, 2.594029841228667e+03, 8.022489751489036e+02, 2.942637705061728e+03
782, -1.666825314924902e-16, 3.699999999999988e-03, 2.426856276056843e-04, -9.804700337097483e-06, 9.938013879676350e+01, -2.477547148074950e+01, 5.223191930749356e+02, 1.051990481601991e+03
783, 4.999999999983423e-05, 3.699999999998102e-03, 2.423764590835088e-04, -1.550827554815654e-05, 6.420853461284173e+01, -2.636036155902854e+03, 2.007345539118246e+02, 2.729926525237433e+03
784, 9.999999999986681e-05, 3.699999999996217e-03, 2.421045314019327e-04, -2.121821987433432e-05, 2.141479214370213e+01, -5.239022244273482e+03, -1.626364126075552e+02, 5.270483870095139e+03
785, 1.499999999999234e-04, 3.699999999994331e-03, 2.418696776178139e-04, -2.693660203701873e-05, -2.938964357562520e+01, -7.832992703544100e+03, -5.679244471186431e+02, 7.885833718009111e+03
786, 1.999999999999614e-04, 3.699999999992445e-03, 2.416717144140367e-04, -3.266549572688338e-05, -8.860067127999696e+01, -1.041719528160494e+04, -1.015259335159686e+03, 1.052629434772509e+04
787, -2.000000000000130e-04, 3.600000000007325e-03, 2.328866464676233e-04, 1.326098648913688e-05, 1.707357787100921e+02, 1.082953633570558e+04, 1.415311502417254e+03, 1.102825715647335e+04
788, -1.500000000000407e-04, 3.600000000005489e-03, 2.324334944746375e-04, 7.655157933446539e-06, 1.617988268605410e+02, 8.107623067134629e+03, 1.257351936678710e+03, 8.334258121033095e+03
789, -1.000000000000720e-04, 3.600000000003653e-03, 2.320192803434495e-04, 2.051221148770163e-06, 1.468785661870334e+02, 5.390991865669472e+03, 1.057444423588477e+03, 5.654509628051052e+03
790, -5.000000000010923e-05, 3.600000000001818e-03, 2.316439072639307e-04, -3.552906472273243e-06, 1.256153812800645e+02, 2.680340694498883e+03, 8.154420767831012e+02, 3.030908205200933e+03
791, -1.794761171278192e-16, 3.599999999999982e-03, 2.313072626696646e-04, -9.159312778195596e-06, 9.764197561436333e+01, -2.362141082544633e+01, 5.311982404618515e+02, 1.069294670130698e+03
792, 4.999999999982404e-05, 3.599999999998146e-03, 2.310092180836196e-04, -1.477009088553181e-05, 6.258348126941962e+01, -2.720174147080137e+03, 2.045665568450141e+02, 2.812673092070130e+03
793, 9.999999999985923e-05, 3.599999999996311e-03, 2.307496289632315e-04, -2.038733920529980e-05, 2.005745258646971e+01, -5.408585824362657e+03, -1.645988935543503e+02, 5.438615541790227e+03
794, 1.499999999999191e-04, 3.599999999994474e-03, 2.305283345443619e-04, -2.601316146786529e-05, -3.032618994152801e+01, -8.088113272348069e+03, -5.764434391967551e+02, 8.139845257728775e+03
795, 1.999999999999595e-04, 3.599999999992638e-03, 2.303451576837326e-04, -3.164966674633948e-05, -8.896552396550419e+01, -1.075800197928290e+04, -1.031111647242030e+03, 1.086651295500099e+04
796, -2.000000000000149e-04, 3.500000000007369e-03, 2.216628762580140e-04, 1.350158951464639e-05, 1.697527766759875e+02, 1.117634703000289e+04, 1.435892060430794e+03, 1.137507191600130e+04
797, -1.500000000000451e-04, 3.500000000005565e-03, 2.212161371033567e-04, 7.991582331264363e-06, 1.603099693350932e+02, 8.368294992771742e+03, 1.276063135968873e+03, 8.595601587607187e+03
798, -1.000000000000796e-04, 3.500000000003764e-03, 2.208095442201597e-04, 2.483506965906343e-06, 1.450601966417230e+02, 5.565370662926305e+03, 1.073595276088680e+03, 5.830110875298506e+03
799, -5.000000000011939e-05, 3.500000000001962e-03, 2.204430074889063e-04, -3.024752756098198e-06, 1.236427996257694e+02, 2.768272053504169e+03, 8.283270773947518e+02, 3.120667697633111e+03
800, -1.923239128717724e-16, 3.500000000000160e-03, 2.201164210508724e-04, -8.535318617076760e-06, 9.568970256632190e+01, -2.229107484430381e+01, 5.400971943316317e+02, 1.086618323579175e+03
801, 4.999999999981385e-05, 3.499999999998358e-03, 2.198296631505346e-04, -1.405031803810132e-05, 6.082510194897066e+01, -2.805597261597418e+03, 2.087444466807456e+02, 2.896666039142081e+03
802, 9.999999999985163e-05, 3.499999999996555e-03, 2.195825959758989e-04, -1.957188410962731e-05, 1.866536316850784e+01, -5.580913275662226e+03, -1.658920398204377e+02, 5.609399398148842e+03
803, 1.499999999999148e-04, 3.499999999994753e-03, 2.193750654974438e-04, -2.510215562097356e-05, -3.118104482614410e+01, -8.347494024521779e+03, -5.839726855573638e+02, 8.397925813328098e+03
804, 1.999999999999576e-04, 3.499999999992950e-03, 2.192069013058248e-04, -3.064327708853298e-05, -8.911350336417695e+01, -1.110458234124444e+04, -1.045657387107252e+03, 1.121223221321959e+04
805, -2.000000000000167e-04, 3.400000000007423e-03, 2.106322287329293e-04, 1.370841552876547e-05, 1.684023278779966e+02, 1.152902284491052e+04, 1.455067398708433e+03, 1.172742866408305e+04
806, -1.500000000000494e-04, 3.400000000005649e-03, 2.101919761393263e-04, 8.297240251874971e-06, 1.584639421261277e+02, 8.633437835922994e+03, 1.293726255469780e+03, 8.861156414199328e+03
807, -1.000000000000872e-04, 3.400000000003875e-03, 2.097930966353268e-04, 2.888041945962418e-06, 1.429123619018341e+02, 5.742808691432218e+03, 1.089054591852497e+03, 6.008577079278246e+03
808, -5.000000000012958e-05, 3.400000000002102e-03, 2.094355073500863e-04, -2.521329135290570e-06, 1.213867676249771e+02, 2.857833724044981e+03, 8.408761342065865e+02, 3.211920397147656e+03
809, -2.051242747706794e-16, 3.400000000000329e-03, 2.091191096971159e-04, -7.933028719857994e-06, 9.351857262610542e+01, -2.077667478256853e+01, 5.490143807560027e+02, 1.103961305792825e+03
810, 4.999999999980369e-05, 3.399999999998554e-03, 2.088437892116362e-04, -1.334921855615584e-05, 5.893120571571183e+01, -2.892300028818894e+03, 2.132928209381063e+02, 2.981902263580681e+03
811, 9.999999999984403e-05, 3.399999999996781e-03, 2.086094153859822e-04, -1.877206644883488e-05, 1.724001169036444e+01, -5.756001701099669e+03, -1.664648954140658e+02, 5.782833398942050e+03
812, 1.499999999999104e-04, 3.399999999995008e-03, 2.084158415037257e-04, -2.420374629255495e-05, -3.194778603428074e+01, -8.611134780025212e+03, -5.904348034800225e+02, 8.660075202127584e+03
813, 1.999999999999557e-04, 3.399999999993234e-03, 2.082629044730561e-04, -2.964643810447616e-05, -8.903293116416671e+01, -1.145693985835817e+04, -1.058792425243076e+03, 1.156345422027319e+04
814, -2.000000000000187e-04, 3.300000000007353e-03, 1.998008610759687e-04, 1.388098448398052e-05, 1.666770075307747e+02, 1.188757510910467e+04, 1.472727667095028e+03, 1.208532827163529e+04
815, -1.500000000000538e-04, 3.300000000005614e-03, 1.993671558618536e-04, 8.571699502694933e-06, 1.562522468600946e+02, 8.903062385454021e+03, 1.310257981897722e+03, 9.130925008843096e+03
816, -1.000000000000948e-04, 3.300000000003875e-03, 1.989760689210355e-04, 3.264442115842982e-06, 1.404265531391045e+02, 5.923315923224462e+03, 1.103766077739398e+03, 6.189911767070600e+03
817, -5.000000000013977e-05, 3.300000000002137e-03, 1.986275252092126e-04, -2.042970986198702e-06, 1.188395053316266e+02, 2.949034386446920e+03, 8.530601524522619e+02, 3.304670870131959e+03
818, -2.179652942510546e-16, 3.300000000000398e-03, 1.983214339960843e-04, -7.352729483669848e-06, 9.112225669015936e+01, -1.907133422773472e+01, 5.579480311545407e+02, 1.121323614910653e+03
819, 4.999999999979350e-05, 3.299999999998659e-03, 1.980576886964482e-04, -1.266702947136414e-05, 5.689764468631165e+01, -2.980277916329525e+03, 2.182373733958162e+02, 3.068378332771023e+03
820, 9.999999999983644e-05, 3.299999999996922e-03, 1.978361667005310e-04, -1.798807349919660e-05, 1.578016977893390e+01, -5.933849473509488e+03, -1.662641520457236e+02, 5.958914999000929e+03
821, 1.499999999999061e-04, 3.299999999995182e-03, 1.976567292032365e-04, -2.331807061053842e-05, -3.262405440344469e+01, -8.879037452283992e+03, -5.957486927197568e+02, 8.926292400863287e+03
822, 1.999999999999538e-04, 3.299999999993444e-03, 1.975192210325844e-04, -2.865923637730239e-05, -8.871750806307080e+01, -1.181508066679427e+04, -1.070408030614197e+03, 1.192017979472045e+04
823, -2.000000000000206e-04, 3.200000000007042e-03, 1.891750329370802e-04, 1.401884257396987e-05, 1.645645917304772e+02, 1.225201054986394e+04, 1.488759768709598e+03, 1.244877393105482e+04
824, -1.500000000000580e-04, 3.200000000005365e-03, 1.887479220186690e-04, 8.814554129410444e-06, 1.536622294544977e+02, 9.177175721101485e+03, 1.325572822901350e+03, 9.404911959672656e+03
825, -1.000000000001024e-04, 3.200000000003689e-03, 1.883646928883891e-04, 3.612349754332055e-06, 1.375909407531780e+02, 6.106899631330820e+03, 1.117671987873219e+03, 6.374120247791978e+03
826, -5.000000000014997e-05, 3.200000000002012e-03, 1.880252789239680e-04, -1.589987409709506e-06, 1.159904164975587e+02, 3.041880820023248e+03, 8.648493195246416e+02, 3.398925129415572e+03
827, -2.307656561499616e-16, 3.200000000000335e-03, 1.877295978507818e-04, -6.794680996632206e-06, 8.849166500855176e+01, -1.716957206848190e+01, 5.668964445455225e+02, 1.138705674164342e+03
828, 4.999999999978330e-05, 3.199999999998658e-03, 1.874775515678275e-04, -1.200396146218254e-05, 5.471711892546284e+01, -3.069527562747716e+03, 2.236046830029040e+02, 3.156089518376571e+03
829, 9.999999999982882e-05, 3.199999999996980e-03, 1.872690259727110e-04, -1.722006612894459e-05, 1.428059244150427e+01, -6.114456205997498e+03, -1.652347904719043e+02, 6.137640009683651e+03
830, 1.499999999999017e-04, 3.199999999995303e-03, 1.871038907855695e-04, -2.244523922909540e-05, -3.321279490370705e+01, -9.151205495852750e+03, -5.998307805133600e+02, 9.196574294571055e+03
831, 1.999999999999519e-04, 3.199999999993626e-03, 1.869819993717088e-04, -2.768173194546314e-05, -8.816671660650638e+01, -1.217901227177045e+04, -1.080391913712305e+03, 1.228240745895068e+04
832, -2.000000000000225e-04, 3.100000000006703e-03, 1.787611064069701e-04, 1.412156418356081e-05, 1.620556726469244e+02, 1.262233533608927e+04, 1.503047760824041e+03, 1.281776811993678e+04
833, -1.500000000000624e-04, 3.100000000005093e-03, 1.783406218410144e-04, 9.025426356549791e-06, 1.506841415481097e+02, 9.455785114386381e+03, 1.339583248258586e+03, 9.683121254573642e+03
834, -1.000000000001100e-04, 3.100000000003483e-03, 1.779653008671708e-04, 3.931435324441967e-06, 1.343958379255390e+02, 6.293567519089465e+03, 1.130713191029320e+03, 6.561207593082428e+03
835, -5.000000000016015e-05, 3.100000000001875e-03, 1.776350858977801e-04, -1.162659306530497e-06, 1.128303594523627e+02, 3.136380451106581e+03, 8.762131110141537e+02, 3.494689230875134e+03
836, -2.436134518939148e-16, 3.100000000000265e-03, 1.773499037316341e-04, -6.259115120936717e-06, 8.561878451558584e+01, -1.506487730564606e+01, 5.758579252698557e+02, 1.156108385983833e+03
837, 4.999999999977311e-05, 3.099999999998656e-03, 1.771096653750681e-04, -1.136019694577357e-05, 5.238337589863818e+01, -3.160043979032070e+03, 2.294220740956881e+02, 3.245031196003604e+03
838, 9.999999999982122e-05, 3.099999999997047e-03, 1.769142658614915e-04, -1.646817690005587e-05, 1.273748231114337e+01, -6.297819002849798e+03, -1.633203144751675e+02, 6.319004451089419e+03
839, 1.499999999998973e-04, 3.099999999995438e-03, 1.767635840697487e-04, -2.158533444249265e-05, -3.371451012507453e+01, -9.427638601512219e+03, -6.025952562740874e+02, 9.470918329617245e+03
840, 1.999999999999499e-04, 3.099999999993829e-03, 1.766574825415605e-04, -2.671395641690079e-05, -8.737714081207014e+01, -1.254873773295641e+04, -1.088628757909755e+03, 1.265013668296278e+04
841, -2.000000000000244e-04, 3.000000000006373e-03, 1.685655461173631e-04, 1.418875397575963e-05, 1.591471960491165e+02, 1.299855751560631e+04, 1.515471440353658e+03, 1.319231109775926e+04
842, -1.500000000000668e-04, 3.000000000004845e-03, 1.681517041388725e-04, 9.203968656453905e-06, 1.473133993852173e+02, 9.738899690812403e+03, 1.352198304271100e+03, 9.965555107578728e+03
843, -1.000000000001176e-04, 3.000000000003318e-03, 1.677843257860885e-04, 4.221399517230884e-06, 1.308349962222526e+02, 6.483328583916157e+03, 1.142828210398754e+03, 6.751177679162728e+03
844, -5.000000000017031e-05, 3.000000000001789e-03, 1.674633631401051e-04, -7.612373522092023e-07, 1.093523303219825e+02, 3.232541695637778e+03, 8.871197291240683e+02, 3.591968466847436e+03
845, -2.564273663199779e-16, 3.000000000000262e-03, 1.671887527128829e-04, -5.746233480842363e-06, 8.249680048516939e+01, -1.274983610610161e+01, 5.848305390604525e+02, 1.173532683589557e+03
846, 4.999999999976296e-05, 2.999999999998735e-03, 1.669604152627159e-04, -1.073588807369019e-05, 4.989067646254239e+01, -3.251821234547022e+03, 2.357176584478270e+02, 3.335199064721466e+03
847, 9.999999999981362e-05, 2.999999999997206e-03, 1.667782556085752e-04, -1.573250806646585e-05, 1.114703763507532e+01, -6.483933949255520e+03, -1.604623873059836e+02, 6.503004669937386e+03
848, 1.499999999998930e-04, 2.999999999995678e-03, 1.666421624432055e-04, -2.073840817827207e-05, -3.413029936095768e+01, -9.708335526490206e+03, -6.039533993796858e+02, 9.749322315479369e+03
849, 1.999999999999481e-04, 2.999999999994151e-03, 1.665520081449701e-04, -2.575591096217350e-05, -8.634683339541073e+01, -1.292425947346759e+04, -1.094999304446190e+03, 1.302336726277330e+04
850, -2.000000000000263e-04, 2.900000000006043e-03, 1.585949196101022e-04, 1.422004897599251e-05, 1.558353883906893e+02, 1.338068321681172e+04, 1.525906047705732e+03, 1.357240425092740e+04
851, -1.500000000000711e-04, 2.900000000004594e-03, 1.581877195661470e-04, 9.349865823489357e-06, 1.435436879676340e+02, 1.002652624071496e+04, 1.363323456558536e+03, 1.025221671282455e+04
852, -1.000000000001252e-04, 2.900000000003146e-03, 1.578283013569945e-04, 4.481975321524036e-06, 1.269008148496700e+02, 6.676190106671505e+03, 1.153953141091832e+03, 6.944034967892585e+03
853, -5.000000000018052e-05, 2.900000000001698e-03, 1.575166273870322e-04, -3.859399333799853e-07, 1.055482714856930e+02, 3.330371956677936e+03, 8.975360332447418e+02, 3.690768419241135e+03
854, -2.692480570096190e-16, 2.900000000000249e-03, 1.572526445401408e-04, -5.256205405529038e-06, 7.911789795231391e+01, -1.021744414746411e+01, 5.938120658810122e+02, 1.190979379205025e+03
855, 4.999999999975274e-05, 2.899999999998802e-03, 1.570362839905877e-04, -1.013115468137911e-05, 4.723216615391277e+01, -3.344853282634754e+03, 2.425203214222595e+02, 3.426588407891270e+03
856, 9.999999999980604e-05, 2.899999999997354e-03, 1.568674610126582e-04, -1.501312952962332e-05, 9.504115384975989e+00, -6.672796539614987e+03, -1.566008144868115e+02, 6.689636559948878e+03
857, 1.499999999998886e-04, 2.899999999995905e-03, 1.567460747887564e-04, -1.990447995964403e-05, -3.446272955239328e+01, -9.993293841132412e+03, -6.038134890949259e+02, 1.003178349185358e+04
858, 1.999999999999462e-04, 2.899999999994458e-03, 1.566720082160119e-04, -2.480756427797024e-05, -8.507455857160357e+01, -1.330557739998224e+04, -1.099380220351976e+03, 1.340209844969628e+04
859, -2.000000000000283e-04, 2.800000000005697e-03, 1.488558975220355e-04, 1.421512063342012e-05, 1.521102742005337e+02, 1.376871124192589e+04, 1.534223988313435e+03, 1.395805125723232e+04
860, -1.500000000000755e-04, 2.800000000004316e-03, 1.484553207580703e-04, 9.462837057009041e-06, 1.393643622489599e+02, 1.031866605037733e+04, 1.372862220713778e+03, 1.054311081067565e+04
861, -1.000000000001328e-04, 2.800000000002934e-03, 1.481038621751822e-04, 4.712930121904308e-06, 1.225829793339358e+02, 6.872155831613096e+03, 1.164022635109201e+03, 7.139784903511458e+03
862, -5.000000000019071e-05, 2.800000000001552e-03, 1.478014951670435e-04, -3.695104409271928e-08, 1.014080970944585e+02, 3.429876378919605e+03, 9.074280602197385e+02, 3.791095335257698e+03
863, -2.820416426449479e-16, 2.800000000000171e-03, 1.475481776621866e-04, -4.789165826613814e-06, 7.547231010934911e+01, -7.462143885073033e+00, 6.028001913694864e+02, 1.208449587909943e+03
864, 4.999999999974258e-05, 2.799999999998790e-03, 1.473438519306902e-04, -9.546082191795804e-06, 4.439860947421744e+01, -3.439135106155472e+03, 2.498596477993866e+02, 3.519194016010275e+03
865, 9.999999999979847e-05, 2.799999999997408e-03, 1.471884443888039e-04, -1.431007675248581e-05, 7.800266921213961e+00, -6.864403266194461e+03, -1.516738764532153e+02, 6.878895351708800e+03
866, 1.499999999998843e-04, 2.799999999996027e-03, 1.470818654017801e-04, -1.908353483314855e-05, -3.471928373508763e+01, -1.028251263209607e+04, -6.020814520310164e+02, 1.031829815474581e+04
867, 1.999999999999443e-04, 2.799999999994645e-03, 1.470240090848241e-04, -2.386885053306329e-05, -8.356645467914404e+01, -1.369269421481152e+04, -1.101644765456831e+03, 1.378632812421928e+04
868, -2.000000000000301e-04, 2.700000000005420e-03, 1.393552534061910e-04, 1.417367709160184e-05, 1.479726977175249e+02, 1.416264398789328e+04, 1.540294225220054e+03, 1.434925212590056e+04
869, -1.500000000000799e-04, 2.700000000004097e-03, 1.389612622487343e-04, 9.542638214886305e-06, 1.347741739503590e+02, 1.061532426214287e+04, 1.380715296794846e+03, 1.083823920543947e+04
870, -1.000000000001404e-04, 2.700000000002773e-03, 1.386177436881915e-04, 4.914067930604909e-06, 1.178776103753771e+02, 7.071232263827502e+03, 1.172969273982396e+03, 7.338430936345417e+03
871, -5.000000000020087e-05, 2.700000000001450e-03, 1.383246827936533e-04, 2.855819284718677e-07, 9.692619341650925e+01, 3.531062392105812e+03, 9.167606310944201e+02, 3.892954103254593e+03
872, -2.948962146524792e-16, 2.700000000000125e-03, 1.380820492327125e-04, -4.345213078188313e-06, 7.155365929597224e+01, -4.475998131013398e+00, 6.117922944832583e+02, 1.225944433962985e+03
873, 4.999999999973239e-05, 2.699999999998801e-03, 1.378897970731878e-04, -8.980719427425597e-06, 4.138386538492466e+01, -3.534658682993868e+03, 2.577658603844048e+02, 3.613011661057066e+03
874, 9.999999999979085e-05, 2.699999999997478e-03, 1.377478645826485e-04, -1.362334858179507e-05, 6.030676069656352e+00, -7.058746404113806e+03, -1.456182434299307e+02, 7.070777459654918e+03
875, 1.499999999998800e-04, 2.699999999996155e-03, 1.376561740261036e-04, -1.827552119994085e-05, -3.490212953976561e+01, -1.057598469431501e+04, -5.986606019350502e+02, 1.060886420417594e+04
876, 1.999999999999424e-04, 2.699999999994831e-03, 1.376146314621570e-04, -2.293966720719883e-05, -8.182101034829509e+01, -1.408560377162716e+04, -1.101662631946898e+03, 1.417605635723856e+04
877, -2.000000000000321e-04, 2.600000000005380e-03, 1.300998640464056e-04, 1.409546556529843e-05, 1.434296396003911e+02, 1.456248568540887e+04, 1.543980045353230e+03, 1.474600538362718e+04
878, -1.500000000000841e-04, 2.600000000004088e-03, 1.297124006913386e-04, 9.589064150031986e-06, 1.297750104309978e+02, 1.091650647599397e+04, 1.386778674923212e+03, 1.113760279786694e+04
879, -1.000000000001480e-04, 2.600000000002797e-03, 1.293767823374861e-04, 5.085231694577650e-06, 1.127824806451283e+02, 7.273425923431808e+03, 1.180722408844452e+03, 7.539975871427816e+03
880, -5.000000000021105e-05, 2.600000000001504e-03, 1.290930064399187e-04, 5.815504896457285e-07, 9.209744551003951e+01, 3.633937271272845e+03, 9.254966829359970e+02, 3.996349057810346e+03
881, -3.077169053421203e-16, 2.600000000000212e-03, 1.288610551227947e-04, -3.924406626365848e-06, 6.735494636157659e+01, -1.251366935989381e+00, 6.207851232059395e+02, 1.243464315129122e+03
882, 4.999999999972220e-05, 2.599999999998920e-03, 1.286808949758697e-04, -8.435076350261111e-06, 3.817989386318891e+01, -3.631416562025798e+03, 2.662697569457029e+02, 3.708036742391951e+03
883, 9.999999999978321e-05, 2.599999999997628e-03, 1.285524768488569e-04, -1.295290499451250e-05, 4.186939266489389e+00, -7.255819412093916e+03, -1.383688174557643e+02, 7.265278793024384e+03
884, 1.499999999998756e-04, 2.599999999996335e-03, 1.284757356440078e-04, -1.748034856579488e-05, -3.501961981391105e+01, -1.087370536199097e+04, -5.934512599425893e+02, 1.090347862883136e+04
885, 1.999999999999405e-04, 2.599999999995043e-03, 1.284505901072430e-04, -2.201987284116577e-05, -7.984592756867460e+01, -1.448430401865311e+04, -1.099299357891156e+03, 1.457128165985571e+04
886, -2.000000000000340e-04, 2.500000000005436e-03, 1.210967098945133e-04, 1.398027457844893e-05, 1.384749592219268e+02, 1.496822788154240e+04, 1.545141098062035e+03, 1.514831395861447e+04
887, -1.500000000000885e-04, 2.500000000004174e-03, 1.207156951457201e-04, 9.601950973190076e-06, 1.243590829983116e+02, 1.122220887739503e+04, 1.390945782039998e+03, 1.144120582514320e+04
888, -1.000000000001556e-04, 2.500000000002911e-03, 1.203879157403613e-04, 5.226305575135249e-06, 1.072893765222625e+02, 7.478737559385965e+03, 1.187209547014529e+03, 7.744424726649124e+03
889, -5.000000000022121e-05, 2.500000000001650e-03, 1.201133822431546e-04, 8.508873248661505e-07, 8.691300984921122e+01, 3.738505052540485e+03, 9.335981271193424e+02, 4.101285932252127e+03
890, -3.205375960317614e-16, 2.500000000000388e-03, 1.198920899681769e-04, -3.526764780267930e-06, 6.286686666524861e+01, 2.218067333042654e+00, 6.297752913198115e+02, 1.261009891748773e+03
891, 4.999999999971200e-05, 2.499999999999127e-03, 1.197240187691098e-04, -7.909121776330075e-06, 3.477733659451383e+01, -3.729401008505191e+03, 2.754029351607874e+02, 3.804264149674450e+03
892, 9.999999999977564e-05, 2.499999999997865e-03, 1.196091328281813e-04, -1.229866482022166e-05, 2.260243531874039e+00, -7.455613898111527e+03, -1.298587488047655e+02, 7.462395050595877e+03
893, 1.499999999998713e-04, 2.499999999996604e-03, 1.195473804433065e-04, -1.669788527531419e-05, -3.507926870744313e+01, -1.117566625195501e+04, -5.863511047203276e+02, 1.120213858168753e+04
894, 1.999999999999386e-04, 2.499999999995341e-03, 1.195386938134159e-04, -2.110928479521890e-05, -7.764672879581258e+01, -1.488878737160587e+04, -1.094416809897160e+03, 1.497200319784369e+04
895, -2.000000000000358e-04, 2.400000000005491e-03, 1.123528747385400e-04, 1.382793638678270e-05, 1.331149632602192e+02, 1.537986759455842e+04, 1.543633727665076e+03, 1.555617839126112e+04
896, -1.500000000000929e-04, 2.400000000004260e-03, 1.119782068745450e-04, 9.581178456182498e-06, 1.185281288227882e+02, 1.153243211221609e+04, 1.393107690572322e+03, 1.174905103794552e+04
897, -1.000000000001632e-04, 2.400000000003029e-03, 1.116581825518461e-04, 5.337217338658812e-06, 1.013956681859875e+02, 7.687170398349881e+03, 1.192356578614573e+03, 7.951781882009523e+03
898, -5.000000000023145e-05, 2.400000000001797e-03, 1.113928261933945e-04, 1.093568681685770e-06, 8.136711289277059e+01, 3.844771351579188e+03, 9.410260738346772e+02, 4.207770401330106e+03
899, -3.333650629849805e-16, 2.400000000000566e-03, 1.111821470582889e-04, -3.152262317788267e-06, 5.808142223162326e+01, 5.939856428550229e+00, 6.387595090006918e+02, 1.278582646620708e+03
900, 4.999999999970184e-05, 2.399999999999334e-03, 1.110261390275918e-04, -7.402781008250003e-06, 3.116683030418812e+01, -3.828603073443333e+03, 2.851980759142653e+02, 3.901688798443047e+03
901, 9.999999999976805e-05, 2.399999999998102e-03, 1.109247803880902e-04, -1.166050337854059e-05, 2.407209597852216e-01, -7.658120102475241e+03, -1.200190306575603e+02, 7.662121688723321e+03
902, 1.499999999998670e-04, 2.399999999996872e-03, 1.108780336141416e-04, -1.592795615126353e-05, -3.509049308530666e+01, -1.148185737125647e+04, -5.772544495356462e+02, 1.150484084032592e+04
903, 1.999999999999366e-04, 2.399999999995640e-03, 1.108858451475135e-04, -2.020767687421629e-05, -7.523163803652574e+01, -1.529904440524107e+04, -1.086872478988887e+03, 1.537821973809823e+04
904, -2.000000000000378e-04, 2.300000000005451e-03, 1.038755459070017e-04, 1.363832952693692e-05, 1.273566599916883e+02, 1.579739785460161e+04, 1.539309773684278e+03, 1.596959891037378e+04
905, -1.500000000000972e-04, 2.300000000004251e-03, 1.035070994500060e-04, 9.526672546563276e-06, 1.122841895138997e+02, 1.184717363642616e+04, 1.393151685618981e+03, 1.206114077555787e+04
906, -1.000000000001708e-04, 2.300000000003051e-03, 1.031947225058909e-04, 5.417940846932221e-06, 9.509919071672903e+01, 7.898725781253275e+03, 1.196086827520763e+03, 8.162051381877217e+03
907, -5.000000000024163e-05, 2.300000000001851e-03, 1.029384541232167e-04, 1.309616837983994e-06, 7.545396920465760e+01, 3.952740711559560e+03, 9.477401538504329e+02, 4.315807928919318e+03
908, -3.461857536746216e-16, 2.300000000000652e-03, 1.027383182819216e-04, -2.800828036565744e-06, 5.298989456796880e+01, 9.921098173573455e+00, 6.477340558382659e+02, 1.296183840970725e+03
909, 4.999999999969163e-05, 2.299999999999453e-03, 1.025943236745347e-04, -6.915933404187252e-06, 2.733737185693576e+01, -3.929013820296264e+03, 2.956884570942117e+02, 4.000305164645201e+03
910, 9.999999999976044e-05, 2.299999999998253e-03, 1.025064634851230e-04, -1.103825006618288e-05, -1.884303405921855e+00, -7.863328035819813e+03, -1.087790292381875e+02, 7.864453513545468e+03
911, 1.499999999998626e-04, 2.299999999997052e-03, 1.024747151660367e-04, -1.517034009935371e-05, -3.506708709268764e+01, -1.179226856153171e+04, -5.660529503708265e+02, 1.181158119309371e+04
912, 1.999999999999347e-04, 2.299999999995853e-03, 1.024990402124516e-04, -1.931477695671483e-05, -7.261433079003814e+01, -1.571506520955639e+04, -1.076519882542210e+03, 1.578992874349511e+04
913, -2.000000000000396e-04, 2.200000000005174e-03, 9.567201436675503e-05, 1.341138133559908e-05, 1.212066250760054e+02, 1.622080693425252e+04, 1.532016831254332e+03, 1.638857627740198e+04
914, -1.500000000001016e-04, 2.200000000004032e-03, 9.530963880982488e-05, 9.438407908331500e-06, 1.056292815984305e+02, 1.216642739936476e+04, 1.390962023215775e+03, 1.237747763632114e+04
915, -1.000000000001784e-04, 2.200000000002889e-03, 9.500477643033260e-05, 5.468498591769495e-06, 8.839800378560858e+01, 8.113402891935659e+03, 1.198321341427755e+03, 8.375237286436548e+03
916, -5.000000000025179e-05, 2.200000000001748e-03, 9.475748168729979e-05, 1.499102627651472e-06, 6.916805195783263e+01, 4.062416707309912e+03, 9.536986369255912e+02, 4.425403844144183e+03
917, -3.590132206278407e-16, 2.200000000000606e-03, 9.456779407634493e-05, -2.472342239945302e-06, 4.758369811678176e+01, 1.416898021576162e+01, 6.566947954017036e+02, 1.313814583799078e+03
918, 4.999999999968146e-05, 2.199999999999464e-03, 9.443573790610369e-05, -6.448409876617548e-06, 2.327796096065231e+01, -4.030623190797463e+03, 3.069079044617171e+02, 4.100107851692454e+03
919, 9.999999999975283e-05, 2.199999999998322e-03, 9.436132207216303e-05, -1.043168586937575e-05, -4.127534099758122e+00, -8.071225507986446e+03, -9.606660327272971e+01, 8.069385657492407e+03
920, 1.499999999998582e-04, 2.199999999997180e-03, 9.434453982867753e-05, -1.442476763710926e-05, -3.502269390458605e+01, -1.210688624439346e+04, -5.526357962258064e+02, 1.212235599521407e+04
921, 1.999999999999328e-04, 2.199999999996038e-03, 9.438536855788510e-05, -1.843026453972033e-05, -6.980897605177142e+01, -1.613683592073158e+04, -1.063209091239920e+03, 1.620712834304238e+04
922, -2.000000000000416e-04, 2.100000000004828e-03, 8.774967466188405e-05, 1.314707062141591e-05, 1.146787417530763e+02, 1.665008370606912e+04, 1.521598444594796e+03, 1.681310990389050e+04
923, -1.500000000001059e-04, 2.100000000003754e-03, 8.739319320387621e-05, 9.316410557108350e-06, 9.857086651078043e+01, 1.249018797386242e+04, 1.386419488251006e+03, 1.269806325881308e+04
924, -1.000000000001860e-04, 2.100000000002678e-03, 8.709568618377491e-05, 5.488964317169090e-06, 8.129360413367885e+01, 8.331201190232214e+03, 1.198978756817985e+03, 8.591343050790681e+03
925, -5.000000000026199e-05, 2.100000000001603e-03, 8.685722427806980e-05, 1.662148048683999e-06, 6.250590414042085e+01, 4.173803344434727e+03, 9.588584103403176e+02, 4.536563065459572e+03
926, -3.718339113174818e-16, 2.100000000000528e-03, 8.667786331528478e-05, -2.166634140665085e-06, 4.185534913171500e+01, 1.869156677060255e+01, 6.656372925941143e+02, 1.331476091404335e+03
927, 4.999999999967128e-05, 2.099999999999452e-03, 8.655764404762332e-05, -5.999990305591861e-06, 1.897802067524299e+01, -4.133419604659803e+03, 3.188910737718183e+02, 4.201091775552338e+03
928, 9.999999999974523e-05, 2.099999999998377e-03, 8.649659191999575e-05, -9.840540784010853e-06, -6.501661917656975e+00, -8.281797989312749e+03, -8.180759356892474e+01, 8.276913629829713e+03
929, 1.499999999998539e-04, 2.099999999997302e-03, 8.649471683661958e-05, -1.369091831666317e-05, -3.497107993621466e+01, -1.242569351043232e+04, -5.368889226459291e+02, 1.243716210438053e+04
930, 1.999999999999309e-04, 2.099999999996226e-03, 8.655201292545905e-05, -1.755376816544981e-05, -6.682963361427960e+01, -1.656433802434468e+04, -1.046785810077518e+03, 1.662981735410640e+04
931, -2.000000000000435e-04, 2.000000000004496e-03, 8.011602505230888e-05, 1.284543035913500e-05, 1.077857540051230e+02, 1.708521102571794e+04, 1.507893599333311e+03, 1.724319985629798e+04
932, -1.500000000001103e-04, 2.000000000003499e-03, 7.976523324780623e-05, 9.160760554235334e-06, 9.111534269782919e+01, 1.281844527010426e+04, 1.379401457863031e+03, 1.302289985405993e+04
933, -1.000000000001936e-04, 2.000000000002501e-03, 7.947489464153442e-05, 5.479465697172727e-06, 7.378676471945937e+01, 8.552117123099672e+03, 1.197975264611683e+03, 8.810372557634397e+03
934, -5.000000000027220e-05, 2.000000000001505e-03, 7.924509695351345e-05, 1.798928928309656e-06, 5.546311781231498e+01, 4.286902776723385e+03, 9.631749603689499e+02, 4.649290871104145e+03
935, -3.846512138753339e-16, 2.000000000000507e-03, 7.907591318243754e-05, -1.883479209120310e-06, 3.579582354513514e+01, 2.349594908240692e+01, 6.745567761232408e+02, 1.349169620087452e+03
936, 4.999999999966107e-05, 1.999999999999510e-03, 7.896740137235189e-05, -5.570400900587862e-06, 1.442451234960390e+01, -4.237391831337782e+03, 3.316733903259592e+02, 4.303251232713288e+03
937, 9.999999999973761e-05, 1.999999999998513e-03, 7.891960437671734e-05, -9.264491191131881e-06, -9.023130700230467e+00, -8.495030958721749e+03, -6.592592771677852e+01, 8.487032094261443e+03
938, 1.499999999998495e-04, 1.999999999997515e-03, 7.893254961985853e-05, -1.296841811491706e-05, -3.493153414190920e+01, -1.274867349385621e+04, -5.186951607044907e+02, 1.275599519038610e+04
939, 1.999999999999290e-04, 1.999999999996517e-03, 7.900624885583914e-05, -1.668486282280918e-05, -6.369738745576637e+01, -1.699755287527347e+04, -1.027091409115704e+03, 1.705799310390912e+04
940, -2.000000000000454e-04, 1.900000000004165e-03, 7.277866742834317e-05, 1.250655047359429e-05, 1.005459104018462e+02, 1.752617072992873e+04, 1.490737084526154e+03, 1.767884579297069e+04
941, -1.500000000001146e-04, 1.900000000003247e-03, 7.243333183442457e-05, 8.971594763981344e-06, 8.327286064511964e+01, 1.315118821711244e+04, 1.369781998440058e+03, 1.335198946437557e+04
942, -1.000000000002012e-04, 1.900000000002328e-03, 7.214994559179790e-05, 5.440187080996085e-06, 6.588052137547083e+01, 8.776146350066039e+03, 1.195224711725440e+03, 9.032329669167932e+03
943, -5.000000000028235e-05, 1.900000000001409e-03, 7.192861431154995e-05, 1.909677652844113e-06, 4.803644459207794e+01, 4.401716910875917e+03, 9.666023725222856e+02, 4.763592571658948e+03
944, -3.974685164331859e-16, 1.900000000000491e-03, 7.176942902111088e-05, -1.622596459245974e-06, 2.939634523317568e+01, 2.858967738905471e+01, 6.834480519663297e+02, 1.366896341958414e+03
945, 4.999999999965091e-05, 1.899999999999572e-03, 7.167246592631943e-05, -5.159311503575626e-06, 9.603894398385592e+00, -4.342527331067314e+03, 3.452908535245809e+02, 4.406580227090449e+03
946, 9.999999999973007e-05, 1.899999999998654e-03, 7.163778617068262e-05, -8.703157179076120e-06, -1.170946258159529e+01, -8.710907587840220e+03, -4.834394488111315e+01, 8.699735431065123e+03
947, 1.499999999998452e-04, 1.899999999997735e-03, 7.166543559180815e-05, -1.225683677550938e-05, -3.492469195800845e+01, -1.307580578383046e+04, -4.979347507075337e+02, 1.307885070318509e+04
948, 1.999999999999271e-04, 1.899999999996817e-03, 7.175544447486218e-05, -1.582306731296789e-05, -6.043532409687782e+01, -1.743645751879525e+04, -1.003963481620292e+03, 1.749165280927903e+04
949, -2.000000000000473e-04, 1.800000000003828e-03, 6.574530730473042e-05, 1.213058068499740e-05, 9.297742718726158e+01, 1.797293845090465e+04, 1.469959530822985e+03, 1.812004774548572e+04
950, -1.500000000001189e-04, 1.800000000002982e-03, 6.540516407489858e-05, 8.749109694132426e-06, 7.505435402476019e+01, 1.348840171072098e+04, 1.357431996152214e+03, 1.368533426000625e+04
951, -1.000000000002088e-04, 1.800000000002135e-03, 6.512848363339783e-05, 5.371372317410157e-06, 5.757864436174032e+01, 9.003282030930279e+03, 1.190638654326054e+03, 9.257218302555322e+03
952, -5.000000000029254e-05, 1.800000000001289e-03, 6.491539034926077e-05, 1.994685977898019e-06, 4.022299117080934e+01, 4.518246394951029e+03, 9.690934019821382e+02, 4.879473505601260e+03
953, -4.102858189910380e-16, 1.800000000000442e-03, 6.476599415765089e-05, -1.383645652986269e-06, 2.264799785976084e+01, 3.398018937059032e+01, 6.923055896194448e+02, 1.384657551973681e+03
954, 4.999999999964072e-05, 1.799999999999596e-03, 6.468039031750698e-05, -4.766332807858601e-06, 4.501960373229622e+00, -4.448812559046119e+03, 3.597801717987721e+02, 4.511072743477919e+03
955, 9.999999999972246e-05, 1.799999999998750e-03, 6.465865916634463e-05, -8.156099775585896e-06, -1.457931809805336e+01, -8.929408895104261e+03, -2.898216961575372e+01, 8.915018017462849e+03
956, 1.499999999998409e-04, 1.799999999997903e-03, 6.470086587206993e-05, -1.155568505299021e-05, -3.497270739319947e+01, -1.340706662782500e+04, -4.744848929873645e+02, 1.340572413081599e+04
957, 1.999999999999252e-04, 1.799999999997057e-03, 6.480706018183645e-05, -1.496784149560224e-05, -5.706801914379571e+01, -1.788102408054249e+04, -9.772354774349261e+02, 1.793079380262070e+04
958, -2.000000000000492e-04, 1.700000000003484e-03, 5.902375366385471e-05, 1.171773346281485e-05, 8.510566998057607e+01, 1.842548876243247e+04, 1.445387479676320e+03, 1.856680456738626e+04
959, -1.500000000001233e-04, 1.700000000002704e-03, 5.868850713679521e-05, 8.493564423363761e-06, 6.647541833308537e+01, 1.383006932233951e+04, 1.342218974747502e+03, 1.402293565053665e+04
960, -1.000000000002164e-04, 1.700000000001925e-03, 5.841825399663670e-05, 5.273327664828832e-06, 4.888781867833336e+01, 9.233516231340216e+03, 1.184126268620698e+03, 9.485041863841521e+03
961, -5.000000000030273e-05, 1.700000000001145e-03, 5.821313825907257e-05, 2.054307920074591e-06, 3.202132422339355e+01, 4.636491250758456e+03, 9.705993966426607e+02, 4.996938668766928e+03
962, -4.231031215488901e-16, 1.700000000000365e-03, 5.807328966758266e-05, -1.166224426447369e-06, 1.554196925681049e+01, 3.967484515220826e+01, 7.011234501320828e+02, 1.402454550065507e+03
963, 4.999999999963053e-05, 1.699999999999585e-03, 5.799882344710846e-05, -4.391013502437454e-06, -8.967587996969542e-01, -4.556233489230934e+03, 3.751786707103677e+02, 4.616722741018779e+03
964, 9.999999999971485e-05, 1.699999999998805e-03, 5.798984005492900e-05, -7.622818111227003e-06, -1.765412784048794e+01, -9.150514944362156e+03, -7.759440820763700e+00, 9.132874001629731e+03
965, 1.499999999998365e-04, 1.699999999998025e-03, 5.804642492852787e-05, -1.086441189553601e-05, -3.510237933893609e+01, -1.374243110019470e+04, -4.482200161262817e+02, 1.373661040406338e+04
966, 1.999999999999232e-04, 1.699999999997246e-03, 5.816864823003156e-05, -1.411858350125594e-05, -5.362684610413612e+01, -1.833122350893201e+04, -9.467367039470728e+02, 1.837541241211796e+04
967, -2.000000000000511e-04, 1.600000000003144e-03, 5.262191890684384e-05, 1.126828704195884e-05, 7.695840653421988e+01, 1.888379136072281e+04, 1.416842724251236e+03, 1.901911509476213e+04
968, -1.500000000001277e-04, 1.600000000002436e-03, 5.229124013605495e-05, 8.205283604513612e-06, 5.755363000258399e+01, 1.417617099900107e+04, 1.324006986605717e+03, 1.436479496597528e+04
969, -1.000000000002240e-04, 1.600000000001727e-03, 5.202710238647052e-05, 5.146424776092487e-06, 3.981633439739812e+01, 9.466838753533095e+03, 1.175594275934407e+03, 9.715803584744084e+03
970, -5.000000000031292e-05, 1.600000000001018e-03, 5.182967023031185e-05, 2.088962725191192e-06, 2.343108782508671e+01, 4.756450460145986e+03, 9.710702799201706e+02, 5.115992800321545e+03
971, -4.359339766338982e-16, 1.600000000000309e-03, 5.169909414133675e-05, -9.698653387965617e-07, 8.069971037615915e+00, 4.568118277897656e+01, 7.098952922044772e+02, 1.420288670244529e+03
972, 4.999999999962034e-05, 1.599999999999600e-03, 5.163551024486435e-05, -4.032837339083639e-06, -6.607673826619020e+00, -4.664774580943900e+03, 3.915243060817217e+02, 4.723524538263104e+03
973, 9.999999999970728e-05, 1.599999999998891e-03, 5.163904006565412e-05, -7.102746506275748e-06, -2.095548967915283e+01, -9.374202676955891e+03, 1.540709300226933e+01, 9.353297945663839e+03
974, 1.499999999998322e-04, 1.599999999998182e-03, 5.170979027303433e-05, -1.018240155457207e-05, -3.534036210705358e+01, -1.408186903355634e+04, -4.190117281471479e+02, 1.407150493128387e+04
975, 1.999999999999214e-04, 1.599999999997473e-03, 5.184785242279492e-05, -1.327462685936259e-05, -5.014269683711609e+01, -1.878701934537645e+04, -9.122926017171699e+02, 1.882550551000345e+04
976, -2.000000000000531e-04, 1.500000000002802e-03, 4.654781869722128e-05, 1.078258850462443e-05, 6.856648098532946e+01, 1.934781122643446e+04, 1.384142986420868e+03, 1.947697833808828e+04
977, -1.500000000001320e-04, 1.500000000002160e-03, 4.622134394727460e-05, 7.884660528554110e-06, 4.830934495708175e+01, 1.452668356833041e+04, 1.302656823020780e+03, 1.471091361358266e+04
978, -1.000000000002316e-04, 1.500000000001518e-03, 4.596297475555910e-05, 4.991103750068994e-06, 3.037429788323357e+01, 9.703237268465866e+03, 1.164947136980234e+03, 9.949506790565170e+03
979, -5.000000000032311e-05, 1.500000000000877e-03, 4.577289718241896e-05, 2.099137906573685e-06, 1.445270484543562e+01, 4.878121747867224e+03, 9.704547239265540e+02, 5.236640721379875e+03
980, -4.487512791917503e-16, 1.500000000000236e-03, 4.565128337546483e-05, -7.940328473480315e-07, 2.233228916497865e-01, 5.200622040558096e+01, 7.186145362091153e+02, 1.438161630373688e+03
981, 4.999999999961016e-05, 1.499999999999595e-03, 4.559829131552032e-05, -3.691220122839063e-06, -1.264793428266125e+01, -4.774420159318487e+03, 4.088558047615004e+02, 4.831472549800043e+03
982, 9.999999999969963e-05, 1.499999999998952e-03, 4.561406456173196e-05, -6.595251480195158e-06, -2.450831846059396e+01, -9.600448284110735e+03, 4.060209547616915e+01, 9.576284266163148e+03
983, 1.499999999998278e-04, 1.499999999998311e-03, 4.569873199658819e-05, -9.508970615887632e-06, -3.571861174376295e+01, -1.442534904549504e+04, -3.867286962302903e+02, 1.441040250506185e+04
984, 1.999999999999195e-04, 1.499999999997670e-03, 4.585240756811947e-05, -1.243523755480769e-05, -4.665348840452407e+01, -1.924837307353388e+04, -8.737243962977846e+02, 1.928106875431660e+04
985, -2.000000000000549e-04, 1.400000000002461e-03, 4.080957177304656e-05, 1.026105694147531e-05, 5.996599411365696e+01, 1.981750992419944e+04, 1.347101580215613e+03, 1.994039299559934e+04
986, -1.500000000001364e-04, 1.400000000001890e-03, 4.048690098444878e-05, 7.532160267547602e-06, 3.876639671592284e+01, 1.488158107669795e+04, 1.278025823583713e+03, 1.506129302707033e+04
987, -1.000000000002392e-04, 1.400000000001320e-03, 4.023391704890470e-05, 4.807876253337457e-06, 2.057410581335694e+01, 9.942697743878965e+03, 1.152086908977863e+03, 1.018615503869899e+04
988, -5.000000000033329e-05, 1.400000000000748e-03, 4.005082847061609e-05, 2.085392350908751e-06, 5.087891306093979e+00, 5.001502239388181e+03, 9.687000997807528e+02, 5.358887559091113e+03
989, -4.615719698813914e-16, 1.400000000000178e-03, 3.993783003988303e-05, -6.381202149757338e-07, -8.006222044178003e+00, 5.865747938806157e+01, 7.272743748010489e+02, 1.456075586656707e+03
990, 4.999999999959998e-05, 1.399999999999606e-03, 3.989510257018824e-05, -3.365506634301234e-06, -1.903509832668578e+01, -4.885152954289330e+03, 4.272126662457633e+02, 4.940561267398851e+03
991, 9.999999999969204e-05, 1.399999999999035e-03, 3.992281264105908e-05, -6.099628695572883e-06, -2.833882211589776e+01, -9.829225189372914e+03, 6.791194629619821e+01, 9.801827468063460e+03
992, 1.499999999998235e-04, 1.399999999998463e-03, 4.002111234526525e-05, -8.843364975547282e-06, -3.627114722452211e+01, -1.477283546224545e+04, -3.512369242418137e+02, 1.475329784551751e+04
993, 1.999999999999176e-04, 1.399999999997893e-03, 4.019013903945016e-05, -1.159961104449650e-05, -4.319990794932482e+01, -1.971524005184260e+04, -8.308494611765179e+02, 1.974209732352411e+04
994, -2.000000000000568e-04, 1.300000000002126e-03, 3.541539977204541e-05, 9.704186694765696e-06, 5.119588271788007e+01, 2.029284288381972e+04, 1.305527292714333e+03, 2.040935764215286e+04
995, -1.500000000001407e-04, 1.300000000001629e-03, 3.509609498257721e-05, 7.148322885940163e-06, 2.894997024173836e+01, 1.524083234248981e+04, 1.249967634604477e+03, 1.541593466700435e+04
996, -1.000000000002468e-04, 1.300000000001133e-03, 3.484807494074020e-05, 4.597328705358961e-06, 1.042831942386829e+01, 1.018520231149304e+04, 1.136912892362478e+03, 1.042575222652866e+04
997, -5.000000000034346e-05, 1.300000000000637e-03, 3.467157157464685e-05, 2.048359481010813e-06, -4.661988141733673e+00, 5.126587475601445e+03, 9.657521240846863e+02, 5.482739253316811e+03
998, -4.743892724392434e-16, 1.300000000000140e-03, 3.456680330976741e-05, -5.014463630856214e-07, -1.662722689101111e+01, 6.564366546014753e+01, 7.358676126596858e+02, 1.474032928117319e+03
999, 4.999999999958981e-05, 1.299999999999644e-03, 3.453397479650722e-05, -3.054967493415966e-06, -2.578715307962716e+01, -4.996952254095368e+03, 4.466353695288898e+02, 5.050783609977136e+03
1000, 9.999999999968445e-05, 1.299999999999148e-03, 3.457327664294523e-05, -5.615099832752724e-06, -3.247463495066154e+01, -1.006050248103354e+04, 9.742529009758778e+01, 1.002992069910904e+04
1001, 1.499999999998191e-04, 1.299999999998652e-03, 3.468488516985513e-05, -8.184756732765431e-06, -3.703541444462871e+01, -1.512428855588214e+04, -3.123990240884649e+02, 1.510018476558555e+04
1002, 1.999999999999157e-04, 1.299999999998155e-03, 3.486896217136144e-05, -1.076686918090196e-05, -3.982874653556382e+01, -2.018757200881599e+04, -7.834808757472125e+02, 2.020858549462116e+04
1003, -2.000000000000587e-04, 1.200000000001781e-03, 3.037362696166863e-05, 9.112550699183648e-06, 4.230064328782578e+01, 2.077376003090108e+04, 1.259224734198971e+03, 2.088386927906636e+04
1004, -1.500000000001450e-04, 1.200000000001350e-03, 3.005721072740284e-05, 6.733766766219358e-06, 1.888585120145785e+01, 1.560439671236563e+04, 1.218331925085191e+03, 1.577483690952758e+04
1005, -1.000000000002543e-04, 1.200000000000919e-03, 2.981369357368322e-05, 4.360125565795024e-06, -5.353018126766074e-02, 1.043072286896079e+04, 1.119320212371068e+03, 1.066829917279173e+04
1006, -5.000000000035367e-05, 1.200000000000488e-03, 2.964333182134869e-05, 1.988750479664596e-06, -1.479878935595048e+01, 5.253368145126246e+03, 9.615525633100119e+02, 5.608200796833486e+03
1007, -4.872353741173022e-16, 1.200000000000057e-03, 2.954636852711084e-05, -3.832527215168773e-07, -2.564930355337128e+01, 7.297768814281403e+01, 7.443846166993585e+02, 1.492032544486092e+03
1008, 4.999999999957962e-05, 1.199999999999626e-03, 2.952303320254963e-05, -2.758796058860684e-06, -3.292088148088260e+01, -5.109785399905934e+03, 4.671646796529854e+02, 5.162124048306505e+03
1009, 9.999999999967686e-05, 1.199999999999196e-03, 2.957354155694777e-05, -5.140809492014220e-06, -3.694231397497992e+01, -1.029423548939826e+04, 1.292341843589804e+02, 1.026054916582016e+04
1010, 1.499999999998148e-04, 1.199999999998765e-03, 2.969809521811508e-05, -7.532241061494646e-06, -3.805191301263221e+01, -1.547966034978894e+04, -2.700720707004261e+02, 1.545105261165759e+04
1011, 1.999999999999137e-04, 1.199999999998334e-03, 2.989688148997149e-05, -9.936057067384895e-06, -3.659580665059957e+01, -2.066532018063236e+04, -7.314256550201167e+02, 2.068052715123566e+04
1012, -2.000000000000607e-04, 1.100000000001707e-03, 2.569267989878094e-05, 8.486803961384734e-06, 3.333567303086988e+01, 2.126020846974895e+04, 1.207996621757059e+03, 2.136392173924900e+04
1013, -1.500000000001494e-04, 1.100000000001301e-03, 2.537863378740072e-05, 6.289192205702689e-06, 8.596811305818846e+00, 1.597220909681142e+04, 1.182964898713547e+03, 1.613798441591449e+04
1014, -1.000000000002619e-04, 1.100000000000895e-03, 2.513911743266808e-05, 4.097012926722443e-06, -1.087209425641254e+01, 1.067920073099007e+04, 1.099195711487491e+03, 1.091377944882904e+04
1015, -5.000000000036384e-05, 1.100000000000489e-03, 2.497441237321388e-05, 1.907357669780275e-06, -2.533475398284895e+01, 5.381817541371523e+03, 9.560312213374027e+02, 5.735266230075427e+03
1016, -5.000628410705213e-16, 1.100000000000083e-03, 2.488478711971035e-05, -2.827001745119253e-07, -3.508599468450780e+01, 8.068225302234578e+01, 7.528048209937741e+02, 1.510053866993820e+03
1017, 4.999999999956943e-05, 1.099999999999677e-03, 2.487049709033894e-05, -2.476105631874834e-06, -4.044968611691388e+01, -5.223585614405258e+03, 4.888374347093415e+02, 5.274537534363209e+03
1018, 9.999999999966927e-05, 1.099999999999272e-03, 2.493178432766292e-05, -4.675822424483844e-06, -4.176364991608170e+01, -1.053034041461690e+04, 1.634362265574148e+02, 1.049366895559542e+04
1019, 1.499999999998105e-04, 1.099999999998866e-03, 2.506887714865532e-05, -6.884833215239253e-06, -3.936293777261062e+01, -1.583888159624044e+04, -2.241007455567964e+02, 1.580587468050755e+04
1020, 1.999999999999118e-04, 1.099999999998460e-03, 2.528198961811035e-05, -9.106139762258611e-06, -3.357518730813968e+01, -2.114844832113662e+04, -6.744788246535085e+02, 2.115791942033280e+04
1021, -2.000000000000626e-04, 1.000000000002109e-03, 2.138108701849430e-05, 7.827687120551190e-06, 2.437524617436770e+01, 2.175213994104529e+04, 1.151651688735318e+03, 2.184950720461097e+04
1022, -1.500000000001537e-04, 1.000000000001674e-03, 2.106885028944460e-05, 5.815385696893443e-06, -1.893064513525587e+00, 1.634415839882130e+04, 1.143712819151705e+03, 1.650532382271727e+04
1023, -1.000000000002696e-04, 1.000000000001239e-03, 2.083279062199756e-05, 3.808822961068315e-06, -2.204031353115829e+01, 1.093051126308844e+04, 1.076409883291151e+03, 1.116212430435622e+04
1024, -5.000000000037402e-05, 1.000000000000804e-03, 2.067321486336302e-05, 1.805058388541204e-06, -3.629552001110324e+01, 5.511871966694374e+03, 9.490862840159143e+02, 5.863891332431419e+03
1025, -5.128852258260569e-16, 1.000000000000369e-03, 2.059041726827812e-05, -1.988662656512105e-07, -4.496090188447829e+01, 8.879830142481660e+01, 7.610751375087144e+02, 1.528016028779008e+03
1026, 4.999999999955924e-05, 9.999999999999337e-04, 2.058467997844224e-05, -2.205927590131237e-06, -4.839164793936015e+01, -5.338217982160742e+03, 5.116733020753156e+02, 5.387903202401528e+03
1027, 9.999999999966167e-05, 9.999999999994987e-04, 2.065627322186237e-05, -4.219121837674190e-06, -4.696102436616525e+01, -1.076865161169963e+04, 2.001373386495524e+02, 1.072915974658789e+04
1028, 1.499999999998061e-04, 9.999999999990637e-04, 2.080545419779771e-05, -6.241466107859716e-06, -4.102148067760322e+01, -1.620184456058658e+04, -1.743023672909268e+02, 1.616458251490250e+04
1029, 1.999999999999099e-04, 9.999999999986283e-04, 2.103246579310763e-05, -8.275998629313351e-06, -3.087193015283151e+01, -2.163695918878760e+04, -6.124085013776007e+02, 2.164077594075541e+04
1030, -2.000000000000644e-04, 9.000000000025380e-04, 1.744747888505050e-05, 7.136029887950530e-06, 1.551566032512642e+01, 2.224952817410166e+04, 1.090014881035767e+03, 2.234063209101947e+04
1031, -1.500000000001581e-04, 9.000000000020734e-04, 1.713644743299402e-05, 5.313225335984772e-06, -1.252892763870523e+01, 1.672009744584557e+04, 1.100426761433787e+03, 1.687674558627166e+04
1032, -1.000000000002772e-04, 9.000000000016087e-04, 1.690325783086932e-05, 3.496480016766569e-06, -3.351267056846586e+01, 1.118451059816463e+04, 1.050805480105596e+03, 1.141318600067120e+04
1033, -5.000000000038420e-05, 9.000000000011442e-04, 1.674824096259943e-05, 1.682819813513569e-06, -4.767288483266339e+01, 5.643468634080497e+03, 9.405621511588861e+02, 5.993973676040605e+03
1034, -5.256991402521199e-16, 9.000000000006796e-04, 1.667171529078925e-05, -1.307427871090190e-07, -5.531423131275051e+01, 9.739352842945232e+01, 7.690825013935024e+02, 1.545726766179660e+03
1035, 4.999999999954906e-05, 9.000000000002148e-04, 1.667399055262052e-05, -1.947211169174412e-06, -5.682892091316671e+01, -5.453503321081330e+03, 5.356580962503681e+02, 5.501982639535014e+03
1036, 9.999999999965402e-05, 8.999999999997502e-04, 1.675536771095385e-05, -3.769609756608982e-06, -5.263944323086798e+01, -1.100896331788853e+04, 2.394508821131403e+02, 1.096678529680291e+04
1037, 1.499999999998018e-04, 8.999999999992857e-04, 1.691613743870662e-05, -5.600988981579104e-06, -4.312659707492685e+01, -1.656842061203415e+04, -1.204488425822781e+02, 1.652704976623368e+04
1038, 1.999999999999080e-04, 8.999999999988212e-04, 1.715657505477189e-05, -7.444426912798026e-06, -2.862739320530522e+01, -2.213093906514205e+04, -5.449358642627599e+02, 2.212916631118466e+04
1039, -2.000000000000664e-04, 8.000000000027327e-04, 1.390059355983138e-05, 6.412753447835279e-06, 6.695324007484714e+00, 2.275223508438229e+04, 1.022886826879738e+03, 2.283735468116235e+04
1040, -1.500000000001624e-04, 8.000000000022627e-04, 1.359011733945433e-05, 4.783686063316853e-06, -2.305062762937996e+01, 1.710018087978362e+04, 1.052919607228564e+03, 1.725223510312814e+04
1041, -1.000000000002848e-04, 8.000000000017928e-04, 1.335916632852654e-05, 3.161005995358391e-06, -4.485912154923699e+01, 1.144160323652060e+04, 1.022207494930623e+03, 1.166698119284182e+04
1042, -5.000000000039436e-05, 8.000000000013229e-04, 1.320809126550633e-05, 1.541703219153988e-06, -5.913194804225145e+01, 5.777015991928325e+03, 9.303105742157825e+02, 6.125563960584658e+03
1043, -5.385198309417610e-16, 8.000000000008525e-04, 1.313723401739019e-05, -7.723355471808093e-08, -6.618860269846618e+01, 1.065634885689678e+02, 7.767450467039720e+02, 1.563065819264785e+03
1044, 4.999999999953886e-05, 8.000000000003829e-04, 1.314693142624042e-05, -1.698822993228179e-06, -6.618800596717256e+01, -5.569695102224332e+03, 5.607937085800011e+02, 5.616631436446987e+03
1045, 9.999999999964645e-05, 7.999999999999128e-04, 1.323752029256282e-05, -3.326106969336930e-06, -5.931928149188116e+01, -1.125161354751411e+04, 2.814941977838647e+02, 1.120644488099496e+04
1046, 1.499999999997974e-04, 7.999999999994429e-04, 1.340932951806850e-05, -4.962165859128466e-06, -4.601181051167828e+01, -1.693881571959974e+04, -6.231413793103093e+01, 1.689326363134268e+04
1047, 1.999999999999061e-04, 7.999999999989728e-04, 1.366267391753762e-05, -6.610123518197777e-06, -2.683087817876344e+01, -2.263044111541723e+04, -4.717680192036822e+02, 2.262329454373887e+04
1048, -2.000000000000683e-04, 7.000000000024487e-04, 1.074930092319459e-05, 5.658872863250344e-06, -2.903510099213918e+00, 2.325946615451838e+04, 9.497100012605549e+02, 2.333978660483635e+04
1049, -1.500000000001667e-04, 7.000000000020254e-04, 1.043867506582051e-05, 4.227831541513983e-06, -3.280623891268601e+01, 1.748604361298102e+04, 1.000690361255993e+03, 1.763279969062312e+04
1050, -1.000000000002923e-04, 7.000000000016023e-04, 1.020926365434982e-05, 2.803505651454539e-06, -5.418842168686297e+01, 1.170536237611455e+04, 9.905035331677984e+02, 1.192524314062164e+04
1051, -5.000000000040459e-05, 7.000000000011791e-04, 1.006144600882042e-05, 1.382852878647127e-06, -6.905918482063612e+01, 5.915463099078072e+03, 9.187536612474022e+02, 6.260266777598397e+03
1052, -5.513337453678241e-16, 7.000000000007558e-04, 9.995593464804353e-06, -3.715114529836128e-08, -7.754157937553737e+01, 1.164082007646198e+02, 7.847219232600498e+02, 1.581382466260525e+03
1053, 4.999999999952868e-05, 7.000000000003326e-04, 1.001208204462118e-05, -1.459529561993739e-06, -7.806010604973494e+01, -5.689613175289236e+03, 5.875952000239956e+02, 5.733288787882241e+03
1054, 9.999999999963887e-05, 6.999999999999092e-04, 1.011127806727520e-05, -2.887331661333666e-06, -6.900446252624602e+01, -1.150020119718240e+04, 3.263713943863413e+02, 1.144981798696854e+04
1055, 1.499999999997930e-04, 6.999999999994860e-04, 1.029354754005137e-05, -4.323660271490742e-06, -5.046955061050971e+01, -1.731480303042763e+04, -2.707748512523267e-02, 1.726433347990206e+04
1056, 1.999999999999042e-04, 6.999999999990628e-04, 1.055923972407055e-05, -5.771686224667568e-06, -2.471117397743342e+01, -2.313491466541652e+04, -3.929489287317288e+02, 2.312356246035825e+04
1057, -2.000000000000702e-04, 6.000000000020976e-04, 8.002676439517004e-06, 4.875504472134784e-06, -1.743581023587649e+01, 2.376683364964306e+04, 8.682582460161651e+02, 2.384757772326637e+04
1058, -1.500000000001711e-04, 6.000000000017323e-04, 7.691101110916912e-06, 3.646749275115287e-06, -3.990776050184195e+01, 1.788511589027400e+04, 9.417281688303498e+02, 1.802370330028620e+04
1059, -1.000000000003000e-04, 6.000000000013669e-04, 7.462378704268665e-06, 2.425051062565250e-06, -5.627491945982615e+01, 1.198992062459965e+04, 9.560418039554283e+02, 1.219700335366683e+04
1060, -5.000000000041474e-05, 6.000000000010013e-04, 7.316961766929463e-06, 1.207409346621491e-06, -7.296360888278377e+01, 6.069887143536005e+03, 9.089234489462563e+02, 6.406183162435298e+03
1061, -5.641662945187267e-16, 6.000000000006360e-04, 7.255357017588608e-06, -9.210069510658843e-09, -8.899073629590157e+01, 1.269514057923698e+02, 7.973013228079469e+02, 1.609157731900412e+03
1062, 4.999999999951849e-05, 6.000000000002706e-04, 7.278003687515484e-06, -1.227896642443385e-06, -9.643604683196349e+01, -5.824433699930763e+03, 6.189711974675846e+02, 5.860243893139873e+03
1063, 9.999999999963128e-05, 5.999999999999052e-04, 7.385278675465761e-06, -2.451771548684041e-06, -8.689589834967887e+01, -1.176917998658872e+04, 3.743110448445942e+02, 1.170624604864829e+04
1064, 1.499999999997888e-04, 5.999999999995398e-04, 7.577483269899456e-06, -3.683959748339389e-06, -5.869916626368331e+01, -1.770420861924901e+04, 6.448503301892691e+01, 1.764598076427968e+04
1065, 1.999999999999023e-04, 5.999999999991742e-04, 7.854961769099299e-06, -4.927609413816224e-06, -1.817283305259002e+01, -2.364017315790106e+04, -3.102712727874678e+02, 2.363014964823561e+04
1066, -2.000000000000721e-04, 5.000000000017480e-04, 5.670120279931222e-06, 4.063932452672491e-06, -4.390854007757480e+01, 2.426572631099555e+04, 7.711303482209694e+02, 2.435850805464691e+04
1067, -1.500000000001754e-04, 5.000000000014432e-04, 5.356624378906094e-06, 3.041295616610551e-06, -4.115649530457972e+01, 1.831944589054604e+04, 8.701837066391242e+02, 1.844290103819094e+04
1068, -1.000000000003076e-04, 5.000000000011384e-04, 5.127288919494540e-06, 2.026260123666267e-06, -4.606530857444000e+01, 1.232842735160312e+04, 9.206711803752854e+02, 1.251073979772111e+04
1069, -5.000000000042491e-05, 5.000000000008338e-04, 4.982991798645562e-06, 1.016195218069369e-06, -6.665749033758766e+01, 6.264423954199321e+03, 9.119482004078541e+02, 6.588565119832090e+03
1070, -5.769852911424733e-16, 5.000000000005289e-04, 4.924647727627453e-06, 7.987988861331904e-09, -9.968558157022881e+01, 1.376588567902602e+02, 8.290431336619610e+02, 1.674987299148514e+03
1071, 4.999999999950832e-05, 5.000000000002242e-04, 4.952979754651066e-06, -1.001946384506467e-06, -1.237878869074968e+02, -5.999007792179047e+03, 6.655472184421369e+02, 6.024119963546817e+03
1072, 9.999999999962365e-05, 4.999999999999196e-04, 5.068152564735575e-06, -2.017233107482164e-06, -1.171696895641189e+02, -1.209235021213810e+04, 4.263737229408635e+02, 1.200550401918608e+04
1073, 1.499999999997844e-04, 4.999999999996149e-04, 5.270129555633044e-06, -3.041098179606265e-06, -7.410308719208638e+01, -1.812989366864211e+04, 1.246828450191684e+02, 1.805751247455052e+04
1074, 1.999999999999003e-04, 4.999999999993100e-04, 5.558901344968644e-06, -4.076334776602382e-06, -4.848152754409512e-01, -2.413786920992493e+04, -2.311645772762196e+02, 2.414181173114847e+04
1075, -2.000000000000740e-04, 4.000000000013997e-04, 3.761312175161184e-06, 3.225704852138980e-06, -9.325637744629944e+01, 2.473969495142160e+04, 6.403656419236792e+02, 2.486595552805778e+04
1076, -1.500000000001797e-04, 4.000000000011572e-04, 3.444394884390514e-06, 2.411435159205699e-06, -2.334816666271695e+01, 1.884804526253038e+04, 7.746518569984362e+02, 1.893488399641247e+04
1077, -1.000000000003152e-04, 4.000000000009148e-04, 3.212334664311142e-06, 1.606393865354598e-06, -3.624396980127381e+01, 1.276124649679341e+04, 8.940684823392497e+02, 1.292181086562683e+04
1078, -5.000000000043512e-05, 4.000000000006724e-04, 3.066978066567957e-06, 8.090923725786254e-07, -1.028461036638719e+02, 6.471167398902458e+03, 9.515447273718461e+02, 6.843931838108931e+03
1079, -5.898025937003254e-16, 4.000000000004300e-04, 3.010662991484981e-06, 1.598243878520047e-08, -1.090757550499666e+02, 1.460132721307309e+02, 9.093816423589199e+02, 1.836564808991401e+03
1080, 4.999999999949812e-05, 4.000000000001875e-04, 3.044443018664277e-06, -7.784792426696054e-07, -1.053132297821778e+02, -6.188754023877736e+03, 7.505952228654005e+02, 6.265925681782336e+03
1081, 9.999999999961606e-05, 3.999999999999452e-04, 3.168195378304261e-06, -1.579886685877024e-06, -1.429650588437307e+02, -1.250993070020310e+04, 4.909069846475548e+02, 1.240587755238888e+04
1082, 1.499999999997800e-04, 3.999999999997027e-04, 3.380527431488355e-06, -2.391932971374251e-06, -1.080655822743306e+02, -1.865125884419110e+04, 1.671963063541152e+02, 1.854620809675738e+04
1083, 1.999999999998984e-04, 3.999999999994603e-04, 3.680530504502791e-06, -3.216305700810978e-06, 3.854295829297530e+01, -2.461262627695063e+04, -1.750692244851130e+02, 2.465365574510337e+04
1084, -2.000000000000760e-04, 3.000000000010516e-04, 2.284159955250672e-06, 2.362926636816551e-06, -4.123190881661162e+01, 2.531764263038569e+04, 4.588698211418312e+02, 2.537547563979879e+04
1085, -1.500000000001842e-04, 3.000000000008717e-04, 1.962017328792849e-06, 1.754929068794872e-06, -2.631102097177836e+01, 1.947518423137825e+04, 6.756256620129967e+02, 1.954825304773070e+04
1086, -1.000000000003227e-04, 3.000000000006917e-04, 1.723732344884529e-06, 1.162751833752748e-06, -3.281534935507329e+02, 1.294028048135592e+04, 9.065261835415625e+02, 1.339173248807797e+04
1087, -5.000000000044532e-05, 3.000000000005118e-04, 1.575841185271908e-06, 5.860274158480458e-07, -2.734968651991319e+02, 6.536315896467550e+03, 1.042472445623620e+03, 7.121835792019947e+03
1088, -6.026207432911247e-16, 3.000000000003319e-04, 1.520732160498099e-06, 1.651761655853510e-08, -1.185881111372100e+02, 1.461943943502779e+02, 1.035199254956875e+03, 2.087261307327213e+03
1089, 4.999999999948792e-05, 3.000000000001520e-04, 1.559386786427788e-06, -5.539492829503822e-07, 4.876696335345446e+01, -6.251896805511145e+03, 8.893019619148233e+02, 6.546892075339661e+03
1090, 9.999999999960845e-05, 2.999999999999720e-04, 1.691767613343815e-06, -1.133582815094438e-06, 1.403261371090252e+02, -1.267977838767875e+04, 5.981812396507971e+02, 1.287580534212771e+04
1091, 1.499999999997756e-04, 2.999999999997920e-04, 1.916418923316243e-06, -1.730761114205844e-06, -1.072492179476003e+02, -1.926547611840133e+04, 2.094282539581574e+02, 1.916280508546421e+04
1092, 1.999999999998966e-04, 2.999999999996122e-04, 2.227798012817940e-06, -2.346130474255713e-06, -2.337542027482095e+01, -2.519397077308053e+04, -1.647452394104118e+02, 2.517275182395279e+04
1093, -2.000000000000778e-04, 2.000000000007014e-04, 1.234881936711600e-06, 1.475584834234896e-06, 2.998406834393140e+02, 2.611060488082380e+04, 3.548102601007036e+02, 2.582051722440268e+04
1094, -1.500000000001885e-04, 2.000000000005817e-04, 9.039460303421578e-07, 1.069432848251326e-06, -1.310608321358363e+03, 1.835280272678185e+04, 7.087805853125990e+02, 1.971444175523585e+04
1095, -1.000000000003304e-04, 2.000000000004620e-04, 6.662762707711633e-07, 7.018291496254120e-07, -9.741583019636817e+02, 1.216698158144878e+04, 9.507483895229669e+02, 1.327799862314105e+04
1096, -5.000000000045550e-05, 2.000000000003424e-04, 5.219697308292790e-07, 3.525358816009865e-07, -5.473464791603842e+02, 6.130169553081725e+03, 9.976028611425958e+02, 6.969222785583050e+03
1097, -6.154388928819240e-16, 2.000000000002227e-04, 4.700728692985903e-07, 1.171129375323665e-08, -1.318207686287342e+02, 1.256183664648249e+02, 9.730917924502924e+02, 1.963136636715390e+03
1098, 4.999999999947777e-05, 2.000000000001030e-04, 5.104355510990398e-07, -3.296863171419996e-07, 2.984722759886872e+02, -5.884910284848735e+03, 8.934305440553203e+02, 6.436388151896395e+03
1099, 9.999999999960084e-05, 1.999999999999833e-04, 6.440796946610617e-07, -6.807375622470541e-07, 7.703942634609214e+02, -1.193879726613036e+04, 7.397850310774797e+02, 1.279502547495159e+04
1100, 1.499999999997714e-04, 1.999999999998636e-04, 8.728620259089649e-07, -1.051346412501084e-06, 1.186034639874187e+03, -1.814477487253246e+04, 3.852615629719132e+02, 1.934615988491167e+04
1101, 1.999999999998946e-04, 1.999999999997439e-04, 1.197532922707318e-06, -1.461851814549242e-06, -3.498038468272848e+02, -2.597253527923701e+04, -8.664575913105676e+01, 2.562331742783707e+04
1102, -2.000000000000798e-04, 1.000000000003506e-04, 5.436672981592321e-07, 5.690721447212505e-07, -8.174936107170435e+03, 1.454809514551752e+04, 1.507033918831693e+03, 2.292205824616695e+04
1103, -1.500000000001928e-04, 1.000000000002906e-04, 2.558458002648783e-07, 4.096152272183101e-07, -3.817317087178942e+03, 1.227056570040712e+04, 1.216726200194772e+03, 1.627088390875153e+04
1104, -1.000000000003380e-04, 1.000000000002307e-04, 6.292304820185239e-08, 2.667258991145038e-07, -1.594478213316829e+03, 8.805205151270362e+03, 4.698172417163163e+02, 1.044204611396288e+04
1105, -5.000000000046567e-05, 1.000000000001708e-04, -4.967904983056420e-08, 1.337326683477956e-07, -6.148601643076350e+02, 4.579295008450486e+03, -2.745403974556780e+00, 5.194158074959010e+03
1106, -6.282434899455673e-16, 1.000000000001108e-04, -8.885780859233392e-08, 4.539933836835986e-09, -1.312321012191314e+02, 6.348675029809124e+01, -1.870068894119805e+02, 4.216654335920423e+02
1107, 4.999999999946757e-05, 1.000000000000509e-04, -5.661865636850636e-08, -1.249112529507824e-07, 3.590225913986017e+02, -4.461034704512374e+03, -7.002065430697485e+01, 4.822091237625325e+03
1108, 9.999999999959325e-05, 9.999999999999091e-05, 4.960012242410813e-08, -2.587158942696863e-07, 1.364190995439576e+03, -8.709726219869530e+03, 3.327287264725837e+02, 1.009587250724678e+04
1109, 1.499999999997670e-04, 9.999999999993101e-05, 2.373404224802698e-07, -4.031010885254178e-07, 3.656365790930814e+03, -1.219501294095432e+04, 1.005449019481392e+03, 1.597842040455704e+04
1110, 1.999999999998927e-04, 9.999999999987105e-05, 5.220909336694721e-07, -5.646990568836653e-07, 8.153608976213693e+03, -1.444898272964652e+04, 1.202637164162944e+03, 2.273021109484742e+04
