"PointID","x","y","Displacement_x","Displacement_y","Sxx","Syy","Sxy","Von_Mises_Stress"
0, -2.500000000000000e-04, 0.000000000000000e+00, 0.000000000000000e+00, 0.000000000000000e+00, 4.061853103793752e+04, 4.963811253535866e+04, 5.099490795788589e+03, 1.361514142027000e+04
1, 2.500000000000000e-04, 0.000000000000000e+00, 0.000000000000000e+00, 0.000000000000000e+00, -4.099446024162041e+04, -5.010983195580741e+04, 5.004385887961796e+03, 1.353755937938318e+04
2, 2.500000000000000e-04, 1.000000000000000e-02, 7.839787962416704e-04, -6.151187046635949e-05, 1.928676834499129e+01, 1.618233835494387e+01, 2.915346797458331e+00, 6.605639511879833e+00
3, -2.500000000000000e-04, 1.000000000000000e-02, 7.867594777471824e-04, -8.881467351700878e-06, 9.750213983778941e+00, 3.730823397753390e+01, 3.107934206829288e+00, 2.825033603538402e+01
4, -2.000000000000817e-04, 0.000000000000000e+00, 0.000000000000000e+00, 0.000000000000000e+00, 2.742685382780423e+04, 3.351854887873925e+04, 2.902564738068178e+03, 8.414765405422397e+03
5, -1.500000000001972e-04, 0.000000000000000e+00, 0.000000000000000e+00, 0.000000000000000e+00, 1.974005150113378e+04, 2.412952893633643e+04, 1.356068738286433e+03, 5.159767615502099e+03
6, -1.000000000003456e-04, 0.000000000000000e+00, 0.000000000000000e+00, 0.000000000000000e+00, 1.284648386508590e+04, 1.570319128587874e+04, 3.216588852488175e+02, 2.928247776717501e+03
7, -5.000000000047588e-05, 0.000000000000000e+00, 0.000000000000000e+00, 0.000000000000000e+00, 6.422823313921408e+03, 7.849988223647017e+03, -2.796991908212142e+02, 1.532881674799544e+03
8, -6.410887445906788e-16, 0.000000000000000e+00, 0.000000000000000e+00, 0.000000000000000e+00, 1.740768399267844e+02, 2.116660310703634e+02, -4.856012742748533e+02, 9.719296978692822e+02
9, 4.999999999945738e-05, 0.000000000000000e+00, 0.000000000000000e+00, 0.000000000000000e+00, -6.095842496590296e+03, -7.450691556114121e+03, -3.073274355412995e+02, 1.487755552716293e+03
10, 9.999999999958566e-05, 0.000000000000000e+00, 0.000000000000000e+00, 0.000000000000000e+00, -1.258401321278616e+04, -1.537858728279202e+04, 2.683355587546137e+02, 2.845638789642443e+03
11, 1.499999999997626e-04, 0.000000000000000e+00, 0.000000000000000e+00, 0.000000000000000e+00, -1.958966969438855e+04, -2.393995425802097e+04, 1.281217517248617e+03, 5.048866119298201e+03
12, 1.999999999998909e-04, 0.000000000000000e+00, 0.000000000000000e+00, 0.000000000000000e+00, -2.742980224826099e+04, -3.352786055390853e+04, 2.813478098437845e+03, 8.297526808672226e+03
13, 2.500000000000000e-04, 9.999999999981111e-05, 6.309924981969569e-07, -5.707473356261949e-07, 2.183324274381805e+03, -1.682332264813085e+04, 1.273025695022241e+03, 1.917641793760783e+04
14, 2.500000000000000e-04, 1.999999999996242e-04, 1.083346439106647e-06, -1.288400664132085e-06, -4.390917704935435e+03, -2.443452322121560e+04, -2.020239496739508e+02, 2.004767759111325e+04
15, 2.500000000000000e-04, 2.999999999994322e-04, 1.782363168527502e-06, -2.014800619822937e-06, -4.679902135748722e+03, -2.481543556552278e+04, -1.439678758884811e+02, 2.013759204817448e+04
16, 2.500000000000000e-04, 3.999999999992179e-04, 2.763733338345558e-06, -2.746057150175612e-06, -5.103553388459422e+03, -2.504956049206498e+04, -1.661561273166516e+02, 1.994877517071318e+04
17, 2.500000000000000e-04, 4.999999999990053e-04, 4.033228731376030e-06, -3.470352193260932e-06, -5.117708666403438e+03, -2.471371277637156e+04, -2.026057325773663e+02, 1.960019319826671e+04
18, 2.500000000000000e-04, 5.999999999988090e-04, 5.586186639661341e-06, -4.185047492359137e-06, -5.045384425801025e+03, -2.424331112521488e+04, -2.484711578694317e+02, 1.920435734986306e+04
19, 2.500000000000000e-04, 6.999999999986395e-04, 7.416686395471742e-06, -4.889912652432342e-06, -4.943188939531835e+03, -2.373449683755190e+04, -2.938519983822894e+02, 1.880049596436233e+04
20, 2.500000000000000e-04, 7.999999999985029e-04, 9.518765180336252e-06, -5.585595068307159e-06, -4.837535872034906e+03, -2.322504958997454e+04, -3.366575197662603e+02, 1.839983733270158e+04
21, 2.500000000000000e-04, 8.999999999983563e-04, 1.188663965391457e-05, -6.272870201693035e-06, -4.733103417492339e+03, -2.272156877372700e+04, -3.763365233868952e+02, 1.800420513623954e+04
22, 2.500000000000000e-04, 9.999999999981935e-04, 1.451465065894439e-05, -6.952481589362998e-06, -4.630591172112274e+03, -2.222461017389699e+04, -4.129666623420914e+02, 1.761339463283514e+04
23, 2.500000000000000e-04, 1.099999999998054e-03, 1.739722124729125e-05, -7.625114440254676e-06, -4.529675799531480e+03, -2.173358207477027e+04, -4.466909880245145e+02, 1.722708688322927e+04
24, 2.500000000000000e-04, 1.199999999997903e-03, 2.052883763271288e-05, -8.291403659517322e-06, -4.430128184088184e+03, -2.124815160940310e+04, -4.776432330383831e+02, 1.684513235824257e+04
25, 2.500000000000000e-04, 1.299999999997659e-03, 2.390404417640778e-05, -8.951941231853555e-06, -4.331840615851266e+03, -2.076820823912661e+04, -5.059388528353701e+02, 1.646748545281542e+04
26, 2.500000000000000e-04, 1.399999999997322e-03, 2.751744289154091e-05, -9.607280357746134e-06, -4.234770524909867e+03, -2.029374119963513e+04, -5.316844211417470e+02, 1.609413844933693e+04
27, 2.500000000000000e-04, 1.499999999997028e-03, 3.136369390325629e-05, -1.025793766271292e-05, -4.138895314131307e+03, -1.982476520415983e+04, -5.549821561349648e+02, 1.572509252695882e+04
28, 2.500000000000000e-04, 1.599999999996764e-03, 3.543751587159889e-05, -1.090439474402632e-05, -4.044198330243878e+03, -1.936129814293369e+04, -5.759314748564965e+02, 1.536034944025766e+04
29, 2.500000000000000e-04, 1.699999999996466e-03, 3.973368631648854e-05, -1.154709957060847e-05, -3.950664256129780e+03, -1.890335522283533e+04, -5.946296526221074e+02, 1.499991016109456e+04
30, 2.500000000000000e-04, 1.799999999996210e-03, 4.424704185714404e-05, -1.218646781398074e-05, -3.858277326354254e+03, -1.845094758827551e+04, -6.111718478742929e+02, 1.464377511039067e+04
31, 2.500000000000000e-04, 1.899999999995898e-03, 4.897247833129212e-05, -1.282288417418943e-05, -3.767026896819370e+03, -1.800408794408358e+04, -6.256507720459140e+02, 1.429194398315969e+04
32, 2.500000000000000e-04, 1.999999999995521e-03, 5.390495110983477e-05, -1.345670371224100e-05, -3.676897851636778e+03, -1.756278238298957e+04, -6.381573205925880e+02, 1.394441710081015e+04
33, 2.500000000000000e-04, 2.099999999995151e-03, 5.903947509406387e-05, -1.408825308538052e-05, -3.587880755279686e+03, -1.712703917028892e+04, -6.487799582642882e+02, 1.360119378303599e+04
34, 2.500000000000000e-04, 2.199999999994897e-03, 6.437112495756475e-05, -1.471783183144718e-05, -3.499964947705316e+03, -1.669686349434914e+04, -6.576050470262553e+02, 1.326227389409175e+04
35, 2.500000000000000e-04, 2.299999999994653e-03, 6.989503524379633e-05, -1.534571357159967e-05, -3.413139492321748e+03, -1.627225792394809e+04, -6.647170490330296e+02, 1.292765724559918e+04
36, 2.500000000000000e-04, 2.399999999994409e-03, 7.560640037215189e-05, -1.597214719509336e-05, -3.327400048977636e+03, -1.585322865170582e+04, -6.701980547575184e+02, 1.259734273231170e+04
37, 2.500000000000000e-04, 2.499999999994080e-03, 8.150047492054137e-05, -1.659735804071519e-05, -3.242740296340093e+03, -1.543977891715625e+04, -6.741276936732467e+02, 1.227133015231803e+04
38, 2.500000000000000e-04, 2.599999999993751e-03, 8.757257374124956e-05, -1.722154905089843e-05, -3.159151095391257e+03, -1.503190757559875e+04, -6.765842083888137e+02, 1.194961970953359e+04
39, 2.500000000000000e-04, 2.699999999993507e-03, 9.381807188333780e-05, -1.784490183167028e-05, -3.076628912732152e+03, -1.462961640104362e+04, -6.776435944604700e+02, 1.163221059255438e+04
40, 2.500000000000000e-04, 2.799999999993264e-03, 1.002324047635682e-04, -1.846757776086719e-05, -2.995171308346005e+03, -1.423290682699428e+04, -6.773795661392705e+02, 1.131910207982864e+04
41, 2.500000000000000e-04, 2.899999999993009e-03, 1.068110683394900e-04, -1.908971902902592e-05, -2.914772234418166e+03, -1.384177594145465e+04, -6.758639689829148e+02, 1.101029420278434e+04
42, 2.500000000000000e-04, 2.999999999992623e-03, 1.135496190114918e-04, -1.971144966393456e-05, -2.835434519575748e+03, -1.345622713060593e+04, -6.731664391566419e+02, 1.070578572108282e+04
43, 2.500000000000000e-04, 3.099999999992220e-03, 1.204436739804972e-04, -2.033287654653547e-05, -2.757150919019259e+03, -1.307625438881543e+04, -6.693548013511942e+02, 1.040557734201841e+04
44, 2.500000000000000e-04, 3.199999999991949e-03, 1.274889110365233e-04, -2.095409036072576e-05, -2.679921121713135e+03, -1.270185611134679e+04, -6.644953515730908e+02, 1.010966850225526e+04
45, 2.500000000000000e-04, 3.299999999991705e-03, 1.346810686906033e-04, -2.157516653140581e-05, -2.603745078062459e+03, -1.233302996796082e+04, -6.586521284144604e+02, 9.818058615320251e+03
46, 2.500000000000000e-04, 3.399999999991461e-03, 1.420159462711624e-04, -2.219616614653515e-05, -2.528623494062090e+03, -1.196977378582080e+04, -6.518869904564636e+02, 9.530747369691482e+03
47, 2.500000000000000e-04, 3.499999999991149e-03, 1.494894040426801e-04, -2.281713687097896e-05, -2.454552197769194e+03, -1.161208022201063e+04, -6.442605776335041e+02, 9.247735197459859e+03
48, 2.500000000000000e-04, 3.599999999990803e-03, 1.570973630305882e-04, -2.343811375989854e-05, -2.381533876443548e+03, -1.125994673402332e+04, -6.358316540581695e+02, 8.969021264265526e+03
49, 2.500000000000000e-04, 3.699999999990560e-03, 1.648358051452242e-04, -2.405912013066422e-05, -2.309576470271816e+03, -1.091337474745749e+04, -6.266564633561152e+02, 8.694603963767822e+03
50, 2.500000000000000e-04, 3.799999999990315e-03, 1.727007735690854e-04, -2.468016838478097e-05, -2.238674302908772e+03, -1.057235374226364e+04, -6.167896396337019e+02, 8.424484010084174e+03
51, 2.500000000000000e-04, 3.899999999990071e-03, 1.806883724264587e-04, -2.530126077493001e-05, -2.168828971620236e+03, -1.023687848831503e+04, -6.062846976113906e+02, 8.158660891474161e+03
52, 2.500000000000000e-04, 3.999999999989709e-03, 1.887947668532153e-04, -2.592239016994889e-05, -2.100043218776965e+03, -9.906944246886063e+03, -5.951931099212624e+02, 7.897133848117422e+03
53, 2.500000000000000e-04, 4.099999999989249e-03, 1.970161830886331e-04, -2.654354079854522e-05, -2.032318360857265e+03, -9.582544682447073e+03, -5.835646830572484e+02, 7.639902385794884e+03
54, 2.500000000000000e-04, 4.199999999988788e-03, 2.053489084392895e-04, -2.716468896292706e-05, -1.965657076324733e+03, -9.263674575205021e+03, -5.714476372857555e+02, 7.386966158214128e+03
55, 2.500000000000000e-04, 4.299999999988333e-03, 2.137892913137496e-04, -2.778580375892055e-05, -1.900063865877874e+03, -8.950330412967847e+03, -5.588883849374581e+02, 7.138324964043592e+03
56, 2.500000000000000e-04, 4.399999999988144e-03, 2.223337413673934e-04, -2.840684776548007e-05, -1.835536644021989e+03, -8.642502642650285e+03, -5.459323072203171e+02, 6.893979579513512e+03
57, 2.500000000000000e-04, 4.499999999988117e-03, 2.309787292619727e-04, -2.902777764911463e-05, -1.772083791090661e+03, -8.340190102333512e+03, -5.326227530925304e+02, 6.653928802161596e+03
58, 2.500000000000000e-04, 4.599999999988090e-03, 2.397207869932329e-04, -2.964854483499922e-05, -1.709707814313063e+03, -8.043386438469005e+03, -5.190011316789069e+02, 6.418172139544549e+03
59, 2.500000000000000e-04, 4.699999999988035e-03, 2.485565078964183e-04, -3.026909607120851e-05, -1.648406803629441e+03, -7.752081975595194e+03, -5.051077521878373e+02, 6.186710432059364e+03
60, 2.500000000000000e-04, 4.799999999987717e-03, 2.574825463408478e-04, -3.088937406377045e-05, -1.588190837247154e+03, -7.466276787097864e+03, -4.909819884041277e+02, 5.959542573518660e+03
61, 2.500000000000000e-04, 4.899999999987257e-03, 2.664956181212081e-04, -3.150931801169593e-05, -1.529057898256155e+03, -7.185960562648425e+03, -4.766610481704150e+02, 5.736668961494992e+03
62, 2.500000000000000e-04, 4.999999999986965e-03, 2.755925002619256e-04, -3.212886414777175e-05, -1.471012299979020e+03, -6.911128371707805e+03, -4.621808349301126e+02, 5.518089104988121e+03
63, 2.500000000000000e-04, 5.099999999987202e-03, 2.847700311039524e-04, -3.274794627216965e-05, -1.414057204698020e+03, -6.641774120364409e+03, -4.475759369898405e+02, 5.303802506488513e+03
64, 2.500000000000000e-04, 5.199999999987608e-03, 2.940251102829432e-04, -3.336649623626420e-05, -1.358196759622428e+03, -6.377892430541790e+03, -4.328794315771528e+02, 5.093808303987970e+03
65, 2.500000000000000e-04, 5.299999999988015e-03, 3.033546988028587e-04, -3.398444443859506e-05, -1.303431664953755e+03, -6.119475136164395e+03, -4.181232428618874e+02, 4.888106269454051e+03
66, 2.500000000000000e-04, 5.399999999988211e-03, 3.127558189255223e-04, -3.460172027580003e-05, -1.249765164671547e+03, -5.866516174508978e+03, -4.033381459984960e+02, 4.686695693866303e+03
67, 2.500000000000000e-04, 5.499999999988184e-03, 3.222255541845067e-04, -3.521825259361591e-05, -1.197202059610706e+03, -5.619010918589212e+03, -3.885533675990227e+02, 4.489575532634567e+03
68, 2.500000000000000e-04, 5.599999999988157e-03, 3.317610494962021e-04, -3.583397011973511e-05, -1.145744231082786e+03, -5.376952446086606e+03, -3.737966638873157e+02, 4.296745133522461e+03
69, 2.500000000000000e-04, 5.699999999988293e-03, 3.413595111335302e-04, -3.644880186952874e-05, -1.095393775724993e+03, -5.140333686763601e+03, -3.590947473413548e+02, 4.108203382767901e+03
70, 2.500000000000000e-04, 5.799999999988694e-03, 3.510182066878289e-04, -3.706267750977070e-05, -1.046153823826772e+03, -4.909148198098879e+03, -3.444732328885521e+02, 3.923948619485825e+03
71, 2.500000000000000e-04, 5.899999999989099e-03, 3.607344650252454e-04, -3.767552773245916e-05, -9.980265548652150e+02, -4.683389337758223e+03, -3.299568305935610e+02, 3.743979818555955e+03
72, 2.500000000000000e-04, 5.999999999989505e-03, 3.705056762328116e-04, -3.828728464021851e-05, -9.510157653763545e+02, -4.463052798958324e+03, -3.155689665000114e+02, 3.568296402447923e+03
73, 2.500000000000000e-04, 6.099999999989911e-03, 3.803292917418989e-04, -3.889788212279860e-05, -9.051220436299980e+02, -4.248131891026196e+03, -3.013318092718257e+02, 3.396898331846874e+03
74, 2.500000000000000e-04, 6.199999999990317e-03, 3.902028242995969e-04, -3.950725615830650e-05, -8.603509558235005e+02, -4.038623705588655e+03, -2.872658149596036e+02, 3.229783934828671e+03
75, 2.500000000000000e-04, 6.299999999990723e-03, 4.001238481557938e-04, -4.011534511733465e-05, -8.166957638466623e+02, -3.834514590039046e+03, -2.733914682577829e+02, 3.066953218975757e+03
76, 2.500000000000000e-04, 6.399999999990975e-03, 4.100899984972294e-04, -4.072208999208837e-05, -7.741694504919308e+02, -3.635806374777148e+03, -2.597279147107072e+02, 2.908401665030546e+03
77, 2.500000000000000e-04, 6.499999999990961e-03, 4.200989720597435e-04, -4.132743468584428e-05, -7.327701342241901e+02, -3.442487906200791e+03, -2.462919824364191e+02, 2.754125880604531e+03
78, 2.500000000000000e-04, 6.599999999990934e-03, 4.301485269743763e-04, -4.193132620962347e-05, -6.924904515846373e+02, -3.254544334590577e+03, -2.331003975884100e+02, 2.604124282911496e+03
79, 2.500000000000000e-04, 6.699999999991035e-03, 4.402364821878081e-04, -4.253371499010628e-05, -6.533439467848156e+02, -3.071977518657751e+03, -2.201699983062004e+02, 2.458391276344642e+03
80, 2.500000000000000e-04, 6.799999999991401e-03, 4.503607179865850e-04, -4.313455503574924e-05, -6.153250763757208e+02, -2.894773725878258e+03, -2.075153611312743e+02, 2.316923962097313e+03
81, 2.500000000000000e-04, 6.899999999991809e-03, 4.605191756915327e-04, -4.373380420477260e-05, -5.784383267004749e+02, -2.722928795470828e+03, -1.951498204446511e+02, 2.179718601178879e+03
82, 2.500000000000000e-04, 6.999999999992214e-03, 4.707098579429914e-04, -4.433142444384931e-05, -5.426710145943479e+02, -2.556425146169378e+03, -1.830869570957462e+02, 2.046775277813815e+03
83, 2.500000000000000e-04, 7.099999999992620e-03, 4.809308278752941e-04, -4.492738195817351e-05, -5.080342439335296e+02, -2.395264457877747e+03, -1.713406054785580e+02, 1.918089750967605e+03
84, 2.500000000000000e-04, 7.199999999993026e-03, 4.911802095819550e-04, -4.552164739594807e-05, -4.745415646027023e+02, -2.239449252099718e+03, -1.599208686366880e+02, 1.793654894980669e+03
85, 2.500000000000000e-04, 7.299999999993359e-03, 5.014561888415219e-04, -4.611419598064496e-05, -4.421646795689922e+02, -2.088948403310329e+03, -1.488378928061111e+02, 1.673471692655492e+03
86, 2.500000000000000e-04, 7.399999999993427e-03, 5.117570115861427e-04, -4.670500767309497e-05, -4.109250616218318e+02, -1.943770578714202e+03, -1.381026172748878e+02, 1.557531608302981e+03
87, 2.500000000000000e-04, 7.499999999993399e-03, 5.220809849480684e-04, -4.729406725054599e-05, -3.808148182711442e+02, -1.803896789474886e+03, -1.277235270479867e+02, 1.445826924016647e+03
88, 2.500000000000000e-04, 7.599999999993372e-03, 5.324264768014000e-04, -4.788136427044414e-05, -3.518388965692901e+02, -1.669316958225877e+03, -1.177065185798755e+02, 1.338345150180317e+03
89, 2.500000000000000e-04, 7.699999999993440e-03, 5.427919161646463e-04, -4.846689320707317e-05, -3.239776704939452e+02, -1.540001756199390e+03, -1.080576005042946e+02, 1.235079089420085e+03
90, 2.500000000000000e-04, 7.799999999993771e-03, 5.531757919981155e-04, -4.905065354573185e-05, -2.972257581298098e+02, -1.415936954698587e+03, -9.878547234958855e+01, 1.136023335815629e+03
91, 2.500000000000000e-04, 7.899999999994177e-03, 5.635766527669659e-04, -4.963265006557721e-05, -2.716067036361313e+02, -1.297131094218109e+03, -8.989817235356264e+01, 1.041166173695909e+03
92, 2.500000000000000e-04, 7.999999999994584e-03, 5.739931076412217e-04, -5.021289278489537e-05, -2.471052147887179e+02, -1.183560036278171e+03, -8.140011206710057e+01, 9.505006815720801e+02
93, 2.500000000000000e-04, 8.099999999994990e-03, 5.844238257023742e-04, -5.079139709454661e-05, -2.237173359069074e+02, -1.075210642018531e+03, -7.329597759456433e+01, 8.640197056080806e+02
94, 2.500000000000000e-04, 8.199999999995398e-03, 5.948675359850364e-04, -5.136818385874178e-05, -2.014439450219397e+02, -9.720716059586621e+02, -6.558981595984048e+01, 7.817129189359653e+02
95, 2.500000000000000e-04, 8.299999999995804e-03, 6.053230273857930e-04, -5.194327931729124e-05, -1.802844375719712e+02, -8.741266716472669e+02, -5.828449209341258e+01, 7.035661829998267e+02
96, 2.500000000000000e-04, 8.399999999996209e-03, 6.157891486125790e-04, -5.251671503483591e-05, -1.602333533686306e+02, -7.813523086978678e+02, -5.138108962985113e+01, 6.295624052907591e+02
97, 2.500000000000000e-04, 8.499999999996616e-03, 6.262648081173849e-04, -5.308852780397779e-05, -1.412706220820281e+02, -6.937114268540272e+02, -4.488014193490316e+01, 5.596854038989424e+02
98, 2.500000000000000e-04, 8.599999999997021e-03, 6.367489730690824e-04, -5.365875962331205e-05, -1.233899615372989e+02, -6.111791939320966e+02, -3.878352152710970e+01, 4.939179905697717e+02
99, 2.500000000000000e-04, 8.699999999997429e-03, 6.472406689415832e-04, -5.422745778426327e-05, -1.065996167171478e+02, -5.337404536331803e+02, -3.309313811790547e+01, 4.322382649919970e+02
100, 2.500000000000000e-04, 8.799999999997834e-03, 6.577389798206115e-04, -5.479467472522119e-05, -9.089120995956520e+01, -4.613661304122385e+02, -2.780770323173095e+01, 3.746261337927598e+02
101, 2.500000000000000e-04, 8.899999999997930e-03, 6.682430480673432e-04, -5.536046815063402e-05, -7.624417570358092e+01, -3.940219996198074e+02, -2.292643441924451e+01, 3.210688881745660e+02
102, 2.500000000000000e-04, 8.999999999997496e-03, 6.787520734619120e-04, -5.592490120179272e-05, -6.264541537505620e+01, -3.316803132413328e+02, -1.845092742862711e+01, 2.715539047073780e+02
103, 2.500000000000000e-04, 9.099999999997034e-03, 6.892653128183568e-04, -5.648804231070624e-05, -5.009837584797384e+01, -2.743209064163194e+02, -1.437962059183029e+01, 2.260593664680422e+02
104, 2.500000000000000e-04, 9.199999999996832e-03, 6.997820806330131e-04, -5.704996494426578e-05, -3.858168077846720e+01, -2.218895936212281e+02, -1.070599461084487e+01, 1.845542310357554e+02
105, 2.500000000000000e-04, 9.299999999997156e-03, 7.103017488492705e-04, -5.761074687718389e-05, -2.803845463944786e+01, -1.742856762302646e+02, -7.419736145272055e+00, 1.469981624405396e+02
106, 2.500000000000000e-04, 9.399999999997563e-03, 7.208237447192403e-04, -5.817046940474937e-05, -1.843944575560353e+01, -1.314165222646059e+02, -4.508184343048005e+00, 1.133362903963448e+02
107, 2.500000000000000e-04, 9.499999999997968e-03, 7.313475493462473e-04, -5.872921673384489e-05, -9.701414055827714e+00, -9.312864747886947e+01, -1.964195759345633e+00, 8.351967155435192e+01
108, 2.500000000000000e-04, 9.599999999998375e-03, 7.418726931852112e-04, -5.928707498058464e-05, -1.863607910849058e+00, -5.937881681853128e+01, 2.177399319062692e-01, 5.751685751504610e+01
109, 2.500000000000000e-04, 9.699999999998783e-03, 7.523987537857966e-04, -5.984413323799558e-05, 5.009467441667866e+00, -3.040939553424969e+01, 2.010440230725119e+00, 3.564636495061026e+01
110, 2.500000000000000e-04, 9.799999999999188e-03, 7.629253418962441e-04, -6.040049979154669e-05, 1.010735476808413e+01, -7.594360216335154e+00, 3.193031737422374e+00, 1.881840907447706e+01
111, 2.500000000000000e-04, 9.899999999999593e-03, 7.734521113320934e-04, -6.095632644065937e-05, 1.259048391575268e+01, 6.540414280844004e+00, 3.386372553403469e+00, 9.081487701308710e+00
112, 2.000000000000817e-04, 1.000000000000000e-02, 7.842564902880682e-04, -5.624872108520723e-05, 1.789531307525055e+01, 1.512953419032599e+01, 4.225405120309331e+00, 8.891891056644798e+00
113, 1.500000000001972e-04, 1.000000000000000e-02, 7.845342047804799e-04, -5.098571516625013e-05, 1.575586970238952e+01, 1.584419809736275e+01, 6.656416662733653e+00, 1.331312634421500e+01
114, 1.000000000003456e-04, 1.000000000000000e-02, 7.848119959322063e-04, -4.572283162571039e-05, 1.040965193880900e+01, 1.600272606673548e+01, 8.791362409528819e+00, 1.845087234423311e+01
115, 5.000000000047588e-05, 1.000000000000000e-02, 7.850899052396876e-04, -4.046002018171063e-05, 3.178762807848897e+00, 1.604640349819853e+01, 1.029457505700572e+01, 2.427940030876460e+01
116, 6.410887445906788e-16, 1.000000000000000e-02, 7.853679566012635e-04, -3.519721222214851e-05, -4.163927802990480e+00, 1.687779944679428e+01, 1.087863442858895e+01, 3.026768960092359e+01
117, -4.999999999945738e-05, 1.000000000000000e-02, 7.856461555516349e-04, -2.993432620694156e-05, -9.320005419774658e+00, 1.997423943038642e+01, 1.033744719384672e+01, 3.585532093404640e+01
118, -9.999999999958566e-05, 1.000000000000000e-02, 7.859244866919637e-04, -2.467128543544376e-05, -9.478850823837998e+00, 2.714898975997397e+01, 8.730026804453981e+00, 4.057649785108472e+01
119, -1.499999999997626e-04, 1.000000000000000e-02, 7.862029062109819e-04, -1.940805143983280e-05, -9.692599220695834e-01, 4.022256017381675e+01, 6.733018752633557e+00, 4.333705353280407e+01
120, -1.999999999998909e-04, 1.000000000000000e-02, 7.864813174655440e-04, -1.414469352063333e-05, 2.371732556734624e+01, 6.167526444885181e+01, 5.834694118264899e+00, 3.971120428729116e+01
121, -2.500000000000000e-04, 9.899999999999590e-03, 7.762328185993059e-04, -8.326915743263645e-06, -1.746944252239861e+01, 3.179403934681478e+01, -1.399840059422122e+00, 4.934297168438651e+01
122, -2.500000000000000e-04, 9.799999999999181e-03, 7.657058290921792e-04, -7.773347533332614e-06, 4.861583989797605e+00, 7.355540132139240e+01, 2.795339984703407e+00, 6.892094197054216e+01
123, -2.500000000000000e-04, 9.699999999999055e-03, 7.551790183868316e-04, -7.220502094829443e-06, 1.298797012071798e+01, 1.005554874153879e+02, 6.721588794765505e+00, 8.859339201574784e+01
124, -2.500000000000000e-04, 9.599999999999458e-03, 7.446526523612750e-04, -6.668496829091557e-06, 1.903281625833610e+01, 1.294675720919049e+02, 1.073495849241932e+01, 1.125024116690652e+02
125, -2.500000000000000e-04, 9.499999999999916e-03, 7.341270292193733e-04, -6.117522853464078e-06, 2.594558844831239e+01, 1.635055345458427e+02, 1.503374366239508e+01, 1.408076438421646e+02
126, -2.500000000000000e-04, 9.400000000000373e-03, 7.236025163235687e-04, -5.567769031599635e-06, 3.386357433140753e+01, 2.025722296091500e+02, 1.963007710338901e+01, 1.732165409941099e+02
127, -2.500000000000000e-04, 9.300000000000832e-03, 7.130795367785262e-04, -5.019425724893651e-06, 4.321131663935129e+01, 2.468669636499008e+02, 2.454414399396010e+01, 2.094881442394069e+02
128, -2.500000000000000e-04, 9.200000000001289e-03, 7.025585872287569e-04, -4.472685972845683e-06, 5.341756572328605e+01, 2.958123737925685e+02, 2.980160424878760e+01, 2.496152748574287e+02
129, -2.500000000000000e-04, 9.100000000001746e-03, 6.920402064742382e-04, -3.927745344974216e-06, 6.485382863885734e+01, 3.496845004046418e+02, 3.541988060248941e+01, 2.935077228049144e+02
130, -2.500000000000000e-04, 9.000000000002204e-03, 6.815249962741127e-04, -3.384806572829426e-06, 7.743987742051166e+01, 4.084520569742134e+02, 4.138971598569468e+01, 3.412059456844179e+02
131, -2.500000000000000e-04, 8.900000000002661e-03, 6.710136168069753e-04, -2.844080037453190e-06, 9.111426872306130e+01, 4.721047876648466e+02, 4.772376408164808e+01, 3.927645683561772e+02
132, -2.500000000000000e-04, 8.800000000003118e-03, 6.605067839773413e-04, -2.305783449431220e-06, 1.058880218272976e+02, 5.406829407343172e+02, 5.443512248232531e+01, 4.482179734749878e+02
133, -2.500000000000000e-04, 8.700000000003576e-03, 6.500052713001825e-04, -1.770141465203497e-06, 1.217138752300259e+02, 6.141723416026653e+02, 6.153167088230277e+01, 5.076021347358225e+02
134, -2.500000000000000e-04, 8.600000000004033e-03, 6.395099083389749e-04, -1.237385434478514e-06, 1.385997498793495e+02, 6.926060116860671e+02, 6.901944759362807e+01, 5.709445460861953e+02
135, -2.500000000000000e-04, 8.500000000004490e-03, 6.290215816040517e-04, -7.077536223885216e-07, 1.565585777965560e+02, 7.760190832567718e+02, 7.690323569582623e+01, 6.382693384982372e+02
136, -2.500000000000000e-04, 8.400000000004949e-03, 6.185412352096931e-04, -1.814909081282291e-07, 1.756422522904188e+02, 8.644858841650982e+02, 8.517732352543251e+01, 7.095958391550247e+02
137, -2.500000000000000e-04, 8.300000000005149e-03, 6.080698734631661e-04, 3.411504250368391e-07, 1.958045717806896e+02, 9.579937553995318e+02, 9.384588493378972e+01, 7.849589493098232e+02
138, -2.500000000000000e-04, 8.200000000005172e-03, 5.976085582175513e-04, 8.599118076038476e-07, 2.171240918661802e+02, 1.056638184905420e+03, 1.029004223890717e+02, 8.643713901575497e+02
139, -2.500000000000000e-04, 8.100000000005195e-03, 5.871584132269580e-04, 1.374527084160544e-06, 2.395350913532963e+02, 1.160393732087944e+03, 1.123432920896063e+02, 9.478737771063112e+02
140, -2.500000000000000e-04, 8.000000000005220e-03, 5.767206206155126e-04, 1.884723797731534e-06, 2.630401937208244e+02, 1.269272596550138e+03, 1.221798760030316e+02, 1.035478313101785e+03
141, -2.500000000000000e-04, 7.900000000005243e-03, 5.662964211231021e-04, 2.390223540747601e-06, 2.877580521622939e+02, 1.383399572746195e+03, 1.323925298387474e+02, 1.127182979580431e+03
142, -2.500000000000000e-04, 7.800000000005240e-03, 5.558871207642324e-04, 2.890740400639235e-06, 3.135219893881331e+02, 1.502653278656338e+03, 1.429847218367903e+02, 1.223033828572064e+03
143, -2.500000000000000e-04, 7.700000000005121e-03, 5.454940821763244e-04, 3.385983279245818e-06, 3.404057499506794e+02, 1.627106018979994e+03, 1.539530025855041e+02, 1.323028227340777e+03
144, -2.500000000000000e-04, 7.600000000005145e-03, 5.351187291776592e-04, 3.875654512706490e-06, 3.684022859283012e+02, 1.756764724064870e+03, 1.652935027400477e+02, 1.427178344784146e+03
145, -2.500000000000000e-04, 7.500000000005337e-03, 5.247625467254597e-04, 4.359450961831230e-06, 3.974416400924158e+02, 1.891573318515831e+03, 1.770045674514948e+02, 1.535497294059203e+03
146, -2.500000000000000e-04, 7.400000000005796e-03, 5.144270772097499e-04, 4.837064277786280e-06, 4.276620281023912e+02, 2.031666970289299e+03, 1.890703818180195e+02, 1.647975209668905e+03
147, -2.500000000000000e-04, 7.300000000006254e-03, 5.041139277372532e-04, 5.308179385465042e-06, 4.589982274335038e+02, 2.177017088713046e+03, 2.014810705070492e+02, 1.764643673607485e+03
148, -2.500000000000000e-04, 7.200000000006711e-03, 4.938247663321618e-04, 5.772475606617065e-06, 4.914359327046290e+02, 2.327620355642346e+03, 2.142342336241753e+02, 1.885512785017717e+03
149, -2.500000000000000e-04, 7.100000000007169e-03, 4.835613215113472e-04, 6.229627165386903e-06, 5.250207081284857e+02, 2.483525077083891e+03, 2.273165364331207e+02, 2.010579666206045e+03
150, -2.500000000000000e-04, 7.000000000007627e-03, 4.733253851794532e-04, 6.679302812367646e-06, 5.596957668381322e+02, 2.644697825655566e+03, 2.407176968188368e+02, 2.139862991763724e+03
151, -2.500000000000000e-04, 6.900000000008085e-03, 4.631188097829858e-04, 7.121166323332679e-06, 5.954872415858058e+02, 2.811169082508303e+03, 2.544285412272769e+02, 2.273363488436873e+03
152, -2.500000000000000e-04, 6.800000000008542e-03, 4.529435101051758e-04, 7.554876669293447e-06, 6.323677050140486e+02, 2.982922414665889e+03, 2.684380795848687e+02, 2.411087607979291e+03
153, -2.500000000000000e-04, 6.700000000009001e-03, 4.428014619897775e-04, 7.980088428568487e-06, 6.703717205771906e+02, 3.159999237252176e+03, 2.827302026430020e+02, 2.553035573925963e+03
154, -2.500000000000000e-04, 6.600000000009459e-03, 4.326947043634764e-04, 8.396451313329209e-06, 7.094849589104234e+02, 3.342399590709564e+03, 2.972905086246591e+02, 2.699215820273592e+03
155, -2.500000000000000e-04, 6.500000000009916e-03, 4.226253388914110e-04, 8.803610946613922e-06, 7.496503022572892e+02, 3.530082032402615e+03, 3.121077293352378e+02, 2.849639546476383e+03
156, -2.500000000000000e-04, 6.400000000010177e-03, 4.125955272833608e-04, 9.201209205393085e-06, 7.909232297807088e+02, 3.723100954383745e+03, 3.271673638565629e+02, 3.004300275363575e+03
157, -2.500000000000000e-04, 6.300000000010201e-03, 4.026074944136192e-04, 9.588884096425050e-06, 8.333034767035980e+02, 3.921468254860907e+03, 3.424492382781206e+02, 3.163202114984188e+03
158, -2.500000000000000e-04, 6.200000000010225e-03, 3.926635283537516e-04, 9.966269995858696e-06, 8.767775976267051e+02, 4.125183649871109e+03, 3.579344277561864e+02, 3.326350868226421e+03
159, -2.500000000000000e-04, 6.100000000010248e-03, 3.827659800215329e-04, 1.033299802720441e-05, 9.213160324848345e+02, 4.334230173041224e+03, 3.736068886820278e+02, 3.493753191038602e+03
160, -2.500000000000000e-04, 6.000000000010509e-03, 3.729172619447520e-04, 1.068869655899413e-05, 9.669449602074741e+02, 4.548637706892877e+03, 3.894469924087593e+02, 3.665405676216991e+03
161, -2.500000000000000e-04, 5.900000000010967e-03, 3.631198498970550e-04, 1.103299123193972e-05, 1.013671189242932e+03, 4.768422826911804e+03, 4.054307358776207e+02, 3.841309176173425e+03
162, -2.500000000000000e-04, 5.800000000011424e-03, 3.533762835448621e-04, 1.136550524913689e-05, 1.061465937959061e+03, 4.993572045820995e+03, 4.215348539389978e+02, 4.021470499186413e+03
163, -2.500000000000000e-04, 5.700000000011876e-03, 3.436891654292306e-04, 1.168585981288401e-05, 1.110305278472930e+03, 5.224073638527934e+03, 4.377390606071920e+02, 4.205894917959162e+03
164, -2.500000000000000e-04, 5.600000000012062e-03, 3.340611602054310e-04, 1.199367460461081e-05, 1.160193263873700e+03, 5.459937688648118e+03, 4.540219406443457e+02, 4.394581414506338e+03
165, -2.500000000000000e-04, 5.500000000012085e-03, 3.244949951262121e-04, 1.228856812330647e-05, 1.211153992881451e+03, 5.701192639519106e+03, 4.703564079363617e+02, 4.587525220666028e+03
166, -2.500000000000000e-04, 5.400000000012110e-03, 3.149934615236873e-04, 1.257015788446508e-05, 1.263173336424142e+03, 5.947836895480374e+03, 4.867134046468860e+02, 4.784729084765538e+03
167, -2.500000000000000e-04, 5.300000000012160e-03, 3.055594143617298e-04, 1.283806085651449e-05, 1.316234407930947e+03, 6.199865782625409e+03, 5.030651980699871e+02, 4.986196323645600e+03
168, -2.500000000000000e-04, 5.200000000012475e-03, 2.961957717900151e-04, 1.309189393233010e-05, 1.370332210707653e+03, 6.457284170701244e+03, 5.193833633955073e+02, 5.191928019143827e+03
169, -2.500000000000000e-04, 5.100000000012934e-03, 2.869055153063779e-04, 1.333127434208379e-05, 1.425466180020263e+03, 6.720100836751801e+03, 5.356374276078617e+02, 5.401924283408658e+03
170, -2.500000000000000e-04, 5.000000000013221e-03, 2.776916901125299e-04, 1.355582008588421e-05, 1.481630195278815e+03, 6.988320463962824e+03, 5.517950481628658e+02, 5.616186323113523e+03
171, -2.500000000000000e-04, 4.900000000012981e-03, 2.685574051849790e-04, 1.376515037777006e-05, 1.538808966865849e+03, 7.261939148464209e+03, 5.678244576629894e+02, 5.834716577041523e+03
172, -2.500000000000000e-04, 4.800000000012570e-03, 2.595058327976264e-04, 1.395888624146531e-05, 1.597011990540275e+03, 7.540972920543547e+03, 5.836913488054065e+02, 6.057512187365905e+03
173, -2.500000000000000e-04, 4.700000000012160e-03, 2.505402093807052e-04, 1.413665093256110e-05, 1.656241915797309e+03, 7.825433710191062e+03, 5.993571025449822e+02, 6.284571834381375e+03
174, -2.500000000000000e-04, 4.600000000011960e-03, 2.416638361377254e-04, 1.429807039389237e-05, 1.716461975160623e+03, 8.115300655225915e+03, 6.147847009740423e+02, 6.515901884444445e+03
175, -2.500000000000000e-04, 4.500000000011985e-03, 2.328800775632101e-04, 1.444277394131106e-05, 1.777672832658276e+03, 8.410582555828656e+03, 6.299378664221687e+02, 6.751501926085649e+03
176, -2.500000000000000e-04, 4.400000000012010e-03, 2.241923618738155e-04, 1.457039480485777e-05, 1.839887420733623e+03, 8.711298360960573e+03, 6.447759590697610e+02, 6.991368425354792e+03
177, -2.500000000000000e-04, 4.300000000011870e-03, 2.156041820382990e-04, 1.468057067668307e-05, 1.903092315660291e+03, 9.017445317020611e+03, 6.592559375049868e+02, 7.235502207345865e+03
178, -2.500000000000000e-04, 4.200000000011467e-03, 2.071190954250173e-04, 1.477294434519919e-05, 1.967277085762884e+03, 9.329022600659970e+03, 6.733347211609631e+02, 7.483903768287712e+03
179, -2.500000000000000e-04, 4.100000000011056e-03, 1.987407236787976e-04, 1.484716435258537e-05, 2.032440397342011e+03, 9.646037103298746e+03, 6.869669988893121e+02, 7.736572201641190e+03
180, -2.500000000000000e-04, 4.000000000010646e-03, 1.904727531156612e-04, 1.490288559750927e-05, 2.098569409246044e+03, 9.968486525413016e+03, 7.001062531941229e+02, 7.993509271801962e+03
181, -2.500000000000000e-04, 3.900000000010236e-03, 1.823189344386613e-04, 1.493977003390963e-05, 2.165657832322359e+03, 1.029637343753389e+04, 7.127055081338717e+02, 8.254715792692548e+03
182, -2.500000000000000e-04, 3.800000000009824e-03, 1.742830827425549e-04, 1.495748737878775e-05, 2.233711904503480e+03, 1.062971003215568e+04, 7.247150528805137e+02, 8.520189680460504e+03
183, -2.500000000000000e-04, 3.700000000009415e-03, 1.663690782012487e-04, 1.495571583029858e-05, 2.302720996579998e+03, 1.096849441979066e+04, 7.360826990134448e+02, 8.789931739301048e+03
184, -2.500000000000000e-04, 3.600000000009160e-03, 1.585808658654983e-04, 1.493414281406596e-05, 2.372677904503987e+03, 1.131272719573796e+04, 7.467554167210693e+02, 9.063942626655473e+03
185, -2.500000000000000e-04, 3.500000000009170e-03, 1.509224556696415e-04, 1.489246576607003e-05, 2.443577373083040e+03, 1.166241034705844e+04, 7.566785666721828e+02, 9.342223033898321e+03
186, -2.500000000000000e-04, 3.400000000009196e-03, 1.433979224816164e-04, 1.483039291135953e-05, 2.515418973225710e+03, 1.201754889648162e+04, 7.657958591752714e+02, 9.624772530826656e+03
187, -2.500000000000000e-04, 3.300000000009092e-03, 1.360114063567663e-04, 1.474764412329703e-05, 2.588199876852302e+03, 1.237814452908903e+04, 7.740485688742090e+02, 9.911590237785422e+03
188, -2.500000000000000e-04, 3.200000000008720e-03, 1.287671126919052e-04, 1.464395179006946e-05, 2.661912625252043e+03, 1.274419475366987e+04, 7.813760646341783e+02, 1.020267646916956e+04
189, -2.500000000000000e-04, 3.100000000008311e-03, 1.216693121365822e-04, 1.451906166885813e-05, 2.736552917628080e+03, 1.311569929101711e+04, 7.877165021956126e+02, 1.049803165319860e+04
190, -2.500000000000000e-04, 3.000000000007901e-03, 1.147223406232988e-04, 1.437273379324478e-05, 2.812120372676576e+03, 1.349265997258199e+04, 7.930060661058124e+02, 1.079765533014785e+04
191, -2.500000000000000e-04, 2.900000000007490e-03, 1.079305995791299e-04, 1.420474341775860e-05, 2.888612980174803e+03, 1.387507627679658e+04, 7.971784764443398e+02, 1.110154718321919e+04
192, -2.500000000000000e-04, 2.800000000007079e-03, 1.012985560440231e-04, 1.401488197278866e-05, 2.966024271966622e+03, 1.426294352312285e+04, 8.001659197098718e+02, 1.140970843463604e+04
193, -2.500000000000000e-04, 2.700000000006744e-03, 9.483074248834983e-05, 1.380295803447322e-05, 3.044356164002304e+03, 1.465626264324869e+04, 8.018993133245459e+02, 1.172213897365177e+04
194, -2.500000000000000e-04, 2.600000000006672e-03, 8.853175701165196e-05, 1.356879836827090e-05, 3.123612744477531e+03, 1.505503423725745e+04, 8.023067010361950e+02, 1.203883727809629e+04
195, -2.500000000000000e-04, 2.500000000006697e-03, 8.240626366772024e-05, 1.331224900415532e-05, 3.203787613504885e+03, 1.545924916806017e+04, 8.013138733670266e+02, 1.235980394706100e+04
196, -2.500000000000000e-04, 2.400000000006722e-03, 7.645899218262934e-05, 1.303317628810292e-05, 3.284883567315501e+03, 1.586890512441780e+04, 7.988452420144127e+02, 1.268503896061702e+04
197, -2.500000000000000e-04, 2.300000000006651e-03, 7.069473811544439e-05, 1.273146796973867e-05, 3.366902969448848e+03, 1.628399738518874e+04, 7.948231321744814e+02, 1.301454199697006e+04
198, -2.500000000000000e-04, 2.200000000006315e-03, 6.511836295215493e-05, 1.240703438962510e-05, 3.449847022004437e+03, 1.670451884761693e+04, 7.891673901942497e+02, 1.334831322241389e+04
199, -2.500000000000000e-04, 2.100000000005904e-03, 5.973479406327094e-05, 1.205980959414835e-05, 3.533721488690088e+03, 1.713046435907518e+04, 7.817962675503521e+02, 1.368635226417873e+04
200, -2.500000000000000e-04, 2.000000000005494e-03, 5.454902485064531e-05, 1.168975258357366e-05, 3.618529591976103e+03, 1.756182443972975e+04, 7.726254649324082e+02, 1.402865893974337e+04
201, -2.500000000000000e-04, 1.900000000005083e-03, 4.956611471201268e-05, 1.129684852712283e-05, 3.704277574716102e+03, 1.799859022226818e+04, 7.615686677104981e+02, 1.437523291667028e+04
202, -2.500000000000000e-04, 1.800000000004675e-03, 4.479118910595192e-05, 1.088111003416535e-05, 3.790971419254540e+03, 1.844075076506932e+04, 7.485373305951262e+02, 1.472607440637998e+04
203, -2.500000000000000e-04, 1.700000000004264e-03, 4.022943951185235e-05, 1.044257842718654e-05, 3.878620065612818e+03, 1.888829474186902e+04, 7.334411459444598e+02, 1.508118289608955e+04
204, -2.500000000000000e-04, 1.600000000003854e-03, 3.588612349162931e-05, 9.981325127662555e-06, 3.967232105037177e+03, 1.934120785731418e+04, 7.161870861473334e+02, 1.544055783322151e+04
205, -2.500000000000000e-04, 1.500000000003443e-03, 3.176656464889053e-05, 9.497452987843534e-06, 4.056818559404487e+03, 1.979947567569863e+04, 6.966801328500310e+02, 1.580419899619206e+04
206, -2.500000000000000e-04, 1.400000000003032e-03, 2.787615262730694e-05, 8.991097687498126e-06, 4.147392045519405e+03, 2.026308219251576e+04, 6.748230081903827e+02, 1.617210602499031e+04
207, -2.500000000000000e-04, 1.300000000002622e-03, 2.422034311512638e-05, 8.462429174940535e-06, 4.238965656686277e+03, 2.073200865932714e+04, 6.505161376256588e+02, 1.654427854178618e+04
208, -2.500000000000000e-04, 1.200000000002211e-03, 2.080465777470863e-05, 7.911653141733468e-06, 4.331557284487145e+03, 2.120623788949657e+04, 6.236578876652410e+02, 1.692071636085392e+04
209, -2.500000000000000e-04, 1.100000000002113e-03, 1.763468416227537e-05, 7.339012467300814e-06, 4.425200454277288e+03, 2.168576898603143e+04, 5.941457426165589e+02, 1.730142371867873e+04
210, -2.500000000000000e-04, 1.000000000002544e-03, 1.471607571467213e-05, 6.744788330771626e-06, 4.519978834018068e+03, 2.217066919001224e+04, 5.618797002953787e+02, 1.768642714721098e+04
211, -2.500000000000000e-04, 9.000000000030026e-04, 1.205455256346647e-05, 6.129300020529550e-06, 4.616061962761109e+03, 2.266115152332644e+04, 5.267696605724642e+02, 1.807581816543922e+04
212, -2.500000000000000e-04, 8.000000000032027e-04, 9.655906043413877e-06, 5.492902590924005e-06, 4.713651363177580e+03, 2.315754870127693e+04, 4.887207319228601e+02, 1.846977912249071e+04
213, -2.500000000000000e-04, 7.000000000028719e-04, 7.526014967361907e-06, 4.835985318775338e-06, 4.811860238560137e+03, 2.365887093010769e+04, 4.475439376200267e+02, 1.886825361054142e+04
214, -2.500000000000000e-04, 6.000000000024631e-04, 5.670880249909364e-06, 4.159006267361825e-06, 4.905843560541756e+03, 2.415805769816932e+04, 4.023748582968893e+02, 1.926902621585804e+04
215, -2.500000000000000e-04, 5.000000000020526e-04, 4.096662917923380e-06, 3.462660983665444e-06, 4.969640575189012e+03, 2.461761303811529e+04, 3.508024620106311e+02, 1.966049519654376e+04
216, -2.500000000000000e-04, 4.000000000016421e-04, 2.809434169985636e-06, 2.748644922036122e-06, 4.948633017914666e+03, 2.494416438496998e+04, 2.830659998968669e+02, 2.000354418827032e+04
217, -2.500000000000000e-04, 3.000000000012316e-04, 1.813888988267734e-06, 2.021191558975488e-06, 4.526991514128665e+03, 2.471023378070967e+04, 1.966176891119612e+02, 2.018707265688090e+04
218, -2.500000000000000e-04, 2.000000000008210e-04, 1.104099482622711e-06, 1.293987519298024e-06, 4.249194357823398e+03, 2.434595175918078e+04, 3.591977294646301e+01, 2.009688580276473e+04
219, -2.500000000000000e-04, 1.000000000004105e-04, 6.429840436573196e-07, 5.725921988047535e-07, -2.184075882760695e+03, 1.684118868539708e+04, 1.456483777666501e+03, 1.924697565506909e+04
220, -1.999999999998928e-04, 9.899999999999593e-03, 7.759542536910540e-04, -1.359057913923870e-05, -2.717848279644441e+00, 4.676691036831843e+01, 3.856084251223467e+00, 5.008212137536978e+01
221, -1.499999999997670e-04, 9.899999999999591e-03, 7.756757434360846e-04, -1.885389248382219e-05, -3.090283606392878e-01, 4.297009002591113e+01, 9.171892293485666e+00, 4.700613280509527e+01
222, -9.999999999959327e-05, 9.899999999999591e-03, 7.753973603743974e-04, -2.411694696598439e-05, 2.901843036474292e+00, 3.716506357619556e+01, 1.265795968434601e+01, 4.260122128807687e+01
223, -4.999999999946756e-05, 9.899999999999593e-03, 7.751191269928657e-04, -2.937976987136817e-05, 6.107896781224568e+00, 3.092431062738481e+01, 1.500222899506104e+01, 3.893740997376294e+01
224, 6.282680539010377e-16, 9.899999999999593e-03, 7.748410382283793e-04, -3.464242546918695e-05, 8.639863395105094e+00, 2.460635815925792e+01, 1.596030216132078e+01, 3.569109042010852e+01
225, 5.000000000046569e-05, 9.899999999999590e-03, 7.745630804256248e-04, -3.990500285886117e-05, 1.052022894682213e+01, 1.863002372886578e+01, 1.541790322838965e+01, 3.188441204172996e+01
226, 1.000000000003380e-04, 9.899999999999590e-03, 7.742852357448809e-04, -4.516759849546384e-05, 1.180869757813164e+01, 1.336352004294967e+01, 1.343825124332767e+01, 2.692143864677914e+01
227, 1.500000000001929e-04, 9.899999999999593e-03, 7.740074812816565e-04, -5.043030340561726e-05, 1.252017458161546e+01, 9.253792965546783e+00, 1.020489918676714e+01, 2.066952148720705e+01
228, 2.000000000000797e-04, 9.899999999999593e-03, 7.737297868244496e-04, -5.569319523201944e-05, 1.241620162686479e+01, 6.659292795626146e+00, 6.026610849113764e+00, 1.335747553236825e+01
229, -1.999999999998947e-04, 9.799999999999184e-03, 7.654270538054418e-04, -1.303685028239744e-05, 4.185460873417872e-01, 6.148021703111782e+01, 7.469996733565354e+00, 6.286279554111390e+01
230, -1.499999999997712e-04, 9.799999999999181e-03, 7.651484449335168e-04, -1.829993490207003e-05, 3.921084817776653e+00, 5.324765056531650e+01, 1.392579489894417e+01, 5.664645745954649e+01
231, -9.999999999960086e-05, 9.799999999999184e-03, 7.648700124024828e-04, -2.356268470579336e-05, 6.117183605729734e+00, 4.294015399678865e+01, 1.850273496200263e+01, 5.220475028881241e+01
232, -4.999999999947776e-05, 9.799999999999184e-03, 7.645917657596239e-04, -2.882519179046335e-05, 8.661847986535047e+00, 3.306301295220984e+01, 2.128265392331574e+01, 4.906345160871361e+01
233, 6.154473632113966e-16, 9.799999999999184e-03, 7.643137001190210e-04, -3.408754472781031e-05, 1.114809201189287e+01, 2.398121400690820e+01, 2.226086465405545e+01, 4.633436522413626e+01
234, 5.000000000045551e-05, 9.799999999999184e-03, 7.640358004232631e-04, -3.934984132968466e-05, 1.314680304282124e+01, 1.573976465425855e+01, 2.134554177803140e+01, 4.276975643032262e+01
235, 1.000000000003303e-04, 9.799999999999184e-03, 7.637580455211583e-04, -4.461218499953725e-05, 1.441130901753603e+01, 8.433167478531123e+00, 1.853046862328445e+01, 3.753999528309100e+01
236, 1.500000000001885e-04, 9.799999999999188e-03, 7.634804088405611e-04, -4.987467864866333e-05, 1.473672805366108e+01, 2.245332541404228e+00, 1.391273365994146e+01, 3.050068185161609e+01
237, 2.000000000000778e-04, 9.799999999999188e-03, 7.632028564979862e-04, -5.513741932275821e-05, 1.373617654322426e+01, -2.608315840269492e+00, 7.634549652997732e+00, 2.236711480925594e+01
238, -1.999999999998966e-04, 9.699999999999027e-03, 7.549000161488605e-04, -1.248366543762839e-05, 2.344878573668714e+00, 7.879267010682548e+01, 1.184187391204096e+01, 8.003239807285361e+01
239, -1.499999999997756e-04, 9.699999999998999e-03, 7.546212370630613e-04, -1.774636423412097e-05, 5.138246386275757e+00, 6.536266315714461e+01, 1.911700677161020e+01, 7.133596685413657e+01
240, -9.999999999960846e-05, 9.699999999998973e-03, 7.543426953300262e-04, -2.300869687481894e-05, 7.962113467859050e+00, 5.161588927735041e+01, 2.422558606071981e+01, 6.521631868149797e+01
241, -4.999999999948794e-05, 9.699999999998947e-03, 7.540643936805554e-04, -2.827076981440806e-05, 1.048051340854527e+01, 3.780735552822547e+01, 2.711388014573645e+01, 6.072401737750371e+01
242, 6.026266725217555e-16, 9.699999999998920e-03, 7.537863270394348e-04, -3.353269478765408e-05, 1.273937367580763e+01, 2.457835680004325e+01, 2.775940047404710e+01, 5.676705717341743e+01
243, 5.000000000044535e-05, 9.699999999998892e-03, 7.535084814043744e-04, -3.879458537695002e-05, 1.449337983554318e+01, 1.222227689499403e+01, 2.615297687181063e+01, 5.235523570376145e+01
244, 1.000000000003228e-04, 9.699999999998864e-03, 7.532308348203686e-04, -4.405655762189551e-05, 1.547224131127984e+01, 9.449445341499891e-01, 2.229950365620093e+01, 4.690537074688230e+01
245, 1.500000000001842e-04, 9.699999999998836e-03, 7.529533579084574e-04, -4.931872840855732e-05, 1.542704956663995e+01, -9.017489862809569e+00, 1.623517653818158e+01, 4.064307243333848e+01
246, 2.000000000000759e-04, 9.699999999998809e-03, 7.526760130695841e-04, -5.458121462118431e-05, 1.420505127756692e+01, -1.726018815130498e+01, 8.008767850403142e+00, 3.530754511776257e+01
247, -1.999999999998985e-04, 9.599999999999352e-03, 7.443733745401138e-04, -1.193118751718795e-05, 3.418180026988582e+00, 9.909921064809166e+01, 1.650920668047630e+01, 1.012179590862768e+02
248, -1.499999999997800e-04, 9.599999999999241e-03, 7.440943873145123e-04, -1.719335205103366e-05, 6.133537117323462e+00, 8.070676752134705e+01, 2.455814951510067e+01, 8.929489080185800e+01
249, -9.999999999961608e-05, 9.599999999999132e-03, 7.438157054625191e-04, -2.245511457411262e-05, 8.931799526209531e+00, 6.202873526550577e+01, 2.999486926001006e+01, 8.011275374497708e+01
250, -4.999999999949810e-05, 9.599999999999024e-03, 7.435373331568894e-04, -2.771660131357583e-05, 1.153601324063539e+01, 4.344355182728626e+01, 3.280856606595237e+01, 7.296368307503714e+01
251, 5.898059818321144e-16, 9.599999999998917e-03, 7.432592647919669e-04, -3.297794143465406e-05, 1.369808269101958e+01, 2.529180561402668e+01, 3.299154982908372e+01, 6.699390906429565e+01
252, 5.000000000043517e-05, 9.599999999998809e-03, 7.429814861440970e-04, -3.823926629422481e-05, 1.524203849586426e+01, 7.955184195391000e+00, 3.055000078303726e+01, 6.153298657606857e+01
253, 1.000000000003152e-04, 9.599999999998698e-03, 7.427039745410089e-04, -4.350070837076633e-05, 1.595793910526805e+01, -8.241018137598999e+00, 2.550208810700953e+01, 5.645365818893241e+01
254, 1.500000000001798e-04, 9.599999999998591e-03, 7.424266990773918e-04, -4.876240106439355e-05, 1.565754832580564e+01, -2.296265785977278e+01, 1.787369221417242e+01, 5.262504935184821e+01
255, 2.000000000000740e-04, 9.599999999998483e-03, 7.421496208519395e-04, -5.402447834496617e-05, 1.419224502221116e+01, -3.584287334401639e+01, 7.690883540350200e+00, 5.234607748864589e+01
256, -1.999999999999004e-04, 9.499999999999719e-03, 7.338474354446806e-04, -1.137957070063563e-05, 4.042406572601594e+00, 1.224473236372561e+02, 2.137916674699531e+01, 1.258888377429509e+02
257, -1.499999999997843e-04, 9.499999999999528e-03, 7.335682140616291e-04, -1.664102841067837e-05, 6.917925371535041e+00, 9.844498645287118e+01, 3.014536871245278e+01, 1.096000726707129e+02
258, -9.999999999962368e-05, 9.499999999999330e-03, 7.332893795032975e-04, -2.190204232336744e-05, 9.755575769786548e+00, 7.407434589481929e+01, 3.584702954180951e+01, 9.631688480366388e+01
259, -4.999999999950831e-05, 9.499999999999136e-03, 7.330109358558459e-04, -2.716276002679889e-05, 1.233438930068148e+01, 4.976561080833581e+01, 3.850496175065732e+01, 8.562490678087430e+01
260, 5.769988436696294e-16, 9.499999999998942e-03, 7.327328775172781e-04, -3.242333007839930e-05, 1.442989287655407e+01, 2.590446288916792e+01, 3.813895646529249e+01, 7.713615078560946e+01
261, 5.000000000042495e-05, 9.499999999998747e-03, 7.324551897010159e-04, -3.768390201670028e-05, 1.582974639497583e+01, 2.856270537587756e+00, 3.477141452997295e+01, 7.074260491021721e+01
262, 1.000000000003075e-04, 9.499999999998551e-03, 7.321778489041260e-04, -4.294462611017292e-05, 1.634647702123357e+01, -1.901073222021457e+01, 2.843062319315167e+01, 6.695769997503977e+01
263, 1.500000000001755e-04, 9.499999999998359e-03, 7.319008232001028e-04, -4.820565296754224e-05, 1.580229194379345e+01, -3.933843954470586e+01, 1.915096883035974e+01, 6.713820594603658e+01
264, 2.000000000000721e-04, 9.499999999998164e-03, 7.316240725518128e-04, -5.346713324156870e-05, 1.404361249058842e+01, -5.776954739781687e+01, 6.976606019470500e+00, 7.315614847271083e+01
265, -1.999999999999023e-04, 9.400000000000087e-03, 7.233225733055301e-04, -1.082897107098882e-05, 4.453336622419773e+00, 1.488572532180864e+02, 2.646684504436636e+01, 1.538000867183704e+02
266, -1.499999999997887e-04, 9.399999999999811e-03, 7.230430988975664e-04, -1.608951651984342e-05, 7.545475155157966e+00, 1.183634570661502e+02, 3.588423519191598e+01, 1.320277942558307e+02
267, -9.999999999963125e-05, 9.399999999999530e-03, 7.227641061684916e-04, -2.134957422991574e-05, 1.049923512503766e+01, 8.750685234451583e+01, 4.179505052422766e+01, 1.136550839299001e+02
268, -4.999999999951849e-05, 9.399999999999249e-03, 7.224855982663557e-04, -2.660931257239989e-05, 1.309649091343649e+01, 5.669858397212450e+01, 4.424437975983042e+01, 9.864787418098201e+01
269, 5.641646004528322e-16, 9.399999999998968e-03, 7.222075688057360e-04, -3.186890000539178e-05, 1.513366745029971e+01, 2.634370893325632e+01, 4.327031319158508e+01, 8.726365248395838e+01
270, 5.000000000041476e-05, 9.399999999998687e-03, 7.219300021767887e-04, -3.712850511805063e-05, 1.641104107890851e+01, -3.169092571200350e+00, 3.891059803759642e+01, 8.024662106487560e+01
271, 1.000000000003000e-04, 9.399999999998406e-03, 7.216528738351684e-04, -4.238829653538068e-05, 1.673584916130259e+01, -3.146329603970375e+01, 3.120601093407191e+01, 7.885694688343796e+01
272, 1.500000000001711e-04, 9.399999999998125e-03, 7.213761505841861e-04, -4.764844268836598e-05, 1.592507382606588e+01, -5.817029306868473e+01, 2.020351527992801e+01, 8.439698758802261e+01
273, 2.000000000000702e-04, 9.399999999997844e-03, 7.210997908348005e-04, -5.290911139039661e-05, 1.379168284561991e+01, -8.294063190053315e+01, 5.958728935413781e+00, 9.746366768315139e+01
274, -1.999999999999042e-04, 9.300000000000464e-03, 7.127992191995143e-04, -1.027954463396892e-05, 5.057160990226564e+00, 1.785555055782114e+02, 3.178999543558882e+01, 1.847811971331233e+02
275, -1.499999999997930e-04, 9.300000000000100e-03, 7.125194791506628e-04, -1.553894152019208e-05, 8.322149420217157e+00, 1.406546822897022e+02, 4.178188254375110e+01, 1.565081534337831e+02
276, -9.999999999963886e-05, 9.299999999999729e-03, 7.122403279163100e-04, -2.079780585241472e-05, 1.135000775619292e+01, 1.024230044749033e+02, 4.784728822639033e+01, 1.321050441648740e+02
277, -4.999999999952863e-05, 9.299999999999361e-03, 7.119617673955361e-04, -2.605632642497033e-05, 1.395075761470619e+01, 6.428231018995619e+01, 5.003879088164662e+01, 1.120213709799331e+02
278, 5.513303572360351e-16, 9.299999999998993e-03, 7.116837900560302e-04, -3.131469161410310e-05, 1.592196801449552e+01, 2.663543033572460e+01, 4.840546438251903e+01, 9.740192094233905e+01
279, 5.000000000040461e-05, 9.299999999998625e-03, 7.114063791004298e-04, -3.657308942302546e-05, 1.706426097785319e+01, -1.012345243479596e+01, 4.299622067642810e+01, 9.018797996647201e+01
280, 1.000000000002923e-04, 9.299999999998258e-03, 7.111295086525606e-04, -4.183170740578394e-05, 1.718187645571686e+01, -4.560887985106999e+01, 3.386237489327161e+01, 9.235432210366865e+01
281, 1.500000000001668e-04, 9.299999999997890e-03, 7.108531439353538e-04, -4.709073248405363e-05, 1.608126190818839e+01, -7.944436607193566e+01, 2.105988516539521e+01, 1.043993326306045e+02
282, 2.000000000000683e-04, 9.299999999997520e-03, 7.105772414047375e-04, -5.235035069525860e-05, 1.357278102967982e+01, -1.112579203809618e+02, 4.651321531864014e+00, 1.251768476302383e+02
283, -1.999999999999061e-04, 9.200000000000841e-03, 7.022778710973190e-04, -9.731453848225564e-06, 5.516866281202372e+00, 2.112516733354142e+02, 3.738749536221798e+01, 2.189020558868127e+02
284, -1.499999999997973e-04, 9.200000000000397e-03, 7.019978539570478e-04, -1.498943532563336e-05, 9.002277366420646e+00, 1.651276430100366e+02, 4.787696963824144e+01, 1.831500660232399e+02
285, -9.999999999964642e-05, 9.199999999999951e-03, 7.017185454626953e-04, -2.024683951040056e-05, 1.216413262080564e+01, 1.187277011029770e+02, 5.403336546469023e+01, 1.517702621115795e+02
286, -4.999999999953884e-05, 9.199999999999505e-03, 7.014399458553447e-04, -2.550387526873898e-05, 1.480721505046371e+01, 7.246445319498835e+01, 5.590868147538998e+01, 1.258073120598357e+02
287, 5.385367716007061e-16, 9.199999999999058e-03, 7.011620460302078e-04, -3.076075087101314e-05, 1.673539391383022e+01, 2.674476236710058e+01, 5.355773261414298e+01, 1.075821097948235e+02
288, 5.000000000039439e-05, 9.199999999998614e-03, 7.008848276055216e-04, -3.601767394401581e-05, 1.775145083471077e+01, -1.803162924292157e+01, 4.703632399138100e+01, 1.006483577527766e+02
289, 1.000000000002848e-04, 9.199999999998171e-03, 7.006082630181701e-04, -4.127485138663975e-05, 1.765872056684658e+01, -6.147103154046496e+01, 3.640241420282643e+01, 1.075270231511183e+02
290, 1.500000000001625e-04, 9.199999999997726e-03, 7.003323156121067e-04, -4.653248924056000e-05, 1.626166208265839e+01, -1.031844118404737e+02, 2.171747512914797e+01, 1.270982276807626e+02
291, 2.000000000000664e-04, 9.199999999997280e-03, 7.000569397068779e-04, -5.179079250958180e-05, 1.336587512055298e+01, -1.427857251036112e+02, 3.047719363668699e+00, 1.562705238547754e+02
292, -1.999999999999080e-04, 9.100000000001274e-03, 6.917590731019042e-04, -9.184866561526411e-06, 6.148154967256747e+00, 2.471846903394851e+02, 4.328728469161776e+01, 2.561128021949316e+02
293, -1.499999999998017e-04, 9.100000000000802e-03, 6.914787718828918e-04, -1.444113642445499e-05, 9.802657058098585e+00, 1.919653254362398e+02, 5.420553231051257e+01, 2.119815951513449e+02
294, -9.999999999965405e-05, 9.100000000000334e-03, 6.911993108947319e-04, -1.969678457572745e-05, 1.306818094517470e+01, 1.365478741775514e+02, 6.038123556091499e+01, 1.727159780454972e+02
295, -4.999999999954905e-05, 9.099999999999862e-03, 6.909206886968455e-04, -2.495203990645139e-05, 1.573751953247919e+01, 8.133538883219546e+01, 6.187176829497832e+01, 1.400555008004063e+02
296, 5.257025283839090e-16, 9.099999999999390e-03, 6.906428944543886e-04, -3.020713062204475e-05, 1.761089365268516e+01, 2.673332052921054e+01, 5.873488132439520e+01, 1.178234433755893e+02
297, 5.000000000038422e-05, 9.099999999998916e-03, 6.903659080032312e-04, -3.546228414352393e-05, 1.848974337149445e+01, -2.685556703268489e+01, 5.102999957128603e+01, 1.116800814856131e+02
298, 1.000000000002772e-04, 9.099999999998446e-03, 6.900896999011176e-04, -4.071772702970128e-05, 1.817591311058685e+01, -7.903149963322326e+01, 3.881851048727661e+01, 1.244057398922922e+02
299, 1.500000000001581e-04, 9.099999999997978e-03, 6.898142314693226e-04, -4.597368487917750e-05, 1.647130160064594e+01, -1.293972124679572e+02, 2.216441423136070e+01, 1.524554637573205e+02
300, 2.000000000000645e-04, 9.099999999997506e-03, 6.895394548141321e-04, -5.123038221244895e-05, 1.317712041953541e+01, -1.775572217668931e+02, 1.135173456452204e+00, 1.907478538919758e+02
301, -1.999999999999099e-04, 9.000000000001736e-03, 6.812434292063617e-04, -8.639955861579939e-06, 6.866662158272540e+00, 2.863020588871457e+02, 4.948323513225171e+01, 2.964430859062791e+02
302, -1.499999999998060e-04, 9.000000000001264e-03, 6.809628394438029e-04, -1.389418938979653e-05, 1.069415541176930e+01, 2.211685268891432e+02, 6.076232679803125e+01, 2.430384794234003e+02
303, -9.999999999966160e-05, 9.000000000000792e-03, 6.806832332360803e-04, -1.914775709517668e-05, 1.404923872208800e+01, 1.559052395514354e+02, 6.688983275643787e+01, 1.949874967171811e+02
304, -4.999999999955923e-05, 9.000000000000320e-03, 6.804046073599645e-04, -2.440090808706752e-05, 1.673042253044223e+01, 9.092185474218122e+01, 6.792596099040500e+01, 1.547905466089876e+02
305, 5.128818376942679e-16, 8.999999999999852e-03, 6.801269491508594e-04, -2.965389062375422e-05, 1.853534424288987e+01, 2.662428124499247e+01, 6.393132476275875e+01, 1.281182580489967e+02
306, 5.000000000037403e-05, 8.999999999999380e-03, 6.798502365485627e-04, -3.490695209456232e-05, 1.926334321424054e+01, -3.658223250279384e+01, 5.496749387602591e+01, 1.233062442020306e+02
307, 1.000000000002695e-04, 8.999999999998908e-03, 6.795744381272986e-04, -4.016033896099029e-05, 1.871430535756649e+01, -9.829360747476861e+01, 4.109759017863709e+01, 1.429926548440309e+02
308, 1.500000000001538e-04, 8.999999999998436e-03, 6.792995131134975e-04, -4.541429668944710e-05, 1.668809578153677e+01, -1.581067405924668e+02, 2.238659515793944e+01, 1.804380042953163e+02
309, 2.000000000000626e-04, 8.999999999997964e-03, 6.790254113885806e-04, -5.066906967739946e-05, 1.298344644639732e+01, -2.156193349778052e+02, -1.098613638296322e+00, 2.286133405612776e+02
310, -1.999999999999118e-04, 8.900000000002187e-03, 6.707316016501638e-04, -8.096902919597851e-06, 7.625761314508402e+00, 3.286138126547389e+02, 5.598569980828515e+01, 3.399572376568738e+02
311, -1.499999999998104e-04, 8.900000000001712e-03, 6.704507208947936e-04, -1.334874635540710e-05, 1.162735422271478e+01, 2.527409863769247e+02, 6.755339122048937e+01, 2.763867331695746e+02
312, -9.999999999966923e-05, 8.900000000001240e-03, 6.701709788786475e-04, -1.859988056976685e-05, 1.507283995777354e+01, 1.768138825897916e+02, 7.356078371827941e+01, 2.186433636694290e+02
313, -4.999999999956943e-05, 8.900000000000770e-03, 6.698923704691625e-04, -2.385057488388759e-05, 1.776018777604029e+01, 1.012415646625584e+02, 7.406955054818232e+01, 1.700421523049735e+02
314, 5.000475944774707e-16, 8.900000000000293e-03, 6.696148810795313e-04, -2.910109772336890e-05, 1.948813918819796e+01, 2.643328987368122e+01, 6.914162790569783e+01, 1.384575529028444e+02
315, 5.000000000036387e-05, 8.899999999999823e-03, 6.693384866761437e-04, -3.435171659574804e-05, 2.005511269097948e+01, -4.720273422001952e+01, 5.883978069988709e+01, 1.355437093425829e+02
316, 1.000000000002620e-04, 8.899999999999349e-03, 6.690631537890923e-04, -3.960269805363995e-05, 1.925969975560946e+01, -1.192587529222418e+02, 4.322795123965537e+01, 1.632849803435031e+02
317, 1.500000000001494e-04, 8.899999999998874e-03, 6.687888395181066e-04, -4.485430764597004e-05, 1.690055314751114e+01, -1.893272507021628e+02, 2.237142040652747e+01, 2.110256593039860e+02
318, 2.000000000000606e-04, 8.899999999998404e-03, 6.685154915321080e-04, -5.010680987234659e-05, 1.277679917068772e+01, -2.570001756965841e+02, -3.663296773070816e+00, 2.698764442138790e+02
319, -1.999999999999137e-04, 8.800000000002590e-03, 6.602243089090489e-04, -7.555896329069134e-06, 8.438289512549844e+00, 3.741672775759043e+02, 6.280560182130464e+01, 3.866986775131128e+02
320, -1.499999999998147e-04, 8.800000000002060e-03, 6.599431371571524e-04, -1.280496699137775e-05, 1.260498658164821e+01, 2.867249899024779e+02, 7.458634723300236e+01, 3.120805488890002e+02
321, -9.999999999967683e-05, 8.800000000001532e-03, 6.596632711193281e-04, -1.805328587884751e-05, 1.613155417423513e+01, 1.993051447573548e+02, 8.039856452168814e+01, 2.437381402154873e+02
322, -4.999999999957961e-05, 8.800000000001001e-03, 6.593847037348801e-04, -2.330114254678591e-05, 1.881743324527022e+01, 1.123192859645628e+02, 8.030378388887114e+01, 1.858423721582953e+02
323, 4.872540088421418e-16, 8.800000000000474e-03, 6.591074184555585e-04, -2.854882566396831e-05, 2.046058347152288e+01, 2.617844054005320e+01, 7.436415428894342e+01, 1.488381794496804e+02
324, 5.000000000035368e-05, 8.799999999999947e-03, 6.588313892389139e-04, -3.379662298006628e-05, 2.085865003243843e+01, -5.870645217476572e+01, 6.264281418066881e+01, 1.484152760437350e+02
325, 1.000000000002544e-04, 8.799999999999419e-03, 6.585565805463800e-04, -3.904482128579784e-05, 1.980913238257627e+01, -1.419246237314219e+02, 4.520403392861638e+01, 1.852874161955427e+02
326, 1.500000000001451e-04, 8.799999999998892e-03, 6.582829473440105e-04, -4.429370636901442e-05, 1.710978714237279e+01, -2.230651659342991e+02, 2.211329922549217e+01, 2.442130219622331e+02
327, 2.000000000000587e-04, 8.799999999998365e-03, 6.580104351053004e-04, -4.954356296821242e-05, 1.255913758316495e+01, -3.017167128872110e+02, -6.562668708688611e+00, 3.145498127025322e+02
328, -1.999999999999156e-04, 8.700000000002964e-03, 6.497223268248354e-04, -7.017131878978589e-06, 9.272943363172310e+00, 4.229684529509792e+02, 6.995134414451213e+01, 4.367112740056194e+02
329, -1.499999999998191e-04, 8.700000000002345e-03, 6.494408663795947e-04, -1.226301819799064e-05, 1.359948390846191e+01, 3.231295680856585e+02, 8.186922142028384e+01, 3.501701738792102e+02
330, -9.999999999968445e-05, 8.700000000001731e-03, 6.491608904835454e-04, -1.750811104072617e-05, 1.720390884094960e+01, 2.233904426698082e+02, 8.740974665208248e+01, 2.703234025597562e+02
331, -4.999999999958977e-05, 8.700000000001117e-03, 6.488823901450120e-04, -2.275272025902331e-05, 1.988448333885808e+01, 1.241646593424315e+02, 8.663321064755084e+01, 2.022266249922297e+02
332, 4.743926605710325e-16, 8.700000000000502e-03, 6.486053468380955e-04, -2.799715485511456e-05, 2.143839879978655e+01, 2.586574644824377e+01, 7.960147716703045e+01, 1.592645035024860e+02
333, 5.000000000034347e-05, 8.699999999999888e-03, 6.483297324902167e-04, -3.324172293115173e-05, 2.166231317327482e+01, -7.109283035469848e+01, 6.637767890456064e+01, 1.619490712474843e+02
334, 1.000000000002468e-04, 8.699999999999274e-03, 6.480555094778314e-04, -3.848673163949364e-05, 2.035278280481930e+01, -1.662975392190677e+02, 4.702619512824182e+01, 2.090076429812522e+02
335, 1.500000000001407e-04, 8.699999999998657e-03, 6.477826306252245e-04, -4.373248713417999e-05, 1.730635755967832e+01, -2.593348408902251e+02, 2.161267152257854e+01, 2.799978267079414e+02
336, 2.000000000000568e-04, 8.699999999998044e-03, 6.475110392050507e-04, -4.897929451944784e-05, 1.231976164704579e+01, -3.497911332768301e+02, -9.795827686942117e+00, 3.626405012996471e+02
337, -1.999999999999175e-04, 8.600000000003331e-03, 6.392264875437763e-04, -6.480812296098165e-06, 1.013407043965022e+01, 4.750453681549782e+02, 7.743019659124070e+01, 4.900247505177500e+02
338, -1.499999999998235e-04, 8.600000000002632e-03, 6.389447433249939e-04, -1.172307377254008e-05, 1.461181686466990e+01, 3.619772940471664e+02, 8.941052352232295e+01, 3.906913636163038e+02
339, -9.999999999969208e-05, 8.600000000001931e-03, 6.386646743755502e-04, -1.696450086555039e-05, 1.828778717131957e+01, 2.490867868801574e+02, 9.460171908690462e+01, 2.984394734002032e+02
340, -4.999999999959999e-05, 8.600000000001230e-03, 6.383862697913252e-04, -2.220542383808748e-05, 2.095743104538435e+01, 1.367894367847948e+02, 9.306362284330152e+01, 2.192268349005110e+02
341, 4.615584173542353e-16, 8.600000000000526e-03, 6.381095090651326e-04, -2.744617214166342e-05, 2.241609861651136e+01, 2.550098993240022e+01, 8.485776965224521e+01, 1.697435737689203e+02
342, 5.000000000033329e-05, 8.599999999999825e-03, 6.378343620845236e-04, -3.268707434546329e-05, 2.245918991026466e+01, -8.436256976002207e+01, 7.004720087088268e+01, 1.761741460556561e+02
343, 1.000000000002392e-04, 8.599999999999124e-03, 6.375607891292834e-04, -3.792845808053908e-05, 2.088205246620905e+01, -1.923851856703415e+02, 4.869630159965846e+01, 2.344530529132255e+02
344, 1.500000000001364e-04, 8.599999999998423e-03, 6.372887408705756e-04, -4.317064998700188e-05, 1.747997666627244e+01, -2.981507816345344e+02, 2.087074590854779e+01, 3.183789059040486e+02
345, 2.000000000000548e-04, 8.599999999997722e-03, 6.370181583697879e-04, -4.841397566495504e-05, 1.204752164062548e+01, -4.012437872036743e+02, -1.336249955793331e+01, 4.141544778750768e+02
346, -1.999999999999195e-04, 8.500000000003703e-03, 6.287376802395356e-04, -5.947146891588720e-06, 1.102441896144222e+01, 5.304176536675094e+02, 8.524625995766768e+01, 5.466598865890132e+02
347, -1.499999999998278e-04, 8.500000000002915e-03, 6.284556599294280e-04, -1.118531401887066e-05, 1.564761923967642e+01, 4.032863157537555e+02, 9.721432528127718e+01, 4.336660687611035e+02
348, -9.999999999969967e-05, 8.500000000002127e-03, 6.281755175487779e-04, -1.642260657324550e-05, 1.938858206166746e+01, 2.764091849788905e+02, 1.019783674351786e+02, 3.281126940898661e+02
349, -4.999999999961013e-05, 8.500000000001340e-03, 6.278972402813688e-04, -2.165937540184609e-05, 2.203999948426826e+01, 1.502041416911322e+02, 9.959820991714332e+01, 2.368654914132040e+02
350, 4.487512791917503e-16, 8.500000000000552e-03, 6.276208056407518e-04, -2.689597053707973e-05, 2.339579950259913e+01, 2.508977720235685e+01, 9.013538814625758e+01, 1.802787351452004e+02
351, 5.000000000032310e-05, 8.499999999999765e-03, 6.273461814724733e-04, -3.213274113981081e-05, 2.324995260282000e+01, -9.851536363805239e+01, 7.365285770491937e+01, 1.911171526358742e+02
352, 1.000000000002316e-04, 8.499999999998977e-03, 6.270733259556853e-04, -3.737003544037334e-05, 2.139649586224868e+01, -2.201926760905939e+02, 5.021494995223157e+01, 2.616323619120552e+02
353, 1.500000000001320e-04, 8.499999999998190e-03, 6.268021876034250e-04, -4.260820068540641e-05, 1.762951324843153e+01, -3.395234767241215e+02, 1.988729677774037e+01, 3.593609279524393e+02
354, 2.000000000000531e-04, 8.499999999997402e-03, 6.265327052630689e-04, -4.784758308818614e-05, 1.174330649995882e+01, -4.560888189767122e+02, -1.726339893963925e+01, 4.691044632060285e+02
355, -1.999999999999213e-04, 8.400000000004074e-03, 6.182568518749897e-04, -5.416351425710359e-06, 1.197538707907103e+01, 5.891320929976558e+02, 9.339541876948729e+01, 6.066305961417570e+02
356, -1.499999999998322e-04, 8.400000000003200e-03, 6.179745660568360e-04, -1.064992551925095e-05, 1.673036519383454e+01, 4.470907930080949e+02, 1.052780769765004e+02, 4.791074950321200e+02
357, -9.999999999970726e-05, 8.400000000002326e-03, 6.176943727817294e-04, -1.588258557027610e-05, 2.052251499226946e+01, 3.053810934462552e+02, 1.095380986673885e+02, 3.593588595784050e+02
358, -4.999999999962035e-05, 8.400000000001451e-03, 6.174162573350196e-04, -2.111470315214358e-05, 2.314399902214713e+01, 1.644244002998392e+02, 1.062361817423189e+02, 2.551561424499393e+02
359, 4.359305885021092e-16, 8.400000000000581e-03, 6.171401952606442e-04, -2.634664902378059e-05, 2.438654446899109e+01, 2.464128842573145e+01, 9.543400821365022e+01, 1.908681864255427e+02
360, 5.000000000031294e-05, 8.399999999999703e-03, 6.168661523724971e-04, -3.157879306713378e-05, 2.404241819828190e+01, -1.135474683900649e+02, 7.719459687011953e+01, 2.068018376010117e+02
361, 1.000000000002240e-04, 8.399999999998832e-03, 6.165940847587931e-04, -3.681150423676279e-05, 2.190411879280627e+01, -2.497209482140741e+02, 5.158223464060940e+01, 2.905565087010921e+02
362, 1.500000000001277e-04, 8.399999999997958e-03, 6.163239387841238e-04, -4.204515050779604e-05, 1.776435285460230e+01, -3.834580207148911e+02, 1.866249808722159e+01, 4.029547721421851e+02
363, 2.000000000000511e-04, 8.399999999997083e-03, 6.160556510912019e-04, -4.728009882426564e-05, 1.141671394201390e+01, -5.143368619663910e+02, -2.149764246165132e+01, 5.275086891285401e+02
364, -1.999999999999233e-04, 8.300000000004210e-03, 6.077850091118599e-04, -4.888648481204963e-06, 1.294573980909807e+01, 6.511769551354165e+02, 1.018791648203999e+02, 6.699675672112184e+02
365, -1.499999999998365e-04, 8.300000000003279e-03, 6.075024708755446e-04, -1.011710142476069e-05, 1.783311004254014e+01, 4.933853012178205e+02, 1.136007264197037e+02, 5.270392648597901e+02
366, -9.999999999971485e-05, 8.300000000002344e-03, 6.072222519134755e-04, -1.534460159367513e-05, 2.167477930842409e+01, 3.360021118446605e+02, 1.172795841124783e+02, 3.921985152671148e+02
367, -4.999999999963053e-05, 8.300000000001409e-03, 6.069443355717636e-04, -2.057154144042483e-05, 2.426119293636437e+01, 1.794507094078673e+02, 1.129762757467521e+02, 2.741137383442930e+02
368, 4.231098978124681e-16, 8.300000000000474e-03, 6.066686954106373e-04, -2.579831256893541e-05, 2.538382768691260e+01, 2.415470419319666e+01, 1.007528242757001e+02, 2.015093971572622e+02
369, 5.000000000030276e-05, 8.299999999999542e-03, 6.063952952095816e-04, -3.102530570337724e-05, 2.483418219872128e+01, -1.294624192818957e+02, 8.067227734708469e+01, 2.232476350556219e+02
370, 1.000000000002164e-04, 8.299999999998609e-03, 6.061240889707297e-04, -3.625291064120438e-05, 2.240372669597473e+01, -2.809772152640563e+02, 5.279885011467760e+01, 3.212333579164600e+02
371, 1.500000000001233e-04, 8.299999999997672e-03, 6.058550209196478e-04, -4.148151620605402e-05, 1.788391503223733e+01, -4.299661014461617e+02, 1.719798986029132e+01, 4.491689222115005e+02
372, 2.000000000000492e-04, 8.299999999996739e-03, 6.055880255039202e-04, -4.671151019615160e-05, 1.106574360085978e+01, -5.760056300864096e+02, -2.606341520985082e+01, 5.893810348600148e+02
373, -1.999999999999252e-04, 8.200000000004194e-03, 5.973232168084672e-04, -4.364267225873291e-06, 1.399077201557016e+01, 7.166206054374425e+02, 1.106914765991259e+02, 7.366811350789616e+02
374, -1.499999999998408e-04, 8.200000000003217e-03, 5.970404422009421e-04, -9.587041281229194e-06, 1.899096152702879e+01, 5.422169734421977e+02, 1.221782137833420e+02, 5.774733961299037e+02
375, -9.999999999972244e-05, 8.200000000002240e-03, 5.967602256536476e-04, -1.480882465865669e-05, 2.286460360002784e+01, 3.683019882587632e+02, 1.251988391232512e+02, 4.266450327744436e+02
376, -4.999999999964069e-05, 8.200000000001265e-03, 5.964825485880909e-04, -2.003003076102871e-05, 2.540145822846591e+01, 1.953007084490434e+02, 1.198151301575317e+02, 2.937489010773988e+02
377, 4.102892071228270e-16, 8.200000000000287e-03, 5.962073825892472e-04, -2.525107215139952e-05, 2.639159173990121e+01, 2.363856145278704e+01, 1.060891602444080e+02, 2.121961801287113e+02
378, 5.000000000029257e-05, 8.199999999999309e-03, 5.959346894108378e-04, -3.047236050542940e-05, 2.562493374453179e+01, -1.462593204092770e+02, 8.408402913445514e+01, 2.404676540575608e+02
379, 1.000000000002088e-04, 8.199999999998328e-03, 5.956644209796771e-04, -3.569430657349733e-05, 2.289149160955393e+01, -3.139676508057196e+02, 5.386382362624461e+01, 3.536655592665341e+02
380, 1.500000000001190e-04, 8.199999999997352e-03, 5.953965193954270e-04, -4.091732014143445e-05, 1.798107085108175e+01, -4.790609772179625e+02, 1.549367756423451e+01, 4.980070418443177e+02
381, 2.000000000000473e-04, 8.199999999996377e-03, 5.951309169245949e-04, -4.614180998968745e-05, 1.068289862670505e+01, -6.411136202979552e+02, -3.096020916489567e+01, 6.547311206048186e+02
382, -1.999999999999271e-04, 8.100000000004175e-03, 5.868726009260089e-04, -3.843443588934486e-06, 1.505300877018172e+01, 7.854414839968222e+02, 1.198320390967876e+02, 8.068068375629970e+02
383, -1.499999999998452e-04, 8.100000000003150e-03, 5.865896083607296e-04, -9.059951276366883e-06, 2.016544078661473e+01, 5.935752669285814e+02, 1.310072678149794e+02, 6.304367102235906e+02
384, -9.999999999973005e-05, 8.100000000002133e-03, 5.863094248679691e-04, -1.427543120869297e-05, 2.406698361609239e+01, 4.022757538461155e+02, 1.332927160138541e+02, 4.627198574173215e+02
385, -4.999999999965090e-05, 8.100000000001112e-03, 5.860320299153456e-04, -1.949031786075157e-05, 2.654871245207568e+01, 2.119721085740536e+02, 1.267494627945355e+02, 3.140756932718947e+02
386, 3.974685164331859e-16, 8.100000000000092e-03, 5.857573930904294e-04, -2.470504484615784e-05, 2.739917929898606e+01, 2.309067564380516e+01, 1.114398807049824e+02, 2.229214015071445e+02
387, 5.000000000028236e-05, 8.099999999999071e-03, 5.854854741129868e-04, -2.992004488528385e-05, 2.640749394840149e+01, -1.639417304149816e+02, 8.742707477147808e+01, 2.584701159285771e+02
388, 1.000000000002012e-04, 8.099999999998051e-03, 5.852162228372675e-04, -3.513574977584804e-05, 2.336273261702601e+01, -3.486980619649547e+02, 5.477491300991390e+01, 3.878535796482346e+02
389, 1.500000000001146e-04, 8.099999999997031e-03, 5.849495792499563e-04, -4.035259036354827e-05, 1.805380728964861e+01, -5.307508834906018e+02, 1.354804926893595e+01, 5.494731905911156e+02
390, 2.000000000000454e-04, 8.099999999996011e-03, 5.846854734631071e-04, -4.557099651554840e-05, 1.026929804125211e+01, -7.096722404725605e+02, -3.618807423803769e+01, 7.235704013749225e+02
391, -1.999999999999291e-04, 8.000000000004158e-03, 5.764343463308800e-04, -3.326420316438459e-06, 1.613612100688101e+01, 8.576546798786308e+02, 1.293050495398586e+02, 8.803593972188903e+02
392, -1.499999999998495e-04, 8.000000000003093e-03, 5.761511569712650e-04, -8.536044109474786e-06, 2.135506964683258e+01, 6.474686372154571e+02, 1.400908336866545e+02, 6.859445795584348e+02
393, -9.999999999973761e-05, 8.000000000002028e-03, 5.758710399626344e-04, -1.374460402083737e-05, 2.528238902832842e+01, 4.379326527187499e+02, 1.415611779740373e+02, 5.004383164400610e+02
394, -4.999999999966106e-05, 8.000000000000966e-03, 5.755939727735776e-04, -1.895255566208058e-05, 2.770305335043635e+01, 2.294719200855683e+02, 1.337777608680317e+02, 3.351068975641006e+02
395, 3.846478257435448e-16, 7.999999999999901e-03, 5.753199229819273e-04, -2.416035376034221e-05, 2.840660668699338e+01, 2.251528384097686e+01, 1.168029059126345e+02, 2.336800868782339e+02
396, 5.000000000027218e-05, 7.999999999998840e-03, 5.750488482740926e-04, -2.936845214861468e-05, 2.718209062404770e+01, -1.825085999933881e+02, 9.069940905298368e+01, 2.772647055466293e+02
397, 1.000000000001936e-04, 7.999999999997775e-03, 5.747806964437394e-04, -3.457730374472478e-05, 2.381828601420143e+01, -3.851708201956300e+02, 5.553067721946937e+01, 4.238003226144693e+02
398, 1.500000000001103e-04, 7.999999999996709e-03, 5.745154053864312e-04, -3.978736053001822e-05, 1.810370952255110e+01, -5.850420325379090e+02, 1.136077421547590e+01, 6.035735704359189e+02
399, 2.000000000000435e-04, 7.999999999995648e-03, 5.742529030928150e-04, -4.499907352690876e-05, 9.826727449255948e+00, -7.816922539995610e+02, -4.174561805583811e+01, 7.959102238954015e+02
400, -1.999999999999309e-04, 7.900000000004136e-03, 5.660096970663264e-04, -2.813445794588115e-06, 1.732116318118464e+01, 9.333400888430922e+02, 1.390957254425873e+02, 9.573302228157188e+02
401, -1.499999999998538e-04, 7.900000000003030e-03, 5.657263352924206e-04, -8.015538293135469e-06, 2.262112604464120e+01, 7.039609328054570e+02, 1.494168672593611e+02, 7.439929658022796e+02
402, -9.999999999974523e-05, 7.900000000001926e-03, 5.654463212172585e-04, -1.321653176535395e-05, 2.654578460899609e+01, 4.753130629445562e+02, 1.499950463743762e+02, 5.398019320566675e+02
403, -4.999999999967128e-05, 7.900000000000816e-03, 5.651696303731709e-04, -1.841690298611609e-05, 2.888479151380424e+01, 2.478259303290267e+02, 1.408932183270506e+02, 3.568456503138609e+02
404, 3.718271350539037e-16, 7.899999999999709e-03, 5.648962283702546e-04, -2.361712785395524e-05, 2.942546555679506e+01, 2.192780975328356e+01, 1.221733721622606e+02, 2.444617481417918e+02
405, 5.000000000026201e-05, 7.899999999998603e-03, 5.646260709000914e-04, -2.881768137345640e-05, 2.795551649879291e+01, -2.019521229622881e+02, 9.389791470962020e+01, 2.968582089648640e+02
406, 1.000000000001860e-04, 7.899999999997496e-03, 5.643591037318328e-04, -3.401903764567925e-05, 2.426256041358193e+01, -4.233840798149829e+02, 5.612971557349301e+01, 4.615080653567899e+02
407, 1.500000000001060e-04, 7.899999999996389e-03, 5.640952627066573e-04, -3.922166985202024e-05, 1.813394029176310e+01, -6.419377524535934e+02, 8.932216234201359e+00, 6.603133934058421e+02
408, 2.000000000000416e-04, 7.899999999995286e-03, 5.638344737299501e-04, -4.442605023438888e-05, 9.357059642402334e+00, -8.571819522136946e+02, -4.763044428776058e+01, 8.717594255072546e+02
409, -1.999999999999328e-04, 7.800000000004094e-03, 5.555999608947931e-04, -2.304775200413118e-06, 1.848186444652526e+01, 1.012419648459794e+03, 1.492040959257153e+02, 1.037766721114744e+03
410, -1.499999999998583e-04, 7.800000000002947e-03, 5.553164529881181e-04, -7.498658921823869e-06, 2.387083588844155e+01, 7.629980694784539e+02, 1.589814572998424e+02, 8.046176001649176e+02
411, -9.999999999975283e-05, 7.800000000001799e-03, 5.550365805025857e-04, -1.269140947295028e-05, 2.779918174793214e+01, 5.143870299174591e+02, 1.585910793064897e+02, 5.808375467621216e+02
412, -4.999999999968147e-05, 7.800000000000654e-03, 5.547603169890647e-04, -1.788352483698247e-05, 3.005662071044868e+01, 2.670167242943710e+02, 1.480933049479431e+02, 3.793106887132512e+02
413, 3.590064443642627e-16, 7.799999999999507e-03, 5.544876260814933e-04, -2.307550210918675e-05, 3.043163640459420e+01, 2.131724855105397e+01, 1.275497407804739e+02, 2.552622525141723e+02
414, 5.000000000025183e-05, 7.799999999998360e-03, 5.542184614810932e-04, -2.826783751207943e-05, 2.871210508190788e+01, -2.222806653006728e+02, 9.702219853671052e+01, 3.172547853380786e+02
415, 1.000000000001784e-04, 7.799999999997211e-03, 5.539527669462983e-04, -3.346102638188252e-05, 2.468545143712032e+01, -4.633457470889914e+02, 5.657297178723589e+01, 5.009755036747712e+02
416, 1.500000000001016e-04, 7.799999999996065e-03, 5.536904762845526e-04, -3.865556315352240e-05, 1.813871404611130e+01, -7.014461964225801e+02, 6.264855091456589e+00, 7.196939884503012e+02
417, 2.000000000000397e-04, 7.799999999994919e-03, 5.534315133444346e-04, -4.385194134746661e-05, 8.857682097645835e+00, -9.361504105463999e+02, -5.383877190587840e+01, 9.511228882768356e+02
418, -1.999999999999347e-04, 7.700000000003952e-03, 5.452065034782320e-04, -1.800670182977841e-06, 1.967936529321329e+01, 1.094956101988749e+03, 1.596304105849676e+02, 1.121671757874246e+03
419, -1.499999999998626e-04, 7.700000000002785e-03, 5.449228786184295e-04, -6.985637384466263e-06, 2.513964309537926e+01, 8.246216313376075e+02, 1.687885508836744e+02, 8.678304841162180e+02
420, -9.999999999976044e-05, 7.700000000001617e-03, 5.446431891400534e-04, -1.216943837620434e-05, 2.905944624252525e+01, 5.551800496356741e+02, 1.673515321651329e+02, 6.235615692029463e+02
421, -4.999999999969162e-05, 7.700000000000449e-03, 5.443674066656153e-04, -1.735259229010875e-05, 3.122567893372587e+01, 2.870593183460593e+02, 1.553798689786010e+02, 4.025201433347016e+02
422, 3.461857536746216e-16, 7.699999999999279e-03, 5.440954928860064e-04, -2.253561744874336e-05, 3.142688778429006e+01, 2.069106750982581e+01, 1.329338022546952e+02, 2.660842741774253e+02
423, 5.000000000024164e-05, 7.699999999998113e-03, 5.438273995379140e-04, -2.771903133235110e-05, 2.945038987031943e+01, -2.434928324849409e+02, 1.000742866011727e+02, 3.384633717030658e+02
424, 1.000000000001708e-04, 7.699999999996944e-03, 5.435630683905752e-04, -3.290335056012413e-05, 2.508292177481465e+01, -5.050599573955042e+02, 5.686288339863429e+01, 5.422038568367271e+02
425, 1.500000000000973e-04, 7.699999999995776e-03, 5.433024312367155e-04, -3.808909087003676e-05, 1.811084025422799e+01, -7.635773439249411e+02, 3.361761619315903e+00, 7.817170991158293e+02
426, 2.000000000000377e-04, 7.699999999994609e-03, 5.430454098866294e-04, -4.327676709983202e-05, 8.320465879886072e+00, -1.018611260631469e+03, -6.036662989578708e+01, 1.034004492705661e+03
427, -1.999999999999367e-04, 7.600000000003967e-03, 5.348307512531349e-04, -1.301397885522555e-06, 2.090511795200560e+01, 1.180952758949957e+03, 1.703697519564382e+02, 1.209054977621657e+03
428, -1.499999999998669e-04, 7.600000000002791e-03, 5.345470412437116e-04, -6.476710873666541e-06, 2.642664800868265e+01, 8.888423423669620e+02, 1.788332562202102e+02, 9.336413465548570e+02
429, -9.999999999976803e-05, 7.600000000001615e-03, 5.342675788243025e-04, -1.165082552080733e-05, 3.032487671425227e+01, 5.976995880328756e+02, 1.762751569026714e+02, 6.679863672322489e+02
430, -4.999999999970180e-05, 7.600000000000435e-03, 5.339923337629990e-04, -1.682428219533555e-05, 3.239137146338081e+01, 3.079593483281835e+02, 1.627534616465925e+02, 4.264885308952116e+02
431, 3.333650629849805e-16, 7.599999999999259e-03, 5.337212658524101e-04, -2.199762049424281e-05, 3.241247339239737e+01, 2.005337395660720e+01, 1.383274080802715e+02, 2.769307397955084e+02
432, 5.000000000023146e-05, 7.599999999998081e-03, 5.334543248990524e-04, -2.717137921009201e-05, 3.017433400934709e+01, -2.655855646994916e+02, 1.030570556231400e+02, 3.604954154203718e+02
433, 1.000000000001632e-04, 7.599999999996904e-03, 5.331914507132805e-04, -3.234609629988020e-05, 2.546274151623415e+01, -5.485239960055972e+02, 5.700322076328861e+01, 5.851993195147347e+02
434, 1.500000000000929e-04, 7.599999999995727e-03, 5.329325731018420e-04, -3.752230885798536e-05, 1.806333701595139e+01, -8.283276905683407e+02, 2.274299131112407e-01, 8.463911498076143e+02
435, 2.000000000000358e-04, 7.599999999994550e-03, 5.326776118636167e-04, -4.270055309140945e-05, 7.762554876513754e+00, -1.104561193279630e+03, -6.720790615037942e+01, 1.120415874266607e+03
436, -1.999999999999386e-04, 7.500000000004145e-03, 5.244741914462665e-04, -8.072317056155580e-07, 2.211367129474294e+01, 1.270382108495505e+03, 1.814231363975092e+02, 1.299935194151181e+03
437, -1.499999999998712e-04, 7.500000000002950e-03, 5.241904304241593e-04, -5.972122523260050e-06, 2.769318172492630e+01, 9.556336544647806e+02, 1.891191900164672e+02, 1.002066760789221e+03
438, -9.999999999977570e-05, 7.500000000001755e-03, 5.239112416132511e-04, -1.113578375501780e-05, 3.157434516323637e+01, 6.419319124097640e+02, 1.853651799905471e+02, 7.141269913025352e+02
439, -4.999999999971198e-05, 7.500000000000564e-03, 5.236365929270048e-04, -1.629877707829413e-05, 3.354155961301964e+01, 3.297088400474748e+02, 1.702175657121190e+02, 4.512329073857308e+02
440, 3.205443722953394e-16, 7.499999999999370e-03, 5.233664422738118e-04, -2.146166343259241e-05, 3.338141889390339e+01, 1.939866134573147e+01, 1.437346433277598e+02, 2.878091525279977e+02
441, 5.000000000022125e-05, 7.499999999998177e-03, 5.231007375491407e-04, -2.662500297854435e-05, 3.087986184001606e+01, -2.885640864777339e+02, 1.059755949535703e+02, 3.833637215750678e+02
442, 1.000000000001556e-04, 7.499999999996980e-03, 5.228394166280287e-04, -3.178935506591188e-05, 2.582239397123779e+01, -5.937442497868997e+02, 5.700039594566856e+01, 6.299674647230401e+02
443, 1.500000000000885e-04, 7.499999999995787e-03, 5.225824073564107e-04, -3.695527820407692e-05, 1.799410205001902e+01, -8.957060364385098e+02, -3.130142046399218e+00, 9.137215846366328e+02
444, 2.000000000000339e-04, 7.499999999994593e-03, 5.223296275432745e-04, -4.212333002709046e-05, 7.179230966671753e+00, -1.194013416987129e+03, -7.435420858338001e+01, 1.210362743492424e+03
445, -1.999999999999404e-04, 7.400000000004559e-03, 5.141383696537688e-04, -3.184501679571810e-07, 2.339813080444760e+01, 1.363324024039369e+03, 1.927785968376428e+02, 1.394293996600488e+03
446, -1.499999999998756e-04, 7.400000000003323e-03, 5.138545949468646e-04, -5.472120694982582e-06, 2.901131822740838e+01, 1.025056482507180e+03, 1.996391835239917e+02, 1.073093278181175e+03
447, -9.999999999978329e-05, 7.400000000002085e-03, 5.135757292904840e-04, -1.062453120044087e-05, 3.285210456578456e+01, 6.879144531049907e+02, 1.946170165165309e+02, 7.619775672189327e+02
448, -4.999999999972218e-05, 7.400000000000849e-03, 5.133017388149478e-04, -1.577626477380883e-05, 3.470310677544639e+01, 3.523305228409570e+02, 1.777697999755498e+02, 4.767552648580202e+02
449, 3.077507866600104e-16, 7.399999999999613e-03, 5.130325795999041e-04, -2.092790377125784e-05, 3.434870285730217e+01, 1.873918542494626e+01, 1.491551543404976e+02, 2.987184247746055e+02
450, 5.000000000021107e-05, 7.399999999998373e-03, 5.127681976788174e-04, -2.608002978449099e-05, 3.157349583000955e+01, -3.124241362761506e+02, 1.088314292784205e+02, 4.070767628958702e+02
451, 1.000000000001480e-04, 7.399999999997137e-03, 5.125085290338578e-04, -3.123322361603468e-05, 2.616177709274110e+01, -6.407232842373667e+02, 5.685768483056568e+01, 6.765108057691535e+02
452, 1.500000000000842e-04, 7.399999999995899e-03, 5.122534995871164e-04, -3.638806525385428e-05, 1.789720161537974e+01, -9.657214649536515e+02, -6.706271464753904e+00, 9.837101084826134e+02
453, 2.000000000000320e-04, 7.399999999994663e-03, 5.120030251867941e-04, -4.154513384608006e-05, 6.562416950679079e+00, -1.286981286263449e+03, -8.179981140053491e+01, 1.303848207693507e+03
454, -1.999999999999424e-04, 7.300000000004963e-03, 5.038248950060697e-04, 1.646626130517614e-07, 2.469599880482484e+01, 1.459744795923815e+03, 2.044247071098953e+02, 1.492153776800678e+03
455, -1.499999999998800e-04, 7.300000000003675e-03, 5.035411461561706e-04, -4.976959197700989e-06, 3.034294042918341e+01, 1.097092421365752e+03, 2.103806060462613e+02, 1.146732075368962e+03
456, -9.999999999979085e-05, 7.300000000002383e-03, 5.032626555798005e-04, -1.011729135796619e-05, 3.413669393108820e+01, 7.356385963005173e+02, 2.040213632107560e+02, 8.115440749666213e+02
457, -4.999999999973237e-05, 7.300000000001096e-03, 5.029893876208638e-04, -1.525693845556813e-05, 3.586346270529437e+01, 3.758201282258698e+02, 1.854038278796549e+02, 5.030594915132635e+02
458, 2.949029909160572e-16, 7.299999999999806e-03, 5.027212965549824e-04, -2.039650432661288e-05, 3.530718865881738e+01, 1.807261699522667e+01, 1.545852211441703e+02, 3.096504365331907e+02
459, 5.000000000020089e-05, 7.299999999998517e-03, 5.024583265867850e-04, -2.553659205479604e-05, 3.225163729678334e+01, -3.371675136467045e+02, 1.116231159536979e+02, 4.316357134722036e+02
460, 1.000000000001404e-04, 7.299999999997227e-03, 5.022004118436324e-04, -3.067780395557563e-05, 2.648021991102716e+01, -6.894629878870020e+02, 5.657562084593238e+01, 7.248295525767024e+02
461, 1.500000000000799e-04, 7.299999999995936e-03, 5.019474763654179e-04, -3.582074155876495e-05, 1.777590533251299e+01, -1.038375559393319e+03, -1.049858125953325e+01, 1.056360164563381e+03
462, 2.000000000000302e-04, 7.299999999994650e-03, 5.016994340914850e-04, -4.096600559315731e-05, 5.920897929825159e+00, -1.383466097598186e+03, -8.954029566975360e+01, 1.400880466541261e+03
463, -1.999999999999443e-04, 7.200000000005343e-03, 4.935354379006075e-04, 6.418164378854078e-07, 2.600242000335577e+01, 1.559655645718814e+03, 2.163587466776978e+02, 1.593529618740489e+03
464, -1.499999999998843e-04, 7.200000000003976e-03, 4.932517567631717e-04, -4.486897603237474e-06, 3.167525886878816e+01, 1.171743713968403e+03, 2.213404198334973e+02, 1.222997305034438e+03
465, -9.999999999979844e-05, 7.200000000002606e-03, 4.929736955516192e-04, -9.614293299285229e-06, 3.541810743615058e+01, 7.851062920960313e+02, 2.135743631768879e+02, 8.628374172718059e+02
466, -4.999999999974257e-05, 7.200000000001237e-03, 4.927012168273874e-04, -1.474099672476368e-05, 3.701543549706115e+01, 4.001791023316134e+02, 1.931164557886439e+02, 5.301544217435016e+02
467, 2.821094052807283e-16, 7.199999999999870e-03, 4.924342730802057e-04, -1.986763323156825e-05, 3.625176124972882e+01, 1.739923527211486e+01, 1.600229207044167e+02, 3.206006212389875e+02
468, 5.000000000019069e-05, 7.199999999998501e-03, 4.921728067156942e-04, -2.499482743817835e-05, 3.291067780414915e+01, -3.627957118344162e+02, 1.143503348836886e+02, 4.570421678060297e+02
469, 1.000000000001328e-04, 7.199999999997132e-03, 4.919167500439856e-04, -3.012320322084283e-05, 2.677511425879840e+01, -7.399673170844475e+02, 5.615568502184984e+01, 7.749243833195889e+02
470, 1.500000000000756e-04, 7.199999999995762e-03, 4.916660252668030e-04, -3.525338370178025e-05, 1.762733248410312e+01, -1.113676250802205e+03, -1.450355080630600e+01, 1.131675399352838e+03
471, 2.000000000000282e-04, 7.199999999994395e-03, 4.914205444632834e-04, -4.038599123435059e-05, 5.249600527299066e+00, -1.483481631237761e+03, -9.756941982139790e+01, 1.501465899436231e+03
472, -1.999999999999461e-04, 7.100000000005715e-03, 4.832717295257711e-04, 1.112715991285044e-06, 2.735294416155602e+01, 1.663094661162401e+03, 2.285699730269257e+02, 1.698419234174823e+03
473, -1.499999999998886e-04, 7.100000000004259e-03, 4.829881605410801e-04, -4.002200747654674e-06, 3.303291696389569e+01, 1.249040491614481e+03, 2.325105260123662e+02, 1.301890548561509e+03
474, -9.999999999980600e-05, 7.100000000002804e-03, 4.827105854719994e-04, -9.115771344529295e-06, 3.670941008965431e+01, 8.363371103706305e+02, 2.232701571287777e+02, 9.158617315478790e+02
475, -4.999999999975274e-05, 7.100000000001348e-03, 4.824389651597006e-04, -1.422864338455852e-05, 3.816645152752817e+01, 4.254205124268781e+02, 2.009037938728282e+02, 5.580457375995454e+02
476, 2.692616095367750e-16, 7.099999999999895e-03, 4.821732503592710e-04, -1.934146375611267e-05, 3.718757775314248e+01, 1.672781143169975e+01, 1.654664874690990e+02, 3.315648291652387e+02
477, 5.000000000018050e-05, 7.099999999998441e-03, 4.819133817284098e-04, -2.445487864457368e-05, 3.355589078191713e+01, -3.893026707196485e+02, 1.170136072266845e+02, 4.832991828463778e+02
478, 1.000000000001252e-04, 7.099999999996985e-03, 4.816592898138167e-04, -2.956953352428378e-05, 2.705383191624314e+01, -7.922316122556534e+02, 5.560090023523168e+01, 8.267977258433979e+02
479, 1.500000000000712e-04, 7.099999999995530e-03, 4.814108950375991e-04, -3.468607314877175e-05, 1.746321149031576e+01, -1.191618626787709e+03, -1.871547126322265e+01, 1.209661095973655e+03
480, 2.000000000000263e-04, 7.099999999994075e-03, 4.811681076825906e-04, -3.980514154140542e-05, 4.564901800957799e+00, -1.587022523793619e+03, -1.058786862268875e+02, 1.605612567869129e+03
481, -1.999999999999481e-04, 7.000000000006086e-03, 4.730355637624468e-04, 1.577060645418397e-06, 2.870062554249259e+01, 1.770035964310179e+03, 2.410494591780956e+02, 1.806839264882569e+03
482, -1.499999999998929e-04, 7.000000000004546e-03, 4.727521534516175e-04, -3.523138705805616e-06, 3.438471956352268e+01, 1.328968416063319e+03, 2.438835975692122e+02, 1.383424657831528e+03
483, -9.999999999981362e-05, 7.000000000003004e-03, 4.724751234704821e-04, -8.621965005140088e-06, 3.799021473410323e+01, 8.893240455270943e+02, 2.331035637574921e+02, 9.706278263054495e+02
484, -4.999999999976293e-05, 7.000000000001462e-03, 4.722044329702395e-04, -1.372008736141368e-05, 3.930168742309644e+01, 4.515398480025355e+02, 2.087627996841426e+02, 5.867434935010061e+02
485, 2.564544713742900e-16, 6.999999999999921e-03, 4.719400310112198e-04, -1.881817421989922e-05, 3.810284079802202e+01, 1.605399095217966e+01, 1.709150405067370e+02, 3.425404444225567e+02
486, 5.000000000017032e-05, 6.999999999998381e-03, 4.716818565444148e-04, -2.391689335869586e-05, 3.417637140396212e+01, -4.166944901921119e+02, 1.196143388399356e+02, 5.104065968038088e+02
487, 1.000000000001176e-04, 6.999999999996837e-03, 4.714298383966264e-04, -2.901691187934300e-05, 2.730423678471411e+01, -8.462654910634793e+02, 5.491512331595177e+01, 8.804469049795061e+02
488, 1.500000000000668e-04, 6.999999999995296e-03, 4.711838952553205e-04, -3.411889619852426e-05, 1.726763961358495e+01, -1.272217841072707e+03, -2.312777572317332e+01, 1.290314837913741e+03
489, 2.000000000000244e-04, 6.999999999993755e-03, 4.709439356530444e-04, -3.922351203873372e-05, 3.846513358237345e+00, -1.694109612633044e+03, -1.144592838874135e+02, 1.713318042998264e+03
490, -1.999999999999499e-04, 6.900000000006458e-03, 4.628287954560058e-04, 2.034544690496205e-06, 3.006741601977055e+01, 1.880507714833168e+03, 2.537893859607312e+02, 1.918792721785737e+03
491, -1.499999999998973e-04, 6.900000000004828e-03, 4.625455926541738e-04, -3.049986598986673e-06, 3.574129100772302e+01, 1.411545640006411e+03, 2.554538720565546e+02, 1.467604963782301e+03
492, -9.999999999982122e-05, 6.900000000003202e-03, 4.622691689814865e-04, -8.133118793517964e-06, 3.926502780946831e+01, 9.440787013709962e+02, 2.430705743963152e+02, 1.027142151999092e+03
493, -4.999999999977310e-05, 6.900000000001573e-03, 4.619994819645045e-04, -1.321554253122610e-05, 4.042337698382161e+01, 4.785451185855941e+02, 2.166913215434009e+02, 6.162557714075159e+02
494, 2.436337806846489e-16, 6.899999999999946e-03, 4.617364790218267e-04, -1.829794783838211e-05, 3.899908060731138e+01, 1.538320703271833e+01, 1.763683180461286e+02, 3.535262987761627e+02
495, 5.000000000016015e-05, 6.899999999998319e-03, 4.614800974504379e-04, -2.338102411007600e-05, 3.477421571392476e+01, -4.449675039686103e+02, 1.221541877612136e+02, 5.383666965501891e+02
496, 1.000000000001100e-04, 6.899999999996692e-03, 4.612302644100922e-04, -2.846546010220762e-05, 2.753013622038543e+01, -9.020662789676062e+02, 5.410191719257082e+01, 9.358726221585991e+02
497, 1.500000000000625e-04, 6.899999999995065e-03, 4.609868969075769e-04, -3.355194392282894e-05, 1.704745524029029e+01, -1.355471195495423e+03, -2.773513459558651e+01, 1.373639107401039e+03
498, 2.000000000000225e-04, 6.899999999993437e-03, 4.607499017807753e-04, -3.864116302617712e-05, 3.106728772433144e+00, -1.804738613905175e+03, -1.233032326333906e+02, 1.824587496326908e+03
499, -1.999999999999519e-04, 6.800000000006828e-03, 4.526533414478753e-04, 2.484857631827206e-06, 3.143287763302834e+01, 1.994500170847311e+03, 2.667808824584176e+02, 2.034286448529022e+03
500, -1.499999999999017e-04, 6.800000000005111e-03, 4.523703970826889e-04, -2.583024333840984e-06, 3.708849755461301e+01, 1.496766572927407e+03, 2.672149417166610e+02, 1.554437320714662e+03
501, -9.999999999982880e-05, 6.800000000003401e-03, 4.520946430793437e-04, -7.649481961688936e-06, 4.052599207937865e+01, 1.000599886839908e+03, 2.531671450899208e+02, 1.085410658143993e+03
502, -4.999999999978328e-05, 6.800000000001686e-03, 4.518260353820058e-04, -1.271522746675853e-05, 4.152716584542165e+01, 5.064369211134190e+02, 2.246875510613224e+02, 6.465903362648460e+02
503, 2.308130899950078e-16, 6.799999999999972e-03, 4.515645198196146e-04, -1.778097247383128e-05, 3.987455516396432e+01, 1.471662642659915e+01, 1.818269212464124e+02, 3.645230288173171e+02
504, 5.000000000014997e-05, 6.799999999998255e-03, 4.513100320909902e-04, -2.284742801669872e-05, 3.535006836628463e+01, -4.741206231628491e+02, 1.246362964408280e+02, 5.671835779437885e+02
505, 1.000000000001024e-04, 6.799999999996542e-03, 4.510624977477378e-04, -2.791530452970771e-05, 2.773480388631805e+01, -9.596331817179849e+02, 5.316709410298014e+01, 9.930772873133892e+02
506, 1.500000000000582e-04, 6.799999999994830e-03, 4.508218321769804e-04, -3.298531183914211e-05, 1.680914309086634e+01, -1.441378083458356e+03, -3.252884440969281e+01, 1.459637794298926e+03
507, 2.000000000000206e-04, 6.799999999993115e-03, 4.505879405858429e-04, -3.805815915220078e-05, 2.352641792797243e+00, -1.918911268359215e+03, -1.323991289657637e+02, 1.939425979473351e+03
508, -1.999999999999538e-04, 6.700000000007203e-03, 4.425111798186500e-04, 2.927684487303587e-06, 3.281770259423331e+01, 2.112036634068023e+03, 2.800108888236271e+02, 2.153317384046811e+03
509, -1.499999999999060e-04, 6.700000000005407e-03, 4.422285470696523e-04, -2.122536256129046e-06, 3.844359463772844e+01, 1.584651200148969e+03, 2.791576433578015e+02, 1.643920289649449e+03
510, -9.999999999983645e-05, 6.700000000003612e-03, 4.419535282801475e-04, -7.171308221378317e-06, 4.178286642347058e+01, 1.058901199833947e+03, 2.633869906792916e+02, 1.145434647457495e+03
511, -4.999999999979346e-05, 6.700000000001816e-03, 4.416860778821836e-04, -1.221936519685116e-05, 4.261776928152725e+01, 5.352237910608903e+02, 2.327483989451216e+02, 6.777521387198717e+02
512, 2.179923993053667e-16, 6.700000000000018e-03, 4.414261401869384e-04, -1.726744042588295e-05, 4.073066363219658e+01, 1.405867324162648e+01, 1.872908822718068e+02, 3.755301497882717e+02
513, 5.000000000013978e-05, 6.699999999998221e-03, 4.411736493643738e-04, -2.231626660229275e-05, 3.590293137190199e+01, -5.041531315199450e+02, 1.270637841018358e+02, 5.968595915182686e+02
514, 1.000000000000948e-04, 6.699999999996424e-03, 4.409285294238969e-04, -2.736657586415073e-05, 2.791504765799542e+01, -1.018969264705611e+03, 5.211684605821539e+01, 1.052060561966489e+03
515, 1.500000000000538e-04, 6.699999999994629e-03, 4.406906941958071e-04, -3.241909978410900e-05, 1.654652413225676e+01, -1.529946126542552e+03, -3.749971812594656e+01, 1.548310186632284e+03
516, 2.000000000000187e-04, 6.699999999992831e-03, 4.404600473124551e-04, -3.747456935698925e-05, 1.575853982129615e+00, -2.036638888023908e+03, -1.417351857838189e+02, 2.057832545686707e+03
517, -1.999999999999557e-04, 6.600000000007607e-03, 4.324043514103725e-04, 3.362705939213693e-06, 3.421076010218076e+01, 2.233121063403454e+03, 2.934658148692729e+02, 2.275894386818519e+03
518, -1.499999999999103e-04, 6.600000000005753e-03, 4.321220853273230e-04, -1.668811097982891e-06, 3.979611943598718e+01, 1.675203369791202e+03, 2.912699861778561e+02, 1.736061546693145e+03
519, -9.999999999984406e-05, 6.600000000003900e-03, 4.318478691871505e-04, -6.698855650173075e-06, 4.302693136808398e+01, 1.118985417283472e+03, 2.737224471144378e+02, 1.207221013580611e+03
520, -4.999999999980367e-05, 6.600000000002050e-03, 4.315816559873364e-04, -1.172818309248397e-05, 4.368855663127482e+01, 5.649077993765637e+02, 2.408699640383943e+02, 7.097484465015768e+02
521, 2.051717086157256e-16, 6.600000000000198e-03, 4.313233885932021e-04, -1.675754830520918e-05, 4.156265129478768e+01, 1.341061365372633e+01, 1.927597471060862e+02, 3.865460097335800e+02
522, 5.000000000012958e-05, 6.599999999998345e-03, 4.310729997142314e-04, -2.178770566922661e-05, 3.642980476448008e+01, -5.350646126239225e+02, 1.294393783781359e+02, 6.273946762650944e+02
523, 1.000000000000872e-04, 6.599999999996491e-03, 4.308304118839751e-04, -2.681940905576320e-05, 2.806969095903574e+01, -1.080074900943712e+03, 5.095687672554165e+01, 1.112821122061311e+03
524, 1.500000000000495e-04, 6.599999999994639e-03, 4.305955374407721e-04, -3.185341181610772e-05, 1.626111797677891e+01, -1.621175793972001e+03, -4.263928962744462e+01, 1.639656084882464e+03
525, 2.000000000000168e-04, 6.599999999992787e-03, 4.303682785083386e-04, -3.689046677335405e-05, 7.818347759116051e-01, -2.157921524529457e+03, -1.513001555575458e+02, 2.179808969098722e+03
526, -1.999999999999576e-04, 6.500000000008018e-03, 4.223349594636609e-04, 3.789598040885269e-06, 3.557467531780634e+01, 2.357735222775406e+03, 3.071377597485223e+02, 2.402033309931805e+03
527, -1.499999999999147e-04, 6.500000000006126e-03, 4.220531166942575e-04, -1.222142058419461e-06, 4.111395143308337e+01, 1.768406847320673e+03, 3.035475733676967e+02, 1.830875546118142e+03
528, -9.999999999985163e-05, 6.500000000004228e-03, 4.217797723312111e-04, -6.232386672675343e-06, 4.423677725310165e+01, 1.180843071616498e+03, 2.841707909641398e+02, 1.270781657931539e+03
529, -4.999999999981387e-05, 6.500000000002332e-03, 4.215148779916359e-04, -1.124191276810157e-05, 4.472533024234852e+01, 5.954832947595330e+02, 2.490516075915348e+02, 7.425908351540729e+02
530, 1.923510179260846e-16, 6.500000000000438e-03, 4.212583751480718e-04, -1.625149688476489e-05, 4.236111052007519e+01, 1.276861379361355e+01, 1.982352102197696e+02, 3.975732764485192e+02
531, 5.000000000011942e-05, 6.499999999998543e-03, 4.210101951062980e-04, -2.126191511458860e-05, 3.692441272047242e+01, -5.668585544060080e+02, 1.317673027944365e+02, 6.587900725837779e+02
532, 1.000000000000796e-04, 6.499999999996646e-03, 4.207702589842365e-04, -2.627394308947852e-05, 2.819449212310860e+01, -1.142954314526118e+03, 4.969403828688033e+01, 1.175358463227682e+03
533, 1.500000000000451e-04, 6.499999999994751e-03, 4.205384776908238e-04, -3.128835597079110e-05, 1.594960585223004e+01, -1.715073270580236e+03, -4.793795005422181e+01, 1.733675975190904e+03
534, 2.000000000000149e-04, 6.499999999992855e-03, 4.203147519054549e-04, -3.630592843716292e-05, -3.270635358197183e-02, -2.282768292609454e+03, -1.610816136538601e+02, 2.305357000941126e+03
535, -1.999999999999595e-04, 6.400000000008258e-03, 4.123051677552775e-04, 4.208033085580931e-06, 3.694780741522769e+01, 2.485912956849868e+03, 3.210151299441332e+02, 2.531725332210749e+03
536, -1.499999999999190e-04, 6.400000000006336e-03, 4.120238069954491e-04, -7.828261676604300e-07, 4.242689398955338e+01, 1.864288402368283e+03, 3.159829950942465e+02, 1.928356908994531e+03
537, -9.999999999985919e-05, 6.400000000004416e-03, 4.117514054946494e-04, -5.772167547938637e-06, 4.543104651623463e+01, 1.244491903725477e+03, 2.947275007544019e+02, 1.336115316166650e+03
538, -4.999999999982406e-05, 6.400000000002495e-03, 4.114879135761429e-04, -1.076078966513576e-05, 4.573999220012550e+01, 6.269621641415672e+02, 2.572915637355531e+02, 7.762828145941861e+02
539, 1.795438797635995e-16, 6.400000000000575e-03, 4.112332713997474e-04, -1.574949074403783e-05, 4.313418661604433e+01, 1.214054007756189e+01, 2.037184207654385e+02, 4.086139816041656e+02
540, 5.000000000010922e-05, 6.399999999998654e-03, 4.109874089460031e-04, -2.073906861186263e-05, 3.739340734841031e+01, -5.995298006323129e+02, 1.340517473282696e+02, 6.910504009922174e+02
541, 1.000000000000720e-04, 6.399999999996736e-03, 4.107502459951161e-04, -2.573032068762667e-05, 2.829640642231854e+01, -1.207604098543950e+03, 4.833567141578628e+01, 1.239675524764741e+03
542, 1.500000000000408e-04, 6.399999999994814e-03, 4.105216921051043e-04, -3.072404397155212e-05, 1.562087208468867e+01, -1.811636009804242e+03, -5.338520411882372e+01, 1.830373631935756e+03
543, 2.000000000000129e-04, 6.399999999992895e-03, 4.103016465894170e-04, -3.572103503516758e-05, -8.564539600379248e-01, -2.411177546387020e+03, -1.710656243100791e+02, 2.434481784668103e+03
544, -1.999999999999615e-04, 6.300000000008254e-03, 4.023172028186979e-04, 4.617679917361005e-06, 3.832345958889908e+01, 2.617654972457089e+03, 3.350800958685775e+02, 2.664970119131561e+03
545, -1.499999999999234e-04, 6.300000000006307e-03, 4.020363844753719e-04, -3.511638996311609e-07, 4.373456970774453e+01, 1.962852792077522e+03, 3.285617736861730e+02, 2.028503415807563e+03
546, -9.999999999986685e-05, 6.300000000004357e-03, 4.017649986343302e-04, -5.318468021722080e-06, 4.661063007150562e+01, 1.309936982102680e+03, 3.053828146869249e+02, 1.403220626188494e+03
547, -4.999999999983422e-05, 6.300000000002410e-03, 4.015029943984614e-04, -1.028505273564693e-05, 4.673294989894538e+01, 6.593481015794025e+02, 2.655845685114700e+02, 8.108254905922508e+02
548, 1.667096365468024e-16, 6.300000000000461e-03, 4.012503106995068e-04, -1.525173797844723e-05, 4.388168031811949e+01, 1.152830677678656e+01, 2.092083332366442e+02, 4.196656378143487e+02
549, 5.000000000009904e-05, 6.299999999998514e-03, 4.010068762767814e-04, -2.021934333910789e-05, 3.783592942930082e+01, -6.330785900313277e+02, 1.362957132817533e+02, 7.241770351640638e+02
550, 1.000000000000644e-04, 6.299999999996569e-03, 4.007726096555384e-04, -2.518868805119476e-05, 2.837374933013692e+01, -1.274027096316777e+03, 4.688873178284294e+01, 1.305772635421117e+03
551, 1.500000000000364e-04, 6.299999999994618e-03, 4.005474191243020e-04, -3.016059098424951e-05, 1.527210770789796e+01, -1.910870022741754e+03, -5.897011442811222e+01, 1.929749570352533e+03
552, 2.000000000000111e-04, 6.299999999992672e-03, 4.003312027115693e-04, -3.513587063336908e-05, -1.693569109450749e+00, -2.543158791932628e+03, -1.812378690361332e+02, 2.567184087577417e+03
553, -1.999999999999633e-04, 6.200000000008235e-03, 3.923733541910592e-04, 5.018203776205487e-06, 3.969345051820972e+01, 2.752967815189644e+03, 3.493162661291413e+02, 2.801775364498873e+03
554, -1.499999999999277e-04, 6.200000000006244e-03, 3.920931400916961e-04, 7.254076256727369e-08, 4.502611176698449e+01, 2.064102454479636e+03, 3.412705972806943e+02, 2.131321599377997e+03
555, -9.999999999987445e-05, 6.200000000004252e-03, 3.918228441536757e-04, -4.871561289147170e-06, 4.776679592301488e+01, 1.377179934175273e+03, 3.161273485192535e+02, 1.472102338183379e+03
556, -4.999999999984441e-05, 6.200000000002263e-03, 3.915624143387142e-04, -9.814944337641905e-06, 4.769786152420241e+01, 6.926423105028978e+02, 2.739253272660054e+02, 8.462231868364194e+02
557, 1.538618408028491e-16, 6.200000000000271e-03, 3.913117884297359e-04, -1.475845005386897e-05, 4.459906649517214e+01, 1.093235454649050e+01, 2.147036522567055e+02, 4.307250638898424e+02
558, 5.000000000008886e-05, 6.199999999998280e-03, 3.910708940058825e-04, -1.970291981396946e-05, 3.824883075545861e+01, -6.675055936268768e+02, 1.385017878812399e+02, 7.581690369043315e+02
559, 1.000000000000568e-04, 6.199999999996288e-03, 3.908396484194110e-04, -2.464919469348783e-05, 2.842443123711124e+01, -1.342225441391858e+03, 4.535957404544710e+01, 1.373648804159254e+03
560, 1.500000000000321e-04, 6.199999999994299e-03, 3.906179587719925e-04, -2.959811546057090e-05, 1.490196935980273e+01, -2.012779320508763e+03, -6.468273494243442e+01, 2.031803838484803e+03
561, 2.000000000000091e-04, 6.199999999992307e-03, 3.904057218895714e-04, -3.455052256977289e-05, -2.543347989377082e+00, -2.678717283409676e+03, -1.915844616740345e+02, 2.703465434667639e+03
562, -1.999999999999653e-04, 6.100000000008216e-03, 3.824759740365750e-04, 5.409266466400825e-06, 4.103809824584931e+01, 2.891845750051306e+03, 3.637106299449227e+02, 2.942149886890923e+03
563, -1.499999999999321e-04, 6.100000000006179e-03, 3.821964272631357e-04, 4.879804532306775e-07, 4.628507901879914e+01, 2.168033104374901e+03, 3.541000557593156e+02, 2.236819635343342e+03
564, -9.999999999988203e-05, 6.100000000004146e-03, 3.819272967677087e-04, -4.431723833522859e-06, 4.888805302305951e+01, 1.446218833037542e+03, 3.269546473432082e+02, 1.542767213306392e+03
565, -4.999999999985460e-05, 6.100000000002112e-03, 3.816685294459135e-04, -9.350710039509311e-06, 4.862738033222377e+01, 7.268444297091200e+02, 2.823105351574603e+02, 8.824824752418995e+02
566, 1.410275975860520e-16, 6.100000000000079e-03, 3.814200620061807e-04, -1.426984158321328e-05, 4.528240641262119e+01, 1.035313066992342e+01, 2.202045390650005e+02, 4.417920442959863e+02
567, 5.000000000007866e-05, 6.099999999998046e-03, 3.811818209469634e-04, -1.918998164606181e-05, 3.863128514742203e+01, -7.028100167396494e+02, 1.406738225173897e+02, 7.930269235723409e+02
568, 1.000000000000492e-04, 6.099999999996011e-03, 3.809537225322935e-04, -2.411199316703190e-05, 2.845094756872902e+01, -1.412198106654572e+03, 4.375588937843006e+01, 1.443304544736030e+03
569, 1.500000000000277e-04, 6.099999999993980e-03, 3.807356727662690e-04, -2.903673883801137e-05, 1.451712323608479e+01, -2.117362309030811e+03, -7.051137699039913e+01, 2.136538633131390e+03
570, 2.000000000000072e-04, 6.099999999991945e-03, 3.805275673672007e-04, -3.396508109841651e-05, -3.395670664684900e+00, -2.817851883168963e+03, -2.020896180175990e+02, 2.843329848425245e+03
571, -1.999999999999672e-04, 6.000000000008407e-03, 3.726274762988024e-04, 5.790526972477259e-06, 4.237440546450347e+01, 3.034307066286148e+03, 3.782470145742757e+02, 3.086088829413161e+03
572, -1.499999999999365e-04, 6.000000000006308e-03, 3.723486613421685e-04, 8.948449765286468e-07, 4.752486204377880e+01, 2.274659875878657e+03, 3.670385592775050e+02, 2.344994581195298e+03
573, -9.999999999988962e-05, 6.000000000004209e-03, 3.720807731827420e-04, -3.999234974386221e-06, 4.998242030841246e+01, 1.517064573707483e+03, 3.378567891975853e+02, 1.615214810744893e+03
574, -4.999999999986476e-05, 6.000000000002106e-03, 3.718237577394342e-04, -8.892598235803452e-06, 4.952566748054528e+01, 7.619617372531299e+02, 2.907360822451974e+02, 9.196059110239297e+02
575, 1.282204594235670e-16, 6.000000000000007e-03, 3.715775507382681e-04, -1.378612998548010e-05, 4.593341440120719e+01, 9.794836783276367e+00, 2.257108800585969e+02, 4.528659871303568e+02
576, 5.000000000006848e-05, 5.999999999997906e-03, 3.713420776904178e-04, -1.868071522232727e-05, 3.898343510728299e+01, -7.389905352351684e+02, 1.428158695129266e+02, 8.287514638716063e+02
577, 1.000000000000416e-04, 5.999999999995806e-03, 3.711172538659012e-04, -2.357723876499703e-05, 2.845221889756002e+01, -1.483946786772368e+03, 4.208604531658989e+01, 1.514739480304434e+03
578, 1.500000000000234e-04, 5.999999999993707e-03, 3.709029842661400e-04, -2.847658524888012e-05, 1.411489805341205e+01, -2.224624361651056e+03, -7.644322704655143e+01, 2.243953595952303e+03
579, 2.000000000000053e-04, 5.999999999991606e-03, 3.706991635958839e-04, -3.337963912160347e-05, -4.254901359241387e+00, -2.960571825616721e+03, -2.127361735478821e+02, 2.986776937569055e+03
580, -1.999999999999690e-04, 5.900000000008779e-03, 3.628303379241451e-04, 6.161641862626145e-06, 4.370365429262506e+01, 3.180360183213668e+03, 3.929043615808485e+02, 3.233590810510820e+03
581, -1.499999999999408e-04, 5.900000000006594e-03, 3.625523204437000e-04, 1.292821692213668e-06, 4.874819497416453e+01, 2.383992233076581e+03, 3.800690859448774e+02, 2.455845019103766e+03
582, -9.999999999989724e-05, 5.900000000004408e-03, 3.622857526535825e-04, -3.574376514643611e-06, 5.105129290777299e+01, 1.589724987660502e+03, 3.488220615909474e+02, 1.689444897454264e+03
583, -4.999999999987495e-05, 5.900000000002220e-03, 3.620305795929856e-04, -8.440859827821774e-06, 5.039302745755208e+01, 7.980001513763132e+02, 2.991954320504039e+02, 9.575949237404056e+02
584, 1.153862162067698e-16, 5.900000000000033e-03, 3.617867361103514e-04, -1.330753519104001e-05, 4.655199717612396e+01, 9.261584983563694e+00, 2.312211078505659e+02, 4.639432914743603e+02
585, 5.000000000005830e-05, 5.899999999997847e-03, 3.615541468340183e-04, -1.817530943311282e-05, 3.930545081274244e+01, -7.760446671284907e+02, 1.449311483573965e+02, 8.653415313525392e+02
586, 1.000000000000340e-04, 5.899999999995659e-03, 3.613327261430821e-04, -2.304508926885175e-05, 2.842925185696069e+01, -1.557470445317335e+03, 4.035791020588701e+01, 1.587952421567557e+03
587, 1.500000000000191e-04, 5.899999999993472e-03, 3.611223781383887e-04, -2.791778129710585e-05, 1.369786962873835e+01, -2.334565492847444e+03, -8.246589179009827e+01, 2.354048281744215e+03
588, 2.000000000000034e-04, 5.899999999991286e-03, 3.609229966133886e-04, -3.279429199832773e-05, -5.115580538288668e+00, -3.106877414797361e+03, -2.235071541568733e+02, 3.133807311929600e+03
589, -1.999999999999710e-04, 5.800000000009150e-03, 3.530870993910221e-04, 6.522265238056768e-06, 4.500648340757044e+01, 3.330002963476398e+03, 4.076629683756861e+02, 3.384665161755899e+03
590, -1.499999999999452e-04, 5.800000000006880e-03, 3.528099458231859e-04, 1.681595547884914e-06, 4.993697869543541e+01, 2.496028116256774e+03, 3.931762089623110e+02, 2.569379687479456e+03
591, -9.999999999990477e-05, 5.800000000004606e-03, 3.525447772403893e-04, -3.157432628551564e-06, 5.208084069854920e+01, 1.664199434427214e+03, 3.598399685889468e+02, 1.765464690165755e+03
592, -4.999999999988512e-05, 5.800000000002332e-03, 3.522915379054082e-04, -7.995748046603783e-06, 5.121935966375290e+01, 8.349597267085087e+02, 3.076831080367277e+02, 9.964559914115681e+02
593, 1.025655255171287e-16, 5.800000000000059e-03, 3.520501618919494e-04, -1.283427941882045e-05, 4.713106776146208e+01, 8.753448924440590e+00, 2.367346538229845e+02, 4.750221330741895e+02
594, 5.000000000004811e-05, 5.799999999997786e-03, 3.518205730480768e-04, -1.767395541606997e-05, 3.959270520112514e+01, -8.139728664280948e+02, 1.470238972548707e+02, 9.027947111756691e+02
595, 1.000000000000264e-04, 5.799999999995513e-03, 3.516026849644314e-04, -2.251570466629725e-05, 2.837950923123913e+01, -1.632770483430954e+03, 3.858045500473443e+01, 1.662941100627167e+03
596, 1.500000000000147e-04, 5.799999999993240e-03, 3.513964009438479e-04, -2.736045575180331e-05, 1.326530456197304e+01, -2.447188436989101e+03, -8.856568256868360e+01, 2.466821463914263e+03
597, 2.000000000000015e-04, 5.799999999990969e-03, 3.512016139718011e-04, -3.220913720584502e-05, -5.977435905525823e+00, -3.256773525986818e+03, -2.343841210695099e+02, 3.284420631424350e+03
598, -1.999999999999729e-04, 5.700000000009518e-03, 3.434003639005065e-04, 6.872048985577966e-06, 4.626818222227655e+01, 3.483235034344648e+03, 4.225066014754044e+02, 3.539320338108596e+03
599, -1.499999999999495e-04, 5.700000000007160e-03, 3.431241413169641e-04, 2.060849290747394e-06, 5.107676947006371e+01, 2.610766614150872e+03, 4.063486785364460e+02, 2.685607770162151e+03
600, -9.999999999991239e-05, 5.700000000004800e-03, 3.428604514355436e-04, -2.748689620291531e-06, 5.305939415078052e+01, 1.740487534728949e+03, 3.709034745530334e+02, 1.843282745364136e+03
601, -4.999999999989533e-05, 5.700000000002444e-03, 3.426092378548451e-04, -7.557518184005902e-06, 5.199604958669599e+01, 8.728405748437324e+02, 3.161962711091564e+02, 1.036197887518494e+03
602, 8.974483482748763e-17, 5.700000000000083e-03, 3.423704339761566e-04, -1.236658688663973e-05, 4.766471107031771e+01, 8.270571515029530e+00, 2.422530246471375e+02, 4.861049372656566e+02
603, 5.000000000003792e-05, 5.699999999997726e-03, 3.421439629690567e-04, -1.717684625251195e-05, 3.984168384049326e+01, -8.527753684408964e+02, 1.491001006413832e+02, 9.411102815656619e+02
604, 1.000000000000188e-04, 5.699999999995369e-03, 3.419297377387296e-04, -2.198924683833836e-05, 2.830171068508946e+01, -1.709847835044423e+03, 3.676424043722028e+01, 1.739704078520083e+03
605, 1.500000000000104e-04, 5.699999999993010e-03, 3.417276608942470e-04, -2.680473922870114e-05, 1.281803558022514e+01, -2.562495101381008e+03, -9.472741202604114e+01, 2.582272426325641e+03
606, 1.999999999999996e-04, 5.699999999990651e-03, 3.415376247175357e-04, -3.162427403116853e-05, -6.837530285765723e+00, -3.410263115129087e+03, -2.453472562659975e+02, 3.438616991785376e+03
607, -1.999999999999748e-04, 5.600000000009672e-03, 3.337727967621299e-04, 7.210643385539581e-06, 4.749048897444158e+01, 3.640062600449950e+03, 4.374179633412416e+02, 3.697554904902155e+03
608, -1.499999999999538e-04, 5.600000000007281e-03, 3.334975729011293e-04, 2.430264047089011e-06, 5.216983867241674e+01, 2.728213923834611e+03, 4.195747627701701e+02, 2.804529171170474e+03
609, -9.999999999991998e-05, 5.600000000004890e-03, 3.332354418625053e-04, -2.348435408491487e-06, 5.398820125184477e+01, 1.818594493089898e+03, 3.820053595255521e+02, 1.922900866924613e+03
610, -4.999999999990553e-05, 5.600000000002499e-03, 3.329863466949186e-04, -7.126427127696813e-06, 5.272349448843852e+01, 9.116466128699875e+02, 3.247321448235172e+02, 1.076825327904675e+03
611, 7.692414413784654e-17, 5.600000000000110e-03, 3.327502202385353e-04, -1.190468338373655e-05, 4.815302528304983e+01, 7.815537199173320e+00, 2.477780132125689e+02, 4.971950203604102e+02
612, 5.000000000002774e-05, 5.599999999997718e-03, 3.325269850949979e-04, -1.668417656653375e-05, 4.005265342877104e+01, -8.924510037567002e+02, 1.511662629391564e+02, 9.802897667874736e+02
613, 1.000000000000112e-04, 5.599999999995330e-03, 3.323165535948196e-04, -2.146587917654954e-05, 2.819664890385661e+01, -1.788702870819653e+03, 3.492058765121166e+01, 1.818241363114134e+03
614, 1.500000000000060e-04, 5.599999999992939e-03, 3.321188277642215e-04, -2.625076381962644e-05, 1.235767018836333e+01, -2.680487528324661e+03, -1.009348921443605e+02, 2.700401205925413e+03
615, 1.999999999999977e-04, 5.599999999990549e-03, 3.319336992919818e-04, -3.103980320132874e-05, -7.693246811934159e+00, -3.567350061598589e+03, -2.563755721381790e+02, 3.596396860055045e+03
616, -1.999999999999767e-04, 5.500000000009695e-03, 3.242071258335938e-04, 7.537697713659775e-06, 4.868808587771485e+01, 3.800501637076022e+03, 4.523740962623523e+02, 3.859361892182693e+03
617, -1.499999999999582e-04, 5.500000000007305e-03, 3.239329690284429e-04, 2.789519913896810e-06, 5.322855205439288e+01, 2.848383560284337e+03, 4.328371458662065e+02, 2.926137983656846e+03
618, -9.999999999992762e-05, 5.500000000004914e-03, 3.236724775215154e-04, -1.956958987240985e-06, 5.487556716982465e+01, 1.898530361747073e+03, 3.931342179517361e+02, 2.004315607599204e+03
619, -4.999999999991570e-05, 5.500000000002524e-03, 3.234255939328251e-04, -6.702732874301727e-06, 5.340694398187730e+01, 9.513849704424392e+02, 3.332850886911744e+02, 1.118338203488346e+03
620, 6.410345344820545e-17, 5.500000000000133e-03, 3.231922506664846e-04, -1.144879582494880e-05, 4.859936175116718e+01, 7.393035828925377e+00, 2.533095941383614e+02, 5.082922026021800e+02
621, 5.000000000001756e-05, 5.499999999997745e-03, 3.229723698802455e-04, -1.619614211015556e-05, 4.022804053268590e+01, -9.329972013053030e+02, 1.532278676222271e+02, 1.020334498590943e+03
622, 1.000000000000036e-04, 5.499999999995354e-03, 3.227658634523618e-04, -2.094576619130913e-05, 2.806659286696618e+01, -1.869334962238235e+03, 3.306041226664649e+01, 1.898553297843545e+03
623, 1.500000000000017e-04, 5.499999999992964e-03, 3.225726329473337e-04, -2.569866271632656e-05, 1.188695612080951e+01, -2.801166952904743e+03, -1.071718475115521e+02, 2.821208165782897e+03
624, 1.999999999999958e-04, 5.499999999990576e-03, 3.223925695809317e-04, -3.045582651504147e-05, -8.540646378064707e+00, -3.728037365269716e+03, -2.674475128268015e+02, 3.757761106072967e+03
625, -1.999999999999786e-04, 5.400000000009719e-03, 3.147061426454705e-04, 7.852860410325604e-06, 4.984936131352561e+01, 3.964552139154015e+03, 4.673501109365070e+02, 4.024743761235181e+03
626, -1.499999999999625e-04, 5.400000000007331e-03, 3.144331214246702e-04, 3.138296191142724e-06, 5.424385673393641e+01, 2.971276377103297e+03, 4.461162306471844e+02, 3.050435622969256e+03
627, -9.999999999993521e-05, 5.400000000004939e-03, 3.141743503457394e-04, -1.574550140209903e-06, 5.571522252048021e+01, 1.980296812348167e+03, 4.042766791883972e+02, 2.087527922985956e+03
628, -4.999999999992589e-05, 5.400000000002551e-03, 3.139297717177090e-04, -6.286694209018137e-06, 5.404210541723756e+01, 9.920574109282253e+02, 3.418479792421014e+02, 1.160738074252975e+03
629, 5.128276275856436e-17, 5.400000000000158e-03, 3.136993176327252e-04, -1.099915190983865e-05, 4.900091286077003e+01, 7.004365328019048e+00, 2.588467511011091e+02, 5.193941395771316e+02
630, 5.000000000000737e-05, 5.399999999997771e-03, 3.134829099305473e-04, -1.571293941058616e-05, 4.036630255629342e+01, -9.744135419166751e+02, 1.552898569772786e+02, 1.061243558976297e+03
631, 9.999999999999598e-05, 5.399999999995381e-03, 3.132804601633296e-04, -2.042907315216854e-05, 2.791122793836280e+01, -1.951744884391174e+03, 3.119449611897852e+01, 1.980638964939387e+03
632, 1.499999999999973e-04, 5.399999999992991e-03, 3.130918695599330e-04, -2.514856984627794e-05, 1.140692216263437e+01, -2.924535582450139e+03, -1.134217353282101e+02, 2.944692912779085e+03
633, 1.999999999999938e-04, 5.399999999990601e-03, 3.129170289897433e-04, -2.987244647261533e-05, -9.377166086574562e+00, -3.892328933016863e+03, -2.785407992751976e+02, 3.922710074903639e+03
634, -1.999999999999805e-04, 5.300000000009745e-03, 3.052727021317239e-04, 8.155779267862521e-06, 5.096341370418008e+01, 4.132216551312721e+03, 4.823227978084358e+02, 4.193705795401316e+03
635, -1.499999999999669e-04, 5.300000000007331e-03, 3.050008849666224e-04, 3.476271579937300e-06, 5.520467532874460e+01, 3.096893676861520e+03, 4.593944319525124e+02, 3.177427411992498e+03
636, -9.999999999994280e-05, 5.300000000004915e-03, 3.047439151656344e-04, -1.201499196652245e-06, 5.649825266398466e+01, 2.063895241765839e+03, 4.154207480366630e+02, 2.172542350209209e+03
637, -4.999999999993605e-05, 5.300000000002501e-03, 3.045017348513620e-04, -5.878570418484731e-06, 5.462233403596088e+01, 1.033665269187896e+03, 3.504146020310860e+02, 1.204029336078376e+03
638, 3.846207206892327e-17, 5.300000000000087e-03, 3.042742759288034e-04, -1.055597980261567e-05, 4.935304469582309e+01, 6.650420275352872e+00, 2.643891372058483e+02, 5.304997432819429e+02
639, 4.999999999999720e-05, 5.299999999997673e-03, 3.040614600465287e-04, -1.523476542652231e-05, 4.046459770056885e+01, -1.016699939971441e+03, 1.573577725828904e+02, 1.103015291861482e+03
640, 9.999999999998842e-05, 5.299999999995259e-03, 3.038631985588244e-04, -1.991596572782860e-05, 2.772937163262390e+01, -2.035933697224908e+03, 2.933425825889313e+01, 2.064496853133199e+03
641, 1.499999999999930e-04, 5.299999999992844e-03, 3.036793924880651e-04, -2.460061950278974e-05, 1.091793773298775e+01, -3.050595972235354e+03, -1.196672659516422e+02, 3.070854675671092e+03
642, 1.999999999999920e-04, 5.299999999990430e-03, 3.035099324872213e-04, -2.928976590382159e-05, -1.020088551247019e+01, -4.060229078428509e+03, -2.896322374559795e+02, 4.091243783412299e+03
643, -1.999999999999824e-04, 5.200000000009989e-03, 2.959097222648159e-04, 8.446101934996031e-06, 5.202662738671580e+01, 4.303500878454617e+03, 4.972686067472405e+02, 4.366249829833234e+03
644, -1.499999999999712e-04, 5.200000000007502e-03, 2.956391774346191e-04, 3.803124630605051e-06, 5.610746906761887e+01, 3.225241184298367e+03, 4.726544425929050e+02, 3.307116174769717e+03
645, -9.999999999995044e-05, 5.200000000005017e-03, 2.953840895554028e-04, -8.380966126899148e-07, 5.722093235766408e+01, 2.149330288931681e+03, 4.265549482039523e+02, 2.259362311629911e+03
646, -4.999999999994625e-05, 5.200000000002529e-03, 2.951444006992789e-04, -5.478620884354256e-06, 5.514434139911748e+01, 1.076212098530607e+03, 3.589793268722338e+02, 1.248216324656948e+03
647, 2.564138137928218e-17, 5.200000000000042e-03, 2.949200427178229e-04, -1.011950772839370e-05, 4.965337717717324e+01, 6.333651989137877e+00, 2.699370580707638e+02, 5.416093240242108e+02
648, 4.999999999998700e-05, 5.199999999997556e-03, 2.947109372021898e-04, -1.476181714237761e-05, 4.052180797003143e+01, -1.059855099213641e+03, 1.594379226410043e+02, 1.145648786743747e+03
649, 9.999999999998081e-05, 5.199999999995069e-03, 2.945169954431941e-04, -1.940660957629908e-05, 2.752146175395984e+01, -2.121901342617166e+03, 2.749204858433623e+01, 2.150125959773542e+03
650, 1.499999999999887e-04, 5.199999999992581e-03, 2.943381183918217e-04, -2.405494593065703e-05, 1.042226286156512e+01, -3.179349390601180e+03, -1.258900374432378e+02, 3.199693173937822e+03
651, 1.999999999999900e-04, 5.199999999990096e-03, 2.941741966200940e-04, -2.870788755378567e-05, -1.100770199571900e+01, -4.231740649818436e+03, -3.006973414944301e+02, 4.263362778554450e+03
652, -1.999999999999843e-04, 5.100000000010360e-03, 2.866201841781335e-04, 8.723476440739096e-06, 5.303752905367088e+01, 4.478411970862007e+03, 5.121620069176130e+02, 4.542375880035684e+03
653, -1.499999999999755e-04, 5.100000000007788e-03, 2.863509795851938e-04, 4.118534261007215e-06, 5.695104550775136e+01, 3.356325597876663e+03, 4.858772425291352e+02, 3.439502757093010e+03
654, -9.999999999995803e-05, 5.100000000005215e-03, 2.860978538756269e-04, -4.846324820863334e-07, 5.788154567426437e+01, 2.236607483833770e+03, 4.376667788078402e+02, 2.347989682834476e+03
655, -4.999999999995644e-05, 5.100000000002642e-03, 2.858607492150734e-04, -5.087104616502999e-06, 5.560622928254219e+01, 1.119702058536127e+03, 3.675360863631629e+02, 1.293302374911403e+03
656, 1.282069068964109e-17, 5.100000000000066e-03, 2.856395975450540e-04, -9.689963521017121e-06, 4.990035045295451e+01, 6.056853093433631e+00, 2.754908398136989e+02, 5.527233155438106e+02
657, 4.999999999997683e-05, 5.099999999997495e-03, 2.854343205412649e-04, -1.429429112492260e-05, 4.053712328877270e+01, -1.103877641305866e+03, 1.615370262314402e+02, 1.189143387820405e+03
658, 9.999999999997324e-05, 5.099999999994921e-03, 2.852448295725799e-04, -1.890116990613434e-05, 2.728776970641326e+01, -2.209647943872644e+03, 2.568099322536848e+01, 2.237525293787226e+03
659, 1.499999999999843e-04, 5.099999999992348e-03, 2.850710256601441e-04, -2.351168288913403e-05, 9.921525092367858e+00, -3.310797581296328e+03, -1.320705034242447e+02, 3.331207867280857e+03
660, 1.999999999999881e-04, 5.099999999989774e-03, 2.849127994364554e-04, -2.812691364194969e-05, -1.179439081133688e+01, -4.406867107078612e+03, -3.117102419192698e+02, 4.439067163374135e+03
661, -1.999999999999862e-04, 5.000000000010596e-03, 2.774071324497694e-04, 8.987551610344780e-06, 5.399139950836604e+01, 4.656955520799962e+03, 5.269759675248938e+02, 4.722085702662851e+03
662, -1.499999999999799e-04, 5.000000000007969e-03, 2.771393353530788e-04, 4.422180191271772e-06, 5.773039772411732e+01, 3.490151400247304e+03, 4.990425874823267e+02, 3.574589200879803e+03
663, -9.999999999996564e-05, 5.000000000005344e-03, 2.768882514129058e-04, -1.413960890507368e-07, 5.847565056533267e+01, 2.325730488586513e+03, 4.487428906028481e+02, 2.438426793651359e+03
664, -4.999999999996662e-05, 5.000000000002718e-03, 2.766538230375463e-04, -4.704279802906581e-06, 5.600437463220726e+01, 1.164138033951273e+03, 3.760783253788797e+02, 1.339290795232684e+03
665, 0.000000000000000e+00, 5.000000000000093e-03, 2.764359824051377e-04, -9.267574175240728e-06, 5.009118761879506e+01, 5.821904767799879e+00, 2.810506460205665e+02, 5.638418500949115e+02
666, 4.999999999996663e-05, 4.999999999997467e-03, 2.762346514222705e-04, -1.383238308015515e-05, 4.050867262783601e+01, -1.148766937855307e+03, 1.636619309422838e+02, 1.233498029284636e+03
667, 9.999999999996559e-05, 4.999999999994841e-03, 2.760497416822317e-04, -1.839981103957616e-05, 2.702739252642789e+01, -2.299174393404048e+03, 2.391460672054860e+01, 2.326693444036951e+03
668, 1.499999999999799e-04, 4.999999999992216e-03, 2.758811544227593e-04, -2.297096322173040e-05, 9.415864005439516e+00, -3.444943222696782e+03, -1.381885060043483e+02, 3.465397661546083e+03
669, 1.999999999999863e-04, 4.999999999989590e-03, 2.757287804833684e-04, -2.754694543945969e-05, -1.255950224391614e+01, -4.585613079766338e+03, -3.226441416005354e+02, 4.618356416662447e+03
670, -1.999999999999881e-04, 4.900000000010410e-03, 2.682736751454292e-04, 9.237977457650237e-06, 5.487647630849688e+01, 4.839130711390770e+03, 5.416839459145149e+02, 4.905382204777599e+03
671, -1.499999999999843e-04, 4.900000000007836e-03, 2.680073518965028e-04, 4.713743363702628e-06, 5.843596684294511e+01, 3.626718446095995e+03, 5.121306772423404e+02, 3.712378102245929e+03
672, -9.999999999997321e-05, 4.900000000005265e-03, 2.677583884308579e-04, 1.913245370796959e-07, 5.899654020987668e+01, 2.416700434417337e+03, 4.597700832291304e+02, 2.530676148876246e+03
673, -4.999999999997681e-05, 4.900000000002690e-03, 2.675267275427871e-04, -4.330403352386993e-06, 5.633410276059783e+01, 1.209521588060614e+03, 3.845995209828267e+02, 1.386184887528881e+03
674, -1.282069068964109e-17, 4.900000000000120e-03, 2.673123017937259e-04, -8.852565384738467e-06, 5.022283818965860e+01, 5.630160559036597e+00, 2.866167326411959e+02, 5.749653142737636e+02
675, 4.999999999995644e-05, 4.899999999997547e-03, 2.671150334707190e-04, -1.337628739029083e-05, 4.043491239637876e+01, -1.194522297745899e+03, 1.658197276086535e+02, 1.278711867130055e+03
676, 9.999999999995801e-05, 4.899999999994974e-03, 2.669348345428493e-04, -1.790269595000664e-05, 2.674036414051750e+01, -2.390480979749719e+03, 2.220683778080040e+01, 2.417629334686236e+03
677, 1.499999999999756e-04, 4.899999999992402e-03, 2.667716066169613e-04, -2.243291839514326e-05, 8.907096102638661e+00, -3.581787804655253e+03, -1.442232226017723e+02, 3.602261959113924e+03
678, 1.999999999999843e-04, 4.899999999989829e-03, 2.666252408932612e-04, -2.696808280593658e-05, -1.329908902633974e+01, -4.767981379474663e+03, -3.334713155584833e+02, 4.801230691843929e+03
679, -1.999999999999901e-04, 4.800000000010084e-03, 2.592229835339030e-04, 9.474405799017261e-06, 5.569843315520626e+01, 5.024948337286456e+03, 5.562570476865376e+02, 5.092261994645622e+03
680, -1.499999999999886e-04, 4.800000000007600e-03, 2.589581994642067e-04, 4.992906531139734e-06, 5.907228662084742e+01, 3.766036510262892e+03, 5.251198085900521e+02, 3.852867374937356e+03
681, -9.999999999998080e-05, 4.800000000005114e-03, 2.587114341191968e-04, 5.132431722755209e-07, 5.944639048873216e+01, 2.509524934286470e+03, 4.707336698226956e+02, 2.624737248258769e+03
682, -4.999999999998701e-05, 4.800000000002629e-03, 2.584826308346716e-04, -3.965730368123196e-06, 5.659612993856945e+01, 1.255858335098183e+03, 3.930921842899926e+02, 1.433985947673062e+03
683, -2.564138137928218e-17, 4.800000000000143e-03, 2.582717227155011e-04, -8.445161030182865e-06, 5.029547032302185e+01, 5.485454763543657e+00, 2.921888744203596e+02, 5.860932441468572e+02
684, 4.999999999994627e-05, 4.799999999997659e-03, 2.580786325902611e-04, -1.292619660986917e-05, 4.031615785372179e+01, -1.241141579459584e+03, 1.680174764007119e+02, 1.324784292639519e+03
685, 9.999999999995042e-05, 4.799999999995174e-03, 2.579032729650989e-04, -1.740998576137685e-05, 2.642768063506713e+01, -2.483567269508039e+03, 2.057203314529653e+01, 2.510332146138200e+03
686, 1.499999999999713e-04, 4.799999999992687e-03, 2.577455459773706e-04, -2.189767799779096e-05, 8.397245287183580e+00, -3.721332756831782e+03, -1.501530358049769e+02, 3.741800318743925e+03
687, 1.999999999999824e-04, 4.799999999990203e-03, 2.576053433490110e-04, -2.639042369028032e-05, -1.401013709709588e+01, -4.953975738880660e+03, -3.441628512805484e+02, 4.987690088569164e+03
688, -1.999999999999919e-04, 4.700000000009747e-03, 2.502582927519044e-04, 9.696490817457373e-06, 5.645910882182170e+01, 5.214419213303061e+03, 5.706625196761521e+02, 5.282724229493024e+03
689, -1.499999999999929e-04, 4.700000000007334e-03, 2.499951118539287e-04, 5.259354775831767e-06, 5.963937808628907e+01, 3.908114804232981e+03, 5.379847494865852e+02, 3.996057240377762e+03
690, -9.999999999998839e-05, 4.700000000004922e-03, 2.497506209058228e-04, 8.240759002815862e-07, 5.982356912557395e+01, 2.604210807461495e+03, 4.816167176636973e+02, 2.720611157357720e+03
691, -4.999999999999717e-05, 4.700000000002511e-03, 2.495247639576175e-04, -3.610513651819446e-06, 5.678836844294011e+01, 1.303153259412484e+03, 4.015475201171283e+02, 1.482695884222515e+03
692, -3.846207206892327e-17, 4.700000000000096e-03, 2.493174748290222e-04, -8.045582684838166e-06, 5.030727748754452e+01, 5.391193280886455e+00, 2.977662419781607e+02, 5.972239061421151e+02
693, 4.999999999993608e-05, 4.699999999997685e-03, 2.491286770600192e-04, -1.248230097089816e-05, 4.015141301013858e+01, -1.288622849519360e+03, 1.702621877698230e+02, 1.371713487247784e+03
694, 9.999999999994281e-05, 4.699999999995272e-03, 2.489582838627216e-04, -1.692183925256907e-05, 2.608957094235097e+01, -2.578432794082384e+03, 1.902496468125896e+01, 2.604800289281029e+03
695, 1.499999999999669e-04, 4.699999999992859e-03, 2.488061980734851e-04, -2.136536924389353e-05, 7.888255059923324e+00, -3.863579005157880e+03, -1.559554581031261e+02, 3.884011736154638e+03
696, 1.999999999999805e-04, 4.699999999990447e-03, 2.486723121050670e-04, -2.581406363115002e-05, -1.468853647873004e+01, -5.143598462761646e+03, -3.546886834578970e+02, 5.177734377178479e+03
697, -1.999999999999939e-04, 4.600000000009572e-03, 2.413829021991309e-04, 9.903889292894544e-06, 5.713268197628025e+01, 5.407534731919988e+03, 5.848695841566461e+02, 5.476777503051233e+03
698, -1.499999999999973e-04, 4.600000000007185e-03, 2.411213866554657e-04, 5.512775817398433e-06, 6.011547820573730e+01, 4.052946825266566e+03, 5.507024450898401e+02, 4.141955443770888e+03
699, -9.999999999999598e-05, 4.600000000004799e-03, 2.408792446109895e-04, 1.123541489558883e-06, 6.011244924917509e+01, 2.700754822266939e+03, 4.924038814502641e+02, 2.818304183732841e+03
700, -5.000000000000737e-05, 4.600000000002412e-03, 2.406564209957535e-04, -3.265003277559709e-06, 5.689971634677971e+01, 1.351404892607839e+03, 4.099579005030365e+02, 1.532320322943642e+03
701, -5.126921023140829e-17, 4.600000000000025e-03, 2.404528505096146e-04, -7.654049156195831e-06, 5.025046542853022e+01, 5.346504610116483e+00, 3.033489465597493e+02, 6.083573778732531e+02
702, 4.999999999992590e-05, 4.599999999997638e-03, 2.402684575707436e-04, -1.204478790439355e-05, 3.993534555649160e+01, -1.336967290025397e+03, 1.725617293404514e+02, 1.419496766323974e+03
703, 9.999999999993524e-05, 4.599999999995251e-03, 2.401031562655320e-04, -1.643841236746294e-05, 2.572256396165739e+01, -2.675079794223556e+03, 1.758125857591860e+01, 2.701031243912455e+03
704, 1.499999999999625e-04, 4.599999999992864e-03, 2.399568502987236e-04, -2.083611647936952e-05, 7.377896808573098e+00, -4.008530656393853e+03, -1.616070973232356e+02, 4.028894255661889e+03
705, 1.999999999999786e-04, 4.599999999990477e-03, 2.398294329435306e-04, -2.523909526253932e-05, -1.533512431189206e+01, -5.336855689707730e+03, -3.650176107874489e+02, 5.371362262282329e+03
706, -1.999999999999958e-04, 4.500000000009600e-03, 2.326001744898475e-04, 1.009626122873594e-05, 5.771954735056266e+01, 5.604303027857664e+03, 5.988482861141752e+02, 5.674422030952739e+03
707, -1.500000000000016e-04, 4.500000000007212e-03, 2.323403845896287e-04, 5.752860615588154e-06, 6.049986840753655e+01, 4.200539386256978e+03, 5.632512222775092e+02, 4.290563478955120e+03
708, -1.000000000000036e-04, 4.500000000004825e-03, 2.321006640405175e-04, 1.411361978423851e-06, 6.031130715819819e+01, 2.799162366778330e+03, 5.030808498821802e+02, 2.917818790270400e+03
709, -5.000000000001756e-05, 4.500000000002437e-03, 2.318809588295903e-04, -2.929446018918343e-06, 5.692840539617731e+01, 1.400617538650018e+03, 4.183165224063858e+02, 1.582863019498891e+03
710, -6.409667718462742e-17, 4.500000000000053e-03, 2.316812047116284e-04, -7.270775921191193e-06, 5.012392124105662e+01, 5.354739019923784e+00, 3.089378782817907e+02, 6.194955449603873e+02
711, 4.999999999991571e-05, 4.499999999997665e-03, 2.315013271587380e-04, -1.161384148034345e-05, 3.966813618095983e+01, -1.386172412433948e+03, 1.749248329187110e+02, 1.468133528927468e+03
712, 9.999999999992765e-05, 4.499999999995279e-03, 2.313412413089280e-04, -1.595985765699180e-05, 2.532881140475877e+01, -2.773506516609415e+03, 1.625759839010639e+01, 2.799024192707499e+03
713, 1.499999999999582e-04, 4.499999999992891e-03, 2.312008519144608e-04, -2.031004062185753e-05, 6.871189025827675e+00, -4.156186374516408e+03, -1.670832743332849e+02, 4.176447720206005e+03
714, 1.999999999999767e-04, 4.499999999990504e-03, 2.310800532900445e-04, -2.466560775765510e-05, -1.594198918303050e+01, -5.533746985681591e+03, -3.751167598182373e+02, 5.568574531544909e+03
715, -1.999999999999977e-04, 4.400000000009622e-03, 2.239135357689959e-04, 1.027327068675178e-05, 5.822721804380438e+01, 5.804735780088573e+03, 6.125643139260643e+02, 5.875653223977456e+03
716, -1.500000000000059e-04, 4.400000000007235e-03, 2.236555297102922e-04, 5.979304144644547e-06, 6.079882880549525e+01, 4.350903186763640e+03, 5.756052177407404e+02, 4.441878079026138e+03
717, -1.000000000000112e-04, 4.400000000004850e-03, 2.234183011135706e-04, 1.687263387449788e-06, 6.042343372529479e+01, 2.899441534830795e+03, 5.136304883499123e+02, 3.019153671586618e+03
718, -5.000000000002772e-05, 4.400000000002464e-03, 2.232017972105087e-04, -2.604084684042855e-06, 5.687567349511227e+01, 1.450797000926209e+03, 4.266148387584275e+02, 1.634324799317072e+03
719, -7.691736787426851e-17, 4.400000000000076e-03, 2.230059549990184e-04, -6.895974494216620e-06, 4.992773784283565e+01, 5.419639334725503e+00, 3.145330263758050e+02, 6.306386204137033e+02
720, 4.999999999990552e-05, 4.399999999997690e-03, 2.228307011925319e-04, -1.118964179774148e-05, 3.934936269714132e+01, -1.436236513903219e+03, 1.773600146172108e+02, 1.517623134497667e+03
721, 9.999999999991999e-05, 4.399999999995304e-03, 2.226759521674779e-04, -1.548632368279373e-05, 2.490772531518888e+01, -2.873713473363237e+03, 1.507103966580671e+01, 2.898777914634784e+03
722, 1.499999999999539e-04, 4.399999999992917e-03, 2.225416139100105e-04, -1.978725857379160e-05, 6.367416222935503e+00, -4.306549299247852e+03, -1.723583245161015e+02, 4.326670794353010e+03
723, 1.999999999999748e-04, 4.399999999990530e-03, 2.224275819625634e-04, -2.409368623239454e-05, -1.650976786549865e+01, -5.734278231232009e+03, -3.849521574050474e+02, 5.769369883672898e+03
724, -1.999999999999997e-04, 4.300000000009517e-03, 2.153264764943377e-04, 1.043458624393997e-05, 5.864541760856355e+01, 6.008833161587532e+03, 6.259813283065628e+02, 6.080472406166426e+03
725, -1.500000000000103e-04, 4.300000000007164e-03, 2.150703099495264e-04, 6.191805915008163e-06, 6.100370119908871e+01, 4.504038988693057e+03, 5.877366504301729e+02, 4.595900352156488e+03
726, -1.000000000000188e-04, 4.300000000004808e-03, 2.148356412393378e-04, 1.950976270657278e-06, 6.044262438735922e+01, 3.001594220406324e+03, 5.240340532929272e+02, 3.122309956876057e+03
727, -5.000000000003792e-05, 4.300000000002456e-03, 2.146224190252955e-04, -2.289157549849551e-06, 5.673699425025558e+01, 1.501945415920160e+03, 4.348431604944095e+02, 1.686707348350828e+03
728, -8.973805856390960e-17, 4.300000000000101e-03, 2.144305817387479e-04, -6.529851855944572e-06, 4.965873584397241e+01, 5.542980488018941e+00, 3.201336712553020e+02, 6.417853767079906e+02
729, 4.999999999989533e-05, 4.299999999997747e-03, 2.142600575264444e-04, -1.077236441404166e-05, 3.897710962291995e+01, -1.487158617515420e+03, 1.798754351359200e+02, 1.567963949301582e+03
730, 9.999999999991241e-05, 4.299999999995395e-03, 2.141107641956962e-04, -1.501795445308403e-05, 2.445869924051868e+01, -2.975700828459651e+03, 1.403854088619346e+01, 3.000290904924214e+03
731, 1.499999999999495e-04, 4.299999999993039e-03, 2.139826091591569e-04, -1.926788266833911e-05, 5.867368753796825e+00, -4.459621033835718e+03, -1.774066183825557e+02, 4.479562378921090e+03
732, 1.999999999999729e-04, 4.299999999990687e-03, 2.138754893790744e-04, -2.352341122494526e-05, -1.703554817367689e+01, -5.938452364049690e+03, -3.944892767513780e+02, 5.973747924479783e+03
733, -2.000000000000014e-04, 4.200000000009198e-03, 2.068425512214460e-04, 1.057988150276495e-05, 5.896723140255460e+01, 6.216598428026088e+03, 6.390631794249833e+02, 6.288881374522693e+03
734, -1.500000000000147e-04, 4.200000000006931e-03, 2.065882770245646e-04, 6.390070485033983e-06, 6.110768722664909e+01, 4.659949880354368e+03, 5.996182713879831e+02, 4.752632723325149e+03
735, -1.000000000000264e-04, 4.200000000004664e-03, 2.063562332882140e-04, 2.202236255097744e-06, 6.036311446788659e+01, 3.105623496568935e+03, 5.342731510845766e+02, 3.227290193749796e+03
736, -5.000000000004811e-05, 4.200000000002396e-03, 2.061463702981958e-04, -1.984897798566370e-06, 5.650797477188070e+01, 1.554065694118298e+03, 4.429921182579436e+02, 1.740013560328965e+03
737, -1.025587492535507e-16, 4.200000000000129e-03, 2.059586281157503e-04, -6.172609870426459e-06, 4.931407165637455e+01, 5.727279984174913e+00, 3.257395475240185e+02, 6.529355402280419e+02
738, 4.999999999988515e-05, 4.199999999997860e-03, 2.057929365191948e-04, -1.036217974583896e-05, 3.855034200949655e+01, -1.538936763449507e+03, 1.824799625617871e+02, 1.619154506165373e+03
739, 9.999999999990481e-05, 4.199999999995591e-03, 2.056492149463735e-04, -1.455488880689128e-05, 2.398290444974555e+01, -3.079467248665308e+03, 1.317811243893765e+01, 3.103562066957847e+03
740, 1.499999999999452e-04, 4.199999999993324e-03, 2.055273724373471e-04, -1.875202003702677e-05, 5.375099277062304e+00, -4.615400744466782e+03, -1.822009610305864e+02, 4.635122237754740e+03
741, 1.999999999999710e-04, 4.199999999991056e-03, 2.054273075774140e-04, -2.295485802448382e-05, -1.751260686717836e+01, -6.146269662425450e+03, -4.036918453292404e+02, 6.181709429437508e+03
742, -2.000000000000034e-04, 4.100000000008875e-03, 1.984653785091450e-04, 1.070883579986453e-05, 5.919203174578627e+01, 6.428039359765524e+03, 6.517719660062348e+02, 6.500880176584606e+03
743, -1.500000000000190e-04, 4.100000000006694e-03, 1.982130463731746e-04, 6.573808122677368e-06, 6.110891933624225e+01, 4.818642788935465e+03, 6.112217188272929e+02, 4.912076595356440e+03
744, -1.000000000000340e-04, 4.100000000004513e-03, 1.979836895491881e-04, 2.440784677694249e-06, 6.018179951302676e+01, 3.211534649261777e+03, 5.443289013995552e+02, 3.334096668546813e+03
745, -5.000000000005830e-05, 4.100000000002334e-03, 1.977772601572062e-04, -1.691532889789061e-06, 5.618522163377901e+01, 1.607161725809751e+03, 4.510522738092956e+02, 1.794246563697437e+03
746, -1.153726636796137e-16, 4.100000000000152e-03, 1.975937000952320e-04, -5.824444659977862e-06, 4.889061049299431e+01, 5.975059025641428e+00, 3.313506616167172e+02, 6.640894430519821e+02
747, 4.999999999987496e-05, 4.099999999997971e-03, 1.974329409790797e-04, -9.959252443982521e-06, 3.806645602635109e+01, -1.591569961460536e+03, 1.851830653320886e+02, 1.671192964305035e+03
748, 9.999999999989721e-05, 4.099999999995790e-03, 1.972949040828771e-04, -1.409725978908413e-05, 2.347834338222185e+01, -3.185013585334257e+03, 1.250871278175583e+01, 3.208589460841105e+03
749, 1.499999999999408e-04, 4.099999999993610e-03, 1.971795002799306e-04, -1.823977198328477e-05, 4.888960514519226e+00, -4.773891696447686e+03, -1.867128804130305e+02, 4.793348658944459e+03
750, 1.999999999999691e-04, 4.099999999991429e-03, 1.970866299836963e-04, -2.238809605892336e-05, -1.794189705043470e+01, -6.357735793459899e+03, -4.125218717197199e+02, 6.393252992611763e+03
751, -2.000000000000054e-04, 4.000000000008551e-03, 1.901986411812771e-04, 1.082113482381820e-05, 5.931026653130778e+01, 6.643157057645016e+03, 6.640688443030039e+02, 6.716471416506883e+03
752, -1.500000000000234e-04, 4.000000000006458e-03, 1.899482973109327e-04, 6.742735442119717e-06, 6.099903420360994e+01, 4.980119359372520e+03, 6.225179750510188e+02, 5.074234847790983e+03
753, -1.000000000000416e-04, 4.000000000004365e-03, 1.897216858290181e-04, 2.666369228564432e-06, 5.989209690337270e+01, 3.319329992159125e+03, 5.541820973691748e+02, 3.442732429511077e+03
754, -5.000000000006849e-05, 4.000000000002271e-03, 1.895187609019260e-04, -1.409283916158649e-06, 5.576362832768535e+01, 1.661235895076567e+03, 4.590141288559412e+02, 1.849409927857344e+03
755, -1.282069068964109e-16, 4.000000000000177e-03, 1.893394664756535e-04, -5.485545961735127e-06, 4.838466440186227e+01, 6.288357495254616e+00, 3.369671983087897e+02, 6.752478581968818e+02
756, 4.999999999986478e-05, 3.999999999998083e-03, 1.891837362147518e-04, -9.563740753061344e-06, 3.752326410898542e+01, -1.645056820805399e+03, 1.879946067062556e+02, 1.724077617380684e+03
757, 9.999999999988963e-05, 3.999999999995989e-03, 1.890514934413657e-04, -1.364519401511788e-05, 2.294451143442484e+01, -3.292339317748287e+03, 1.204987532613674e+01, 3.315371422031306e+03
758, 1.499999999999365e-04, 3.999999999993896e-03, 1.889426510742967e-04, -1.773123335764958e-05, 4.410505847500247e+00, -4.935094288831150e+03, -1.909132002086383e+02, 4.954240508565263e+03
759, 1.999999999999672e-04, 3.999999999991804e-03, 1.888571115681070e-04, -2.182318827942651e-05, -1.831957548497172e+01, -6.572852311804862e+03, -4.209404780406203e+02, 6.608378237941693e+03
760, -2.000000000000072e-04, 3.900000000008219e-03, 1.820460861364329e-04, 1.091647127459415e-05, 5.931650305896892e+01, 6.861954478124191e+03, 6.759145667410122e+02, 6.935656091959162e+03
761, -1.500000000000277e-04, 3.900000000006203e-03, 1.817977729251554e-04, 6.896576088716369e-06, 6.077342459435908e+01, 5.144382900505556e+03, 6.334778619252641e+02, 5.239108904171751e+03
762, -1.000000000000492e-04, 3.900000000004186e-03, 1.815739613932218e-04, 2.878744641975057e-06, 5.949004492478934e+01, 3.429012921280150e+03, 5.638133354668353e+02, 3.553199448846498e+03
763, -5.000000000007867e-05, 3.900000000002170e-03, 1.813746079691630e-04, -1.138364912237669e-06, 5.523986872734690e+01, 1.716291303096270e+03, 4.668681455531251e+02, 1.905506580662453e+03
764, -1.410275975860520e-16, 3.900000000000153e-03, 1.811996588640355e-04, -5.156096437915777e-06, 4.779366494317600e+01, 6.669647768921379e+00, 3.425895536389680e+02, 6.864121166170785e+02
765, 4.999999999985460e-05, 3.899999999998138e-03, 1.810490500094147e-04, -9.175795821849530e-06, 3.691916165308442e+01, -1.699395779322466e+03, 1.909249701749489e+02, 1.777807343668079e+03
766, 9.999999999988204e-05, 3.899999999996121e-03, 1.809227069945892e-04, -1.319881097936522e-05, 2.238101218848311e+01, -3.401444043036596e+03, 1.182200865887074e+01, 3.423906693872066e+03
767, 1.499999999999321e-04, 3.899999999994104e-03, 1.808205450036213e-04, -1.722649185933234e-05, 3.940801000225406e+00, -5.099009519132683e+03, -1.947714515080592e+02, 5.117796952110818e+03
768, 1.999999999999652e-04, 3.899999999992088e-03, 1.807424687526402e-04, -2.126019044848281e-05, -1.864304794885766e+01, -6.791621973680600e+03, -4.289072018295850e+02, 6.827084962085315e+03
769, -2.000000000000091e-04, 3.800000000007874e-03, 1.740115243965629e-04, 1.099454567570634e-05, 5.921467996587194e+01, 7.084441077790664e+03, 6.872672546026515e+02, 7.158432164775369e+03
770, -1.500000000000321e-04, 3.800000000005924e-03, 1.737652801337494e-04, 7.035061514855956e-06, 6.043423595387378e+01, 5.311441582133543e+03, 6.440697862667179e+02, 5.406697856174273e+03
771, -1.000000000000568e-04, 3.800000000003971e-03, 1.735443190220445e-04, 3.077673448488225e-06, 5.897587385566305e+01, 3.540589863127310e+03, 5.732015261627633e+02, 3.665498046469718e+03
772, -5.000000000008884e-05, 3.800000000002021e-03, 1.733485999791124e-04, -8.789821205324925e-07, 5.461312262352578e+01, 1.772332898409611e+03, 4.746037328741153e+02, 1.962538162981494e+03
773, -1.538415120121150e-16, 3.800000000000070e-03, 1.731780717094591e-04, -4.836270954713413e-06, 4.711645176649677e+01, 7.122505869551162e+00, 3.482176313126641e+02, 6.975826766315357e+02
774, 4.999999999984441e-05, 3.799999999998119e-03, 1.730326726402804e-04, -8.795560991399284e-06, 3.625319430764068e+01, -1.754584666886159e+03, 1.939845417807804e+02, 1.832381034306124e+03
775, 9.999999999987444e-05, 3.799999999996168e-03, 1.729123308565880e-04, -1.275822234976667e-05, 2.178750038723160e+01, -3.512327147425695e+03, 1.184596341985184e+01, 3.534194059652535e+03
776, 1.499999999999278e-04, 3.799999999994218e-03, 1.728169640360521e-04, -1.672562733647808e-05, 3.480341423433458e+00, -5.265638609341935e+03, -1.982563485722150e+02, 5.284017111659603e+03
777, 1.999999999999633e-04, 3.799999999992265e-03, 1.727464793839363e-04, -2.069915044972909e-05, -1.891040233155258e+01, -7.014047787703441e+03, -4.363803257879196e+02, 7.049372893752078e+03
778, -2.000000000000110e-04, 3.700000000007529e-03, 1.660988316033871e-04, 1.105506704267857e-05, 5.899693342041689e+01, 7.310617985178558e+03, 6.980830442029447e+02, 7.384801122895352e+03
779, -1.500000000000364e-04, 3.700000000005644e-03, 1.658546900263570e-04, 7.157931667791141e-06, 5.997465218441198e+01, 5.481297407440336e+03, 6.542605631977899e+02, 5.577003492457149e+03
780, -1.000000000000644e-04, 3.700000000003758e-03, 1.656366252449754e-04, 3.262926672028602e-06, 5.834403549241040e+01, 3.654063427050965e+03, 5.823244083384418e+02, 3.779630247658769e+03
781, -5.000000000009902e-05, 3.700000000001873e-03, 1.654445988973670e-04, -6.313332867141156e-07, 5.387891779973677e+01, 1.829363347570540e+03, 4.822095802125356e+02, 2.020507183197712e+03
782, -1.666825314924902e-16, 3.699999999999988e-03, 1.652785624151227e-04, -4.526235872700808e-06, 4.634963084621302e+01, 7.649264768755074e+00, 3.538510487865466e+02, 7.087594636009351e+02
783, 4.999999999983423e-05, 3.699999999998102e-03, 1.651384569559225e-04, -8.423171082372055e-06, 3.552317485660910e+01, -1.810621801815950e+03, 1.971838482998672e+02, 1.887796905129019e+03
784, 9.999999999986681e-05, 3.699999999996217e-03, 1.650242133363782e-04, -1.232353125262273e-05, 2.116324049706509e+01, -3.624987858622151e+03, 1.214315458432287e+01, 3.646231981432517e+03
785, 1.499999999999234e-04, 3.699999999994331e-03, 1.649357519645253e-04, -1.622871106774687e-05, 3.030175945647670e+00, -5.434981924667632e+03, -2.013356343655214e+02, 5.452900123519403e+03
786, 1.999999999999614e-04, 3.699999999992445e-03, 1.648729827717091e-04, -2.014010756444032e-05, -1.911893446021884e+01, -7.240131920539883e+03, -4.433167762129102e+02, 7.275242099161950e+03
787, -2.000000000000130e-04, 3.600000000007325e-03, 1.583119479065785e-04, 1.109775357197630e-05, 5.865859667984773e+01, 7.540489195817467e+03, 7.083174868058638e+02, 7.614764852748370e+03
788, -1.500000000000407e-04, 3.600000000005489e-03, 1.580699378191131e-04, 7.264935678938350e-06, 5.938912836851966e+01, 5.653953747481945e+03, 6.640167773284081e+02, 5.750028382515184e+03
789, -1.000000000000720e-04, 3.600000000003653e-03, 1.578548103314896e-04, 3.434284534044610e-06, 5.758924943395857e+01, 3.769436772203693e+03, 5.911595691461697e+02, 3.895598872710607e+03
790, -5.000000000010923e-05, 3.600000000001818e-03, 1.576665300419159e-04, -3.956069443583853e-07, 5.303260214825309e+01, 1.887385531973536e+03, 4.896743369226061e+02, 2.079416864440840e+03
791, -1.794761171278192e-16, 3.599999999999982e-03, 1.575050513485537e-04, -4.226148323848627e-06, 4.548934383928645e+01, 8.252298731920689e+00, 3.594895848154538e+02, 7.199428059863350e+02
792, 4.999999999982404e-05, 3.599999999998146e-03, 1.573703183804490e-04, -8.058751667111569e-06, 3.472622415523324e+01, -1.867505553317175e+03, 2.005338608010302e+02, 1.944052739134642e+03
793, 9.999999999985923e-05, 3.599999999996311e-03, 1.572622649283465e-04, -1.189483154118945e-05, 2.050658569145969e+01, -3.739425506197656e+03, 1.273581406757123e+01, 3.760018369563840e+03
794, 1.499999999999191e-04, 3.599999999994474e-03, 1.571808143750794e-04, -1.573580502609063e-05, 2.590335984431306e+00, -5.607039867522311e+03, -2.039757423782619e+02, 5.624444455589383e+03
795, 1.999999999999595e-04, 3.599999999992638e-03, 1.571258796251904e-04, -1.958309172302776e-05, -1.926634992316542e+01, -7.469875943503275e+03, -4.496717502551082e+02, 7.504692002198221e+03
796, -2.000000000000149e-04, 3.500000000007369e-03, 1.506548779526976e-04, 1.112233343865523e-05, 5.819526695495915e+01, 7.774057619913423e+03, 7.179248356672038e+02, 7.848324415343242e+03
797, -1.500000000000451e-04, 3.500000000005565e-03, 1.504150228536652e-04, 7.355832653589676e-06, 5.867346386111853e+01, 5.829413939488488e+03, 6.733041270936163e+02, 5.925774162697156e+03
798, -1.000000000000796e-04, 3.500000000003764e-03, 1.502028683016903e-04, 3.591537233495486e-06, 5.670730066578028e+01, 3.886713164589568e+03, 5.996839648057705e+02, 4.013406078167431e+03
799, -5.000000000011939e-05, 3.500000000001962e-03, 1.500183821004418e-04, -1.719816418795348e-07, 5.207002752177516e+01, 1.946402293947005e+03, 4.969862469778686e+02, 2.139269981643349e+03
800, -1.923239128717724e-16, 3.500000000000160e-03, 1.498615218607482e-04, -3.936155444592254e-06, 4.453161753991276e+01, 8.933686748415482e+00, 3.651328300990232e+02, 7.311327835223399e+02
801, 4.999999999981385e-05, 3.499999999998358e-03, 1.497322349302896e-04, -7.702418309305082e-06, 3.385857957002690e+01, -1.925235006909126e+03, 2.040455683122008e+02, 2.001146185658396e+03
802, 9.999999999985163e-05, 3.499999999996555e-03, 1.496304583223863e-04, -1.147220704397152e-05, 1.981390933473051e+01, -3.855640831357461e+03, 1.364637113719704e+01, 3.875550843549137e+03
803, 1.499999999999148e-04, 3.499999999994753e-03, 1.495561186442689e-04, -1.524696114020786e-05, 2.157062143622738e+00, -5.781815498783569e+03, -2.061427368457040e+02, 5.798647937008731e+03
804, 1.999999999999576e-04, 3.499999999992950e-03, 1.495091320248948e-04, -1.902812278328042e-05, -1.935599102046911e+01, -7.703285273365665e+03, -4.553996322855023e+02, 7.737720886438398e+03
805, -2.000000000000167e-04, 3.400000000007423e-03, 1.431316909533161e-04, 1.112854563831115e-05, 5.760589892145640e+01, 8.011327619792797e+03, 7.268576412557154e+02, 8.085479412852887e+03
806, -1.500000000000494e-04, 3.400000000005649e-03, 1.428940086646568e-04, 7.430392511795802e-06, 5.782647165991864e+01, 6.007682764543530e+03, 6.820867257797925e+02, 6.104241075834629e+03
807, -1.000000000000872e-04, 3.400000000003875e-03, 1.426848569902539e-04, 3.734485777556939e-06, 5.569652009182209e+01, 4.005897186139860e+03, 6.078734081207526e+02, 4.133052821250621e+03
808, -5.000000000012958e-05, 3.400000000002102e-03, 1.425042071926688e-04, 3.937487962384987e-08, 5.098943339087657e+01, 2.006417855909865e+03, 5.041328732174126e+02, 2.200068210540045e+03
809, -2.051242747706794e-16, 3.400000000000329e-03, 1.423520203514299e-04, -3.656393558686630e-06, 4.347512223424053e+01, 9.697210898483718e+00, 3.707801287860452e+02, 7.423291472821146e+02
810, 4.999999999980369e-05, 3.399999999998554e-03, 1.422282472904680e-04, -7.354275748821111e-06, 3.291991856362483e+01, -1.983806861613328e+03, 2.077301155684324e+02, 2.059076032967019e+03
811, 9.999999999984403e-05, 3.399999999996781e-03, 1.421328285047943e-04, -1.105573074950783e-05, 1.908653706002860e+01, -3.973631004525619e+03, 1.489778208115732e+01, 3.992828714399039e+03
812, 1.499999999999104e-04, 3.399999999995008e-03, 1.420656940868075e-04, -1.476222047832759e-05, 1.734076157303889e+00, -5.959306348446922e+03, -2.078018526060019e+02, 5.975510805240979e+03
813, 1.999999999999557e-04, 3.399999999993234e-03, 1.420267636526193e-04, -1.847520972306929e-05, -1.938180289941374e+01, -7.940358360219695e+03, -4.604535953722244e+02, 7.974330045563845e+03
814, -2.000000000000187e-04, 3.300000000007353e-03, 1.357465208920611e-04, 1.111614082148882e-05, 5.688885513959383e+01, 8.252302966793586e+03, 7.350664375600994e+02, 8.326229826998928e+03
815, -1.500000000000538e-04, 3.300000000005614e-03, 1.355110231286982e-04, 7.488396819465588e-06, 5.684557651947296e+01, 6.188763961358118e+03, 6.903270991582433e+02, 6.285429905237280e+03
816, -1.000000000000948e-04, 3.300000000003875e-03, 1.353048981449651e-04, 3.862942812784058e-06, 5.455404134263392e+01, 4.126992546418312e+03, 6.157026740707151e+02, 4.254540458034728e+03
817, -5.000000000013977e-05, 3.300000000002137e-03, 1.351281209249232e-04, 2.383065188372071e-07, 4.978802780804358e+01, 2.067435717715738e+03, 5.111013046839460e+02, 2.261813514679842e+03
818, -2.179652942510546e-16, 3.300000000000398e-03, 1.349806562816531e-04, -3.386987341728495e-06, 4.231748424469379e+01, 1.054595705901397e+01, 3.764309242211089e+02, 7.535319454273609e+02
819, 4.999999999979350e-05, 3.299999999998659e-03, 1.348624587817972e-04, -7.014417060660246e-06, 3.190863254647650e+01, -2.043218658553291e+03, 2.115993501413663e+02, 2.117840979438271e+03
820, 9.999999999983644e-05, 3.299999999996922e-03, 1.347734726700740e-04, -1.064546395600219e-05, 1.832397698068303e+01, -4.093394408059677e+03, 1.651436204969477e+01, 4.111851039920407e+03
821, 1.499999999999061e-04, 3.299999999995182e-03, 1.347136317935772e-04, -1.428161238494306e-05, 1.322296784099876e+00, -6.139511895931545e+03, -2.089162180094135e+02, 6.155032780336352e+03
822, 1.999999999999538e-04, 3.299999999993444e-03, 1.346828595260598e-04, -1.792434975461354e-05, -1.934150530158286e+01, -8.181096147852220e+03, -4.647844395385995e+02, 8.214519897483098e+03
823, -2.000000000000206e-04, 3.200000000007042e-03, 1.285035666315136e-04, 1.108488210500217e-05, 5.603924826620278e+01, 8.496984948024796e+03, 7.425003888890408e+02, 8.570577087703872e+03
824, -1.500000000000580e-04, 3.200000000005365e-03, 1.282702585425679e-04, 7.529639600143350e-06, 5.572548252244269e+01, 6.372659287390489e+03, 6.979869564274734e+02, 6.469342768817884e+03
825, -1.000000000001024e-04, 3.200000000003689e-03, 1.280671774804743e-04, 3.976733443476138e-06, 5.327480347503251e+01, 4.250001461597209e+03, 6.231460188966594e+02, 4.377871456137143e+03
826, -5.000000000014997e-05, 3.200000000002012e-03, 1.278943024209265e-04, 4.246696368637308e-07, 4.846110138425581e+01, 2.129458211525493e+03, 5.178784059246823e+02, 2.324508796651142e+03
827, -2.307656561499616e-16, 3.200000000000335e-03, 1.277516021815946e-04, -3.128048998048181e-06, 4.105437246462373e+01, 1.148196552896252e+01, 3.820847487407158e+02, 7.647414910497481e+02
828, 4.999999999978330e-05, 3.199999999998658e-03, 1.276390353444071e-04, -6.682922835431164e-06, 3.082077887576929e+01, -2.103469071376122e+03, 2.156655271982071e+02, 2.177438780626211e+03
829, 9.999999999982882e-05, 3.199999999996980e-03, 1.275565501776754e-04, -1.024145546031894e-05, 1.752264158179162e+01, -4.214930881806181e+03, 1.852114096887689e+01, 4.232615616647751e+03
830, 1.499999999999017e-04, 3.199999999995303e-03, 1.275040845580303e-04, -1.380515368247971e-05, 9.184089248037708e-01, -6.322433619756599e+03, -2.094480177168149e+02, 6.337211908018479e+03
831, 1.999999999999519e-04, 3.199999999993626e-03, 1.274815658919501e-04, -1.737552754963128e-05, -1.923739366503264e+01, -8.425501595538113e+03, -4.683415002078427e+02, 8.458289003986600e+03
832, -2.000000000000225e-04, 3.100000000006703e-03, 1.214070918528911e-04, 1.103454594277016e-05, 5.505383179788498e+01, 8.745375213892206e+03, 7.491075957861295e+02, 8.818522239261159e+03
833, -1.500000000000624e-04, 3.100000000005093e-03, 1.211759715934923e-04, 7.553928203197118e-06, 5.446268102366707e+01, 6.559371207423836e+03, 7.050272568889644e+02, 6.655981420396178e+03
834, -1.000000000001100e-04, 3.100000000003483e-03, 1.209759446694394e-04, 4.075696097117457e-06, 5.185509320857454e+01, 4.374926821410577e+03, 6.301771988447081e+02, 4.503048120435145e+03
835, -5.000000000016015e-05, 3.100000000001875e-03, 1.208069943257889e-04, 5.983339197979045e-07, 4.700495113415877e+01, 2.192488347248873e+03, 5.244507922432482e+02, 2.388156933064117e+03
836, -2.436134518939148e-16, 3.100000000000265e-03, 1.206690936639511e-04, -2.879677401326412e-06, 3.968236414774663e+01, 1.250811183101644e+01, 3.877411480376375e+02, 7.759582666066223e+02
837, 4.999999999977311e-05, 3.099999999998656e-03, 1.205622055618148e-04, -6.359860323994966e-06, 2.965350657210138e+01, -2.164555590899346e+03, 2.199411753859374e+02, 2.237867298556162e+03
838, 9.999999999982122e-05, 3.099999999997047e-03, 1.204862825934005e-04, -9.843740707315975e-06, 1.668057953650361e+01, -4.338238485538211e+03, 2.094365606023845e+01, 4.355120504678132e+03
839, 1.499999999998973e-04, 3.099999999995438e-03, 1.204412669482601e-04, -1.333284782700400e-05, 5.218097502680621e-01, -6.508070268828133e+03, -2.093586801323785e+02, 6.522046846897115e+03
840, 1.999999999999499e-04, 3.099999999993829e-03, 1.204270903508218e-04, -1.682871438944268e-05, -1.906848270591536e+01, -8.673574512856563e+03, -4.710730945737107e+02, 8.705636913381981e+03
841, -2.000000000000244e-04, 3.000000000006373e-03, 1.144614250922185e-04, 1.096492306351164e-05, 5.393221923840849e+01, 8.997476528040055e+03, 7.548343618520511e+02, 9.070065295180004e+03
842, -1.500000000000668e-04, 3.000000000004845e-03, 1.142324833905727e-04, 7.561084235312874e-06, 5.305599111192930e+01, 6.748903223924824e+03, 7.114074828139220e+02, 6.845346783880469e+03
843, -1.000000000001176e-04, 3.000000000003318e-03, 1.140355133657319e-04, 4.159683444676445e-06, 5.029276934249708e+01, 4.501772244329881e+03, 6.367689735170896e+02, 4.630072182889806e+03
844, -5.000000000017031e-05, 3.000000000001789e-03, 1.138705028195724e-04, 7.591832913143083e-07, 4.541689217787496e+01, 2.256529670436354e+03, 5.308045629003768e+02, 2.452760415157047e+03
845, -2.564273663199779e-16, 3.000000000000262e-03, 1.137374294263629e-04, -2.641957186341124e-06, 3.819867353295695e+01, 1.362771009917708e+01, 3.933996108226439e+02, 7.871827916219299e+02
846, 4.999999999976296e-05, 2.999999999998735e-03, 1.136362606502784e-04, -6.045282530131843e-06, 2.840434374296615e+01, -2.226475318104362e+03, 2.244392224487498e+02, 2.299124648144662e+03
847, 9.999999999981362e-05, 2.999999999997206e-03, 1.135669536627567e-04, -9.452340879732580e-06, 1.579604247427483e+01, -4.463314938085908e+03, 2.380832348973101e+01, 4.479364075540675e+03
848, 1.499999999998930e-04, 2.999999999995678e-03, 1.135294552595623e-04, -1.286468398922414e-05, 1.317959642318556e-01, -6.696420481305564e+03, -2.086082645183192e+02, 6.709536648257365e+03
849, 1.999999999999481e-04, 2.999999999994151e-03, 1.135237017775208e-04, -1.628386724243661e-05, -1.883447353710426e+01, -8.925315030034622e+03, -4.729257206142890e+02, 8.956563562669700e+03
850, -2.000000000000263e-04, 2.900000000006043e-03, 1.076709599058791e-04, 1.087581940447106e-05, 5.267358009281486e+01, 9.253291165860152e+03, 7.596249694941820e+02, 9.325206932644836e+03
851, -1.500000000000711e-04, 2.900000000004594e-03, 1.074441795796394e-04, 7.550944488931451e-06, 5.150310244403715e+01, 6.941257851175817e+03, 7.170855546980183e+02, 7.037440391839803e+03
852, -1.000000000001252e-04, 2.900000000003146e-03, 1.072502612799421e-04, 4.228563328505479e-06, 4.858480201890154e+01, 4.630540574210067e+03, 6.428930664769041e+02, 4.758945752791498e+03
853, -5.000000000018052e-05, 2.900000000001698e-03, 1.070891976621300e-04, 9.071168391972180e-07, 4.369357352663872e+01, 2.321585237623969e+03, 5.369252633867404e+02, 2.518321938755208e+03
854, -2.692480570096190e-16, 2.900000000000249e-03, 1.069609712706157e-04, -2.414957824182534e-06, 3.659993331100520e+01, 1.484381714546976e+01, 3.990595397827781e+02, 7.984155520511728e+02
855, 4.999999999975274e-05, 2.899999999998802e-03, 1.068655544545487e-04, -5.739227287519743e-06, 2.707022674684833e+01, -2.289225416852207e+03, 2.291729830407709e+02, 2.361208701741373e+03
856, 9.999999999980604e-05, 2.899999999997354e-03, 1.068029092831799e-04, -9.067261976505044e-06, 1.486661180940337e+01, -4.590157849267922e+03, 2.714243959759162e+01, 4.605344410055532e+03
857, 1.499999999998886e-04, 2.899999999995905e-03, 1.067729874607628e-04, -1.240063613492752e-05, -2.529637035138421e-01, -6.887482470784550e+03, -2.071554125947948e+02, 6.899679973960891e+03
858, 1.999999999999462e-04, 2.899999999994458e-03, 1.067757302409877e-04, -1.574092784199454e-05, -1.853490719104104e+01, -9.180721925384527e+03, -4.738439903807293e+02, 9.211068530047585e+03
859, -2.000000000000283e-04, 2.800000000005697e-03, 1.010401549439463e-04, 1.076705702453046e-05, 5.127328103395826e+01, 9.512817787785149e+03, 7.634225581032493e+02, 9.583949105776661e+03
860, -1.500000000000755e-04, 2.800000000004316e-03, 1.008155103952392e-04, 7.523361869138500e-06, 4.979915080187288e+01, 7.136434965606413e+03, 7.220186751225181e+02, 7.232264585907593e+03
861, -1.000000000001328e-04, 2.800000000002934e-03, 1.006246302157762e-04, 4.282219698812919e-06, 4.672654260230649e+01, 4.761232947174084e+03, 6.485206525550578e+02, 4.889671439464011e+03
862, -5.000000000019071e-05, 2.800000000001552e-03, 1.004675122148391e-04, 1.042049756114331e-06, 4.183039249080241e+01, 2.387656908572183e+03, 5.427981092643496e+02, 2.584844520127723e+03
863, -2.820416426449479e-16, 2.800000000000171e-03, 1.003441441095621e-04, -2.198732681171340e-06, 3.488152353609394e+01, 1.615852715619792e+01, 4.047202738944248e+02, 8.096570576473441e+02
864, 4.999999999974258e-05, 2.799999999998790e-03, 1.002545034388703e-04, -5.441716321494510e-06, 2.564649325139294e+01, -2.352804043841746e+03, 2.341559955312613e+02, 2.424116968789167e+03
865, 9.999999999979847e-05, 2.799999999997408e-03, 1.001985574766430e-04, -8.688493880537365e-06, 1.388754741552793e+01, -4.718766136767648e+03, 3.097381004361793e+01, 4.733059095558291e+03
866, 1.499999999998843e-04, 2.799999999996027e-03, 1.001762631442801e-04, -1.194066210165739e-05, -6.374326588668282e-01, -7.081256539434455e+03, -2.049579890161300e+02, 7.092474747525132e+03
867, 1.999999999999443e-04, 2.799999999994645e-03, 1.001875669225478e-04, -1.519982177538562e-05, -1.817488017076880e+01, -9.439797363559794e+03, -4.737712997752043e+02, 9.469150289094810e+03
868, -2.000000000000301e-04, 2.700000000005420e-03, 9.457353383848166e-05, 1.063847511827830e-05, 4.973230082034240e+01, 9.776057542221288e+03, 7.661689451035362e+02, 9.846291794948869e+03
869, -1.500000000000799e-04, 2.700000000004097e-03, 9.435099060559380e-05, 7.478206403797395e-06, 4.794437821775534e+01, 7.334437098437566e+03, 7.261628927842507e+02, 7.429820075159522e+03
870, -1.000000000001404e-04, 2.700000000002773e-03, 9.416312604720200e-05, 4.320553615142035e-06, 4.471694278775635e+01, 4.893852433352476e+03, 6.536220408005364e+02, 5.022250700108008e+03
871, -5.000000000020087e-05, 2.700000000001450e-03, 9.400994343608648e-05, 1.163914334452282e-06, 3.982545757848868e+01, 2.454748152196623e+03, 5.484078054266116e+02, 2.652330316003842e+03
872, -2.948962146524792e-16, 2.700000000000125e-03, 9.389143597465197e-05, -1.993318028874628e-06, 3.304120844970578e+01, 1.757559329593357e+01, 4.103810209014266e+02, 8.209077381268087e+02
873, 4.999999999973239e-05, 2.699999999998801e-03, 9.380758670658489e-05, -5.152754262517943e-06, 2.413109504224701e+01, -2.417207256935152e+03, 2.394020589577229e+02, 2.487847730904870e+03
874, 9.999999999979085e-05, 2.699999999997478e-03, 9.375836842775516e-05, -8.316009374499686e-06, 1.285759293951412e+01, -4.849135714467781e+03, 3.533090308971433e+01, 4.862506762167623e+03
875, 1.499999999998800e-04, 2.699999999996155e-03, 9.374374359658285e-05, -1.148470261560165e-05, -1.021267907630659e+00, -7.277738341335990e+03, -2.019727852244261e+02, 7.287920374881235e+03
876, 1.999999999999424e-04, 2.699999999994831e-03, 9.376366424407775e-05, -1.466045750168928e-05, -1.775197160512153e+01, -9.702536943967110e+03, -4.726495746114253e+02, 9.730809341591792e+03
877, -2.000000000000321e-04, 2.600000000005380e-03, 8.827568537179770e-05, 1.048993108568266e-05, 4.805440349461435e+01, 1.004301287427793e+04, 7.678034101625353e+02, 1.011223432972713e+04
878, -1.500000000000841e-04, 2.600000000004088e-03, 8.805519962749499e-05, 7.415366291823574e-06, 4.594002635747700e+01, 7.535267020626887e+03, 7.294720986056042e+02, 7.630107273011876e+03
879, -1.000000000001480e-04, 2.600000000002797e-03, 8.787031878949809e-05, 4.343484281417160e-06, 4.255531651408990e+01, 5.028402045133609e+03, 6.581660896020691e+02, 5.156684788436683e+03
880, -5.000000000021105e-05, 2.600000000001504e-03, 8.772105191493598e-05, 1.272660992756037e-06, 3.767673561730146e+01, 2.522862179622998e+03, 5.537382363627122e+02, 2.720781290133064e+03
881, -3.077169053421203e-16, 2.600000000000212e-03, 8.760739801437979e-05, -1.798732022597751e-06, 3.107605043645310e+01, 1.909825974758883e+01, 4.160407472691300e+02, 8.321677000597959e+02
882, 4.999999999972220e-05, 2.599999999998920e-03, 8.752934596100020e-05, -4.872327626761713e-06, 2.252052827620605e+01, -2.482432036158085e+03, 2.449252847793050e+02, 2.552399053941767e+03
883, 9.999999999978321e-05, 2.599999999997628e-03, 8.748687439909975e-05, -7.949763120996192e-06, 1.177289767446507e+01, -4.981264143982017e+03, 4.024304568607059e+01, 4.993685703992400e+03
884, 1.499999999998756e-04, 2.599999999996335e-03, 8.747995165222026e-05, -1.103268027011165e-05, -1.408666613874971e+00, -7.476926555419096e+03, -1.981551578593036e+02, 7.486015600584322e+03
885, 1.999999999999405e-04, 2.599999999995043e-03, 8.750853563108696e-05, -1.412272532528893e-05, -1.727056653963291e+01, -9.968940771738016e+03, -4.704188568960462e+02, 9.996044991731820e+03
886, -2.000000000000340e-04, 2.500000000005436e-03, 8.215126369195141e-05, 1.032130151945001e-05, 4.623590462529103e+01, 1.031368000028399e+04, 7.682636284399887e+02, 1.038177847329694e+04
887, -1.500000000000885e-04, 2.500000000004174e-03, 8.193278166758362e-05, 7.334748904527462e-06, 4.378183333994639e+01, 7.738922884987152e+03, 7.318991974143159e+02, 7.833128464760995e+03
888, -1.000000000001556e-04, 2.500000000002911e-03, 8.175084268941306e-05, 4.350950057905437e-06, 4.023757529425484e+01, 5.164882002600454e+03, 6.621209668056470e+02, 5.292976214291450e+03
889, -5.000000000022121e-05, 2.500000000001650e-03, 8.160546192513332e-05, 1.368259294194587e-06, 3.538014206709806e+01, 2.592000653958604e+03, 5.587729325049669e+02, 2.790200208269146e+03
890, -3.205375960317614e-16, 2.500000000000388e-03, 8.149664452294973e-05, -1.614973679898358e-06, 2.898199070115254e+01, 2.072916197900224e+01, 4.216984314367025e+02, 8.434372398030682e+02
891, 4.999999999971200e-05, 2.499999999999127e-03, 8.142438551770208e-05, -4.600403794431472e-06, 2.081090444436188e+01, -2.548475161149048e+03, 2.507401748182006e+02, 2.617768788094913e+03
892, 9.999999999977564e-05, 2.499999999997865e-03, 8.138866973687193e-05, -7.589690643553781e-06, 1.062998755071260e+01, -5.115147942640008e+03, 4.574032894294211e+01, 5.126594200870351e+03
893, 1.499999999998713e-04, 2.499999999996604e-03, 8.138947170615426e-05, -1.058449851174163e-05, -1.802369548232377e+00, -7.678817699211224e+03, -1.934594066422029e+02, 7.686759430342151e+03
894, 1.999999999999386e-04, 2.499999999995341e-03, 8.142675555454653e-05, -1.358649639897673e-05, -1.673240650590651e+01, -1.023900569492631e+04, -4.670176868328710e+02, 1.026485719639646e+04
895, -2.000000000000358e-04, 2.400000000005491e-03, 7.620498811905315e-05, 1.013248327728116e-05, 4.427922946072192e+01, 1.058805856299501e+04, 7.674860532531994e+02, 1.065492477692909e+04
896, -1.500000000000929e-04, 2.400000000004260e-03, 7.598844560282809e-05, 7.236281851465440e-06, 4.147049766550151e+01, 7.945405839785361e+03, 7.333962474958123e+02, 8.038885128907810e+03
897, -1.000000000001632e-04, 2.400000000003029e-03, 7.580939614579926e-05, 4.342909524005406e-06, 3.776252596163749e+01, 5.303294256725771e+03, 6.654542944916860e+02, 5.431127146358630e+03
898, -5.000000000023145e-05, 2.400000000001797e-03, 7.566786136421800e-05, 1.450699007933781e-06, 3.293321405523864e+01, 2.662166316808572e+03, 5.634952144282209e+02, 2.860589822981957e+03
899, -3.333650629849805e-16, 2.400000000000566e-03, 7.556385288321611e-05, -1.442021820222500e-06, 2.675573997492211e+01, 2.247167725851091e+01, 4.273532205310370e+02, 8.547171775425803e+02
900, 4.999999999970184e-05, 2.399999999999334e-03, 7.549737224103736e-05, -4.336929949813338e-06, 1.899852176166053e+01, -2.615332806361005e+03, 2.568618285308485e+02, 2.683954832360889e+03
901, 9.999999999976805e-05, 2.399999999998102e-03, 7.546841079268382e-05, -7.235707265488285e-06, 9.425176504122646e+00, -5.250783028784479e+03, 5.185392223636632e+01, 5.261230434032586e+03
902, 1.499999999998670e-04, 2.399999999996872e-03, 7.547694961305801e-05, -1.014004057575601e-05, -2.205517253986727e+00, -7.883407577329805e+03, -1.878381683006461e+02, 7.890150735038304e+03
903, 1.999999999999366e-04, 2.399999999995640e-03, 7.552295939950368e-05, -1.305162164020177e-05, -1.613978909219702e+01, -1.051272777427396e+04, -4.623825806097657e+02, 1.053724584196779e+04
904, -2.000000000000378e-04, 2.300000000005451e-03, 7.044164325998075e-05, 9.923394619051445e-06, 4.218680333945713e+01, 1.086614679298129e+04, 7.654052051501433e+02, 1.093167372224633e+04
905, -1.500000000000972e-04, 2.300000000004251e-03, 7.022696504329468e-05, 7.119914102322396e-06, 3.900633979644954e+01, 8.154715615698193e+03, 7.339136281192143e+02, 8.247378608085965e+03
906, -1.000000000001708e-04, 2.300000000003051e-03, 7.005074173874709e-05, 4.319342589200309e-06, 3.512883261718525e+01, 5.443639921707703e+03, 6.681325745871851e+02, 5.571139627554950e+03
907, -5.000000000024163e-05, 2.300000000001851e-03, 6.991300175693483e-05, 1.519991210042857e-06, 3.033315937408554e+01, 2.733361325234612e+03, 5.678877595110184e+02, 2.931952812554305e+03
908, -3.461857536746216e-16, 2.300000000000652e-03, 6.981376354810150e-05, -1.279833972636051e-06, 2.439331233001826e+01, 2.432870412540206e+01, 4.330040638683381e+02, 8.660081301467112e+02
909, 4.999999999969163e-05, 2.299999999999453e-03, 6.975303550426079e-05, -4.081831997259115e-06, 1.707841970415404e+01, -2.683001674488470e+03, 2.633055687058601e+02, 2.750954707933468e+03
910, 9.999999999976044e-05, 2.299999999998253e-03, 6.973081586064441e-05, -6.887707034761976e-06, 8.152699166726734e+00, -5.388166097209789e+03, 5.861563158066394e+01, 5.397592029895266e+03
911, 1.499999999998626e-04, 2.299999999997052e-03, 6.974709259651400e-05, -9.699168419562945e-06, -2.624588907151406e+00, -8.090693346142552e+03, -1.812430449349105e+02, 8.096187521736173e+03
912, 1.999999999999347e-04, 2.299999999995853e-03, 6.980184333530636e-05, -1.251793068015468e-05, -1.549920044668215e+01, -1.079010464128356e+04, -4.564483645983252e+02, 1.081320964579388e+04
913, -2.000000000000396e-04, 2.200000000005174e-03, 6.486607906993513e-05, 9.693976317156681e-06, 3.996018175315749e+01, 1.114794095152009e+04, 7.619537306286063e+02, 1.121202616532745e+04
914, -1.500000000001016e-04, 2.200000000004032e-03, 6.465317837569748e-05, 6.985617113361726e-06, 3.638931626332317e+01, 8.366850617260032e+03, 7.334004640408714e+02, 8.458610432572556e+03
915, -1.000000000001784e-04, 2.200000000002889e-03, 6.447970625549054e-05, 4.280251619505456e-06, 3.233509115439790e+01, 5.585919344188823e+03, 6.701213452582597e+02, 5.713015711954142e+03
916, -5.000000000025179e-05, 2.200000000001748e-03, 6.434569826745999e-05, 1.576169408312865e-06, 2.757734867522402e+01, 2.805587586684558e+03, 5.719326598611980e+02, 3.004291722211459e+03
917, -3.590132206278407e-16, 2.200000000000606e-03, 6.425118004330125e-05, -1.128345254274245e-06, 2.189106231242113e+01, 2.630336203995148e+01, 4.386497071567688e+02, 8.773105098787781e+02
918, 4.999999999968146e-05, 2.199999999999464e-03, 6.419616718807403e-05, -3.835013443715885e-06, 1.504620802518025e+01, -2.751477752291548e+03, 2.700868901863273e+02, 2.818766137161549e+03
919, 9.999999999975283e-05, 2.199999999998322e-03, 6.418066517926239e-05, -6.545561611275332e-06, 6.807722851455992e+00, -5.527292548124984e+03, 6.605778432453707e+01, 5.535677043750020e+03
920, 1.499999999998582e-04, 2.199999999997180e-03, 6.420466926520018e-05, -9.261721617580703e-06, -3.064532621529338e+00, -8.300670118770702e+03, -1.736247881160305e+02, 8.304868495737142e+03
921, 1.999999999999328e-04, 2.199999999996038e-03, 6.426816436301468e-05, -1.198523076527577e-05, -1.481569215706793e+01, -1.107113169982777e+04, -4.491486894069836e+02, 1.109274816455596e+04
922, -2.000000000000416e-04, 2.100000000004828e-03, 5.948321083211357e-05, 9.444192843552987e-06, 3.760431434310090e+01, 1.143343838663791e+04, 7.570626530300329e+02, 1.149598232626193e+04
923, -1.500000000001059e-04, 2.100000000003754e-03, 5.927198875072783e-05, 6.833385996461190e-06, 3.362194895380992e+01, 8.581810190409622e+03, 7.318044078483799e+02, 8.672581678874443e+03
924, -1.000000000001860e-04, 2.100000000002678e-03, 5.910118067579537e-05, 4.225662603859727e-06, 2.938153487968407e+01, 5.730133445772623e+03, 6.713851603201593e+02, 5.856757164467553e+03
925, -5.000000000026199e-05, 2.100000000001603e-03, 5.897082967645559e-05, 1.619290705502433e-06, 2.466423254418953e+01, 2.878847496783725e+03, 5.756114831169452e+02, 3.077608880908912e+03
926, -3.718339113174818e-16, 2.100000000000528e-03, 5.888096893242731e-05, -9.874672085718564e-07, 1.924611968594274e+01, 2.839935460598588e+01, 4.442888630128595e+02, 8.886248684898139e+02
927, 4.999999999967128e-05, 2.099999999999452e-03, 5.883162163146830e-05, -3.596354236631218e-06, 1.289816343251209e+01, -2.820756212214504e+03, 2.772217727144601e+02, 2.887387186660506e+03
928, 9.999999999974523e-05, 2.099999999998377e-03, 5.882280086609535e-05, -6.209119102190326e-06, 5.386174239421962e+00, -5.668156608168615e+03, 7.421375124750836e+01, 5.675483981768536e+03
929, 1.499999999998539e-04, 2.099999999997302e-03, 5.885450952966086e-05, -8.827516190068241e-06, -3.529223315544414e+00, -8.513331329179853e+03, -1.649325209898092e+02, 8.516192977316377e+03
930, 1.999999999999309e-04, 2.099999999996226e-03, 5.892674021199199e-05, -1.145330558160841e-05, -1.409269760302971e+01, -1.135580196283420e+04, -4.404151169759630e+02, 1.137586176771124e+04
931, -2.000000000000435e-04, 2.000000000004496e-03, 5.429801925379177e-05, 9.174033557928096e-06, 3.512273408513920e+01, 1.172263386072698e+04, 7.506609914395666e+02, 1.178354293205795e+04
932, -1.500000000001103e-04, 2.000000000003499e-03, 5.408836413422238e-05, 6.663240712131478e-06, 3.070544260462486e+01, 8.799591558363372e+03, 7.290716898221282e+02, 8.889293887972593e+03
933, -1.000000000001936e-04, 2.000000000002501e-03, 5.392012018793588e-05, 4.155626341358786e-06, 2.626743514861903e+01, 5.876281734622240e+03, 6.718875697331719e+02, 6.002366110917729e+03
934, -5.000000000027220e-05, 2.000000000001505e-03, 5.379333836679597e-05, 1.649436983272024e-06, 2.159130986157300e+01, 2.953142456856202e+03, 5.789052578172873e+02, 3.151906933518108e+03
935, -3.846512138753339e-16, 2.000000000000507e-03, 5.370805977366018e-05, -8.570866251152816e-07, 1.645441599884941e+01, 3.061961335600290e+01, 4.499201738855100e+02, 8.999518344293973e+02
936, 4.999999999966107e-05, 1.999999999999510e-03, 5.366431555741826e-05, -3.365709587871410e-06, 1.062885744245136e+01, -2.890832973035340e+03, 2.847266143749558e+02, 2.956815471660894e+03
937, 9.999999999973761e-05, 1.999999999998513e-03, 5.366212680729316e-05, -5.878202890132214e-06, 3.881451702211507e+00, -5.810753459912029e+03, 8.311782464657421e+01, 5.817010696780526e+03
938, 1.499999999998495e-04, 1.999999999997515e-03, 5.370150444637652e-05, -8.396343437080717e-06, -4.026321817198777e+00, -8.728671911185704e+03, -1.551139169463006e+02, 8.730159332395317e+03
939, 1.999999999999290e-04, 1.999999999996517e-03, 5.378244912442283e-05, -1.092191409120000e-05, -1.333836015148916e+01, -1.164411020335224e+04, -4.301772417374891e+02, 1.166254961429219e+04
940, -2.000000000000454e-04, 1.900000000004165e-03, 4.931555043910688e-05, 8.883513937368136e-06, 3.252128997238515e+01, 1.201552241611267e+04, 7.426760159349117e+02, 1.207470855332166e+04
941, -1.500000000001146e-04, 1.900000000003247e-03, 4.910733728465552e-05, 6.475227286703432e-06, 2.764256596364373e+01, 9.020192058867278e+03, 7.251471597283656e+02, 9.108748541669698e+03
942, -1.000000000002012e-04, 1.900000000002328e-03, 4.894154416407553e-05, 4.070219656186153e-06, 2.299299290099009e+01, 6.024363746550127e+03, 6.715911608121113e+02, 6.149844686809500e+03
943, -5.000000000028235e-05, 1.900000000001409e-03, 4.881823029312889e-05, 1.666716112153940e-06, 1.835658023740143e+01, 3.028473994310015e+03, 5.817944365579858e+02, 3.227188546109833e+03
944, -3.974685164331859e-16, 1.900000000000491e-03, 4.873744508219563e-05, -7.370643351759955e-07, 1.351206979498738e+01, 3.296739098657304e+01, 4.555421050012054e+02, 9.112919111011490e+02
945, 4.999999999965091e-05, 1.899999999999572e-03, 4.869922802909081e-05, -3.142908775966531e-06, 8.232845757810310e+00, -2.961703341109367e+03, 2.926180309698418e+02, 3.027048430775070e+03
946, 9.999999999973007e-05, 1.899999999998654e-03, 4.870360861094388e-05, -5.552610443794350e-06, 2.286871629829420e+00, -5.955077270995764e+03, 9.280490253933766e+01, 5.960254904581054e+03
947, 1.499999999998452e-04, 1.899999999997735e-03, 4.875060617518282e-05, -7.967968757838043e-06, -4.563375020114108e+00, -8.946685180977031e+03, -1.441156960577267e+02, 8.946765880918700e+03
948, 1.999999999999271e-04, 1.899999999996817e-03, 4.884022982948347e-05, -1.039078936449185e-05, -1.256092242161617e+01, -1.193604944734129e+04, -4.183631791512547e+02, 1.195281094983809e+04
949, -2.000000000000473e-04, 1.800000000003828e-03, 4.454091591808608e-05, 8.572676832069158e-06, 2.980527068501317e+01, 1.231209676413963e+04, 7.330331499440661e+02, 1.236947996990396e+04
950, -1.500000000001189e-04, 1.800000000002982e-03, 4.433400575886054e-05, 6.269419071508869e-06, 2.443623848978871e+01, 9.243607729167712e+03, 7.199742946274354e+02, 9.330947160616959e+03
951, -1.000000000002088e-04, 1.800000000002135e-03, 4.417053614728780e-05, 3.969546650647831e-06, 1.955865362758686e+01, 6.174378286909146e+03, 6.704575355688586e+02, 6.299195023670279e+03
952, -5.000000000029254e-05, 1.800000000001289e-03, 4.405057495271123e-05, 1.671263200369559e-06, 1.495823572509858e+01, 3.104843335921696e+03, 5.842589168685498e+02, 3.303456350578675e+03
953, -4.102858189910380e-16, 1.800000000000442e-03, 4.397418028659286e-05, -6.272339670353779e-07, 1.041532737066359e+01, 3.544605234333619e+01, 4.611530040828728e+02, 9.226456036264900e+02
954, 4.999999999964072e-05, 1.799999999999596e-03, 4.394140039299902e-05, -2.927753904928867e-06, 5.704785789508264e+00, -3.033362074833567e+03, 3.009129801297661e+02, 3.098083580179802e+03
955, 9.999999999972246e-05, 1.799999999998750e-03, 4.395227353821177e-05, -5.232112078877365e-06, 5.959247687953848e-01, -6.101121156905249e+03, 1.033107134541889e+02, 6.105214472797044e+03
956, 1.499999999998409e-04, 1.799999999997903e-03, 4.400682789938744e-05, -7.542130412505537e-06, -5.147535564453165e+00, -9.167362806147956e+03, -1.318831691102801e+02, 9.166011201481910e+03
957, 1.999999999999252e-04, 1.799999999997057e-03, 4.410508145233040e-05, -9.859637332335368e-06, -1.176761555437042e+01, -1.223161011106266e+04, -4.048992245145522e+02, 1.224664542407758e+04
958, -2.000000000000492e-04, 1.700000000003484e-03, 3.997929262093065e-05, 8.241593769675168e-06, 2.698272378019419e+01, 1.261234979797757e+04, 7.216561238213059e+02, 1.266785753931921e+04
959, -1.500000000001233e-04, 1.700000000002704e-03, 3.977353188136668e-05, 6.045918035255745e-06, 2.109096457295550e+01, 9.469834403207595e+03, 7.134951000973623e+02, 9.555891041686951e+03
960, -1.000000000002164e-04, 1.700000000001925e-03, 3.961224381071254e-05, 3.853739993199445e-06, 1.596574398405971e+01, 6.326323863899320e+03, 6.684472783621405e+02, 6.450419107110753e+03
961, -5.000000000030273e-05, 1.700000000001145e-03, 3.949550533152736e-05, 1.663241876449030e-06, 1.139478317872465e+01, 3.182251427417054e+03, 5.862780089542478e+02, 3.380712864684576e+03
962, -4.231031215488901e-16, 1.700000000000365e-03, 3.942338365938580e-05, -5.274006684966715e-07, 7.160176989568072e+00, 3.805869268518347e+01, 4.667510646092006e+02, 9.340133529706526e+02
963, 4.999999999963053e-05, 1.699999999999585e-03, 3.939593619116681e-05, -2.720018632252080e-06, 3.038416165961507e+00, -3.105804248819073e+03, 3.096286990207640e+02, 3.169918364983618e+03
964, 9.999999999971485e-05, 1.699999999998805e-03, 3.941321039257302e-05, -4.916449692430562e-06, -1.199678740877289e+00, -6.248878736420795e+03, 1.146717113038131e+02, 6.251887076176728e+03
965, 1.499999999998365e-04, 1.699999999998025e-03, 3.947524368478056e-05, -7.118538263195333e-06, -5.789032669052972e+00, -9.390697458651866e+03, -1.183604927195798e+02, 9.387893426590999e+03
966, 1.999999999999232e-04, 1.699999999997246e-03, 3.958206332994141e-05, -9.328135544389981e-06, -1.097029280113907e+01, -1.253078427216812e+04, -3.897098411849155e+02, 1.254405186210653e+04
967, -2.000000000000511e-04, 1.600000000003144e-03, 3.563592290137761e-05, 7.890366279190559e-06, 2.406190863236111e+01, 1.291627257629213e+04, 7.084665948572822e+02, 1.296984177094829e+04
968, -1.500000000001277e-04, 1.600000000002436e-03, 3.543114273975390e-05, 5.804856087434477e-06, 1.761139471756815e+01, 9.698866486596842e+03, 7.056501811988087e+02, 9.783581597091221e+03
969, -1.000000000002240e-04, 1.600000000001727e-03, 3.527187893130498e-05, 3.722962237313291e-06, 1.221592133585818e+01, 6.480198191440891e+03, 6.655200086412179e+02, 6.603518923574027e+03
970, -5.000000000031292e-05, 1.600000000001018e-03, 3.515821786094719e-05, 1.642845604947208e-06, 7.665142013505942e+00, 3.260698946313878e+03, 5.878305023970530e+02, 3.458960498490037e+03
971, -4.359339766338982e-16, 1.600000000000309e-03, 3.509023626090395e-05, -4.373397948308168e-07, 3.743107579293905e+00, 4.080866898660531e+01, 4.723343925531713e+02, 9.453956681711273e+02
972, 4.999999999962034e-05, 1.599999999999600e-03, 3.506800109682370e-05, -2.519446861297753e-06, 2.281705902645399e-01, -3.179024037229879e+03, 3.187827677625414e+02, 3.242550603000460e+03
973, 9.999999999970728e-05, 1.599999999998891e-03, 3.509156945364301e-05, -4.605335460820711e-06, -3.107099333112274e+00, -6.398341850166717e+03, 1.269251256189988e+02, 6.400270890229831e+03
974, 1.499999999998322e-04, 1.599999999998182e-03, 3.516098842083052e-05, -6.696872480029525e-06, -6.496003992240958e+00, -9.616678675738984e+03, -1.034905851608994e+02, 9.612411361838878e+03
975, 1.999999999999214e-04, 1.599999999997473e-03, 3.527629497680691e-05, -8.795931879270309e-06, -1.017782272326417e+01, -1.283355957281111e+04, -3.727179062732174e+02, 1.284502993609251e+04
976, -2.000000000000531e-04, 1.500000000002802e-03, 3.151611448528721e-05, 7.519127252970784e-06, 2.105247397515518e+01, 1.322385509136189e+04, 6.933844601397511e+02, 1.327543313763914e+04
977, -1.500000000001320e-04, 1.500000000002160e-03, 3.131213012688390e-05, 5.546396432414571e-06, 1.400362884463561e+01, 9.930697958108431e+03, 6.963787724220365e+02, 1.001402017167795e+04
978, -1.000000000002316e-04, 1.500000000001518e-03, 3.115471732021137e-05, 3.577407172901459e-06, 8.311728577043368e+00, 6.635998635408992e+03, 6.616344535836704e+02, 6.758496455253010e+03
979, -5.000000000032311e-05, 1.500000000000877e-03, 3.104397233243783e-05, 1.610299035304210e-06, 3.768587598564636e+00, 3.340186275344271e+03, 5.888947596369352e+02, 3.538201681478005e+03
980, -4.487512791917503e-16, 1.500000000000236e-03, 3.097998183514277e-05, -3.567955618612322e-07, 1.603913141780140e-01, 4.369902876581057e+01, 4.779011210442951e+02, 9.567933627135593e+02
981, 4.999999999961016e-05, 1.499999999999595e-03, 3.096282278789491e-05, -2.325751397155829e-06, -2.732408512117331e+00, -3.253015990075929e+03, 3.283932336008779e+02, 3.315978260496086e+03
982, 9.999999999969963e-05, 1.499999999998952e-03, 3.099256232239190e-05, -4.298450500298693e-06, -5.135233501526614e+00, -6.549502825511772e+03, 1.401091033065261e+02, 6.550364067948546e+03
983, 1.499999999998278e-04, 1.499999999998311e-03, 3.106925762784036e-05, -6.276782207551801e-06, -7.279534745002252e+00, -9.845296779574335e+03, -8.721495031635891e+01, 9.839563460834737e+03
984, 1.999999999999195e-04, 1.499999999997670e-03, 3.119295583587115e-05, -8.262643219429137e-06, -9.402945395219717e+00, -1.313992437944016e+04, -3.538443299732989e+02, 1.314957856242285e+04
985, -2.000000000000549e-04, 1.400000000002461e-03, 2.762524045708198e-05, 7.128042338676498e-06, 1.796552968151309e+01, 1.353508631367709e+04, 6.763276449881863e+02, 1.358463214896252e+04
986, -1.500000000001364e-04, 1.400000000001890e-03, 2.742185050558673e-05, 5.270734956662270e-06, 1.027462367905900e+01, 1.016532193465515e+04, 6.856185601689525e+02, 1.024720826022167e+04
987, -1.000000000002392e-04, 1.400000000001320e-03, 2.726609876670432e-05, 3.417301206188499e-06, 4.256289162475241e+00, 6.793722095480442e+03, 6.567483114434632e+02, 6.915353882014733e+03
988, -5.000000000033329e-05, 1.400000000000748e-03, 2.715809182145277e-05, 1.565859378191738e-06, -2.952535569691008e-01, 3.420713678776579e+03, 5.894486428327835e+02, 3.618439017761052e+03
989, -4.615719698813914e-16, 1.400000000000178e-03, 2.709792671576060e-05, -2.854796714355897e-07, -3.591510922481802e+00, 4.673303984481731e+01, 4.834493666444027e+02, 9.682074782015615e+02
990, 4.999999999959998e-05, 1.399999999999606e-03, 2.708569083794584e-05, -2.138612575210053e-06, -5.849745747418183e+00, -3.327774092137009e+03, 3.384785421100609e+02, 3.390199442069997e+03
991, 9.999999999969204e-05, 1.399999999999035e-03, 2.712146180134472e-05, -3.995443503398963e-06, -7.293127211682418e+00, -6.702353013720025e+03, 1.542625506247588e+02, 6.702164920533822e+03
992, 1.499999999998235e-04, 1.399999999998463e-03, 2.720530733120346e-05, -5.857884215935775e-06, -8.150937824192965e+00, -1.007654045170128e+04, -6.947399164544814e+01, 1.006934823835241e+04
993, 1.999999999999176e-04, 1.399999999997893e-03, 2.733728515529423e-05, -7.727854123370224e-06, -8.658721310768101e+00, -1.344986463244796e+04, -3.330083957563853e+02, 1.345769648610661e+04
994, -2.000000000000568e-04, 1.300000000002126e-03, 2.396873924238460e-05, 6.717311360473350e-06, 1.481274929551682e+01, 1.384995322632874e+04, 6.572121105135897e+02, 1.389743944228813e+04
995, -1.500000000001407e-04, 1.300000000001629e-03, 2.376572497202569e-05, 4.978101639338894e-06, 6.431102203646333e+00, 1.040272944808240e+04, 6.733056710261778e+02, 1.048314749505440e+04
996, -1.000000000002468e-04, 1.300000000001133e-03, 2.361142698175504e-05, 3.242904763599762e-06, 5.205572837485306e-02, 6.953363695661049e+03, 6.508181289521531e+02, 7.074093561009377e+03
997, -5.000000000034346e-05, 1.300000000000637e-03, 2.350596261024823e-05, 1.509817804691287e-06, -4.527371189887162e+00, 3.502280594457080e+03, 5.894693381393593e+02, 3.699675460138475e+03
998, -4.743892724392434e-16, 1.300000000000140e-03, 2.344943972328016e-05, -2.230699138441750e-07, -7.516307327887944e+00, 4.991453496218537e+01, 4.889771216222596e+02, 9.796391190260358e+02
999, 4.999999999958981e-05, 1.299999999999644e-03, 2.344195658478235e-05, -1.957676863406362e-06, -9.130063028850827e+00, -3.403290609819093e+03, 3.490576273159517e+02, 3.465211498038353e+03
1000, 9.999999999968445e-05, 1.299999999999148e-03, 2.348360173307129e-05, -3.695929342069450e-06, -9.589803387641496e+00, -6.856881718577938e+03, 1.694254378275558e+02, 6.855671118698931e+03
1001, 1.499999999998191e-04, 1.299999999998652e-03, 2.357445387353117e-05, -5.439761509756508e-06, -9.122291797785579e+00, -1.031039673627600e+04, -5.020654353219956e+01, 1.030176382803031e+04
1002, 1.999999999999157e-04, 1.299999999998155e-03, 2.371458177616507e-05, -7.191115445212532e-06, -7.960205904573627e+00, -1.376336520454932e+04, -3.101274876634512e+02, 1.376938208167522e+04
1003, -2.000000000000587e-04, 1.200000000001781e-03, 2.055211453200599e-05, 6.287169787232280e-06, 1.160816214580859e+01, 1.416844156662600e+04, 6.359522149648080e+02, 1.421385496341794e+04
1004, -1.500000000001450e-04, 1.200000000001350e-03, 2.034923918797337e-05, 4.668762023308168e-06, 2.479156496551923e+00, 1.064290672035060e+04, 6.593746987706782e+02, 1.072183746916267e+04
1005, -1.000000000002543e-04, 1.200000000000919e-03, 2.019616954916593e-05, 3.054513753660049e-06, -4.301233735064898e+00, 7.114912271187110e+03, 6.437985615334015e+02, 7.234715424949082e+03
1006, -5.000000000035367e-05, 1.200000000000488e-03, 2.009303414385992e-05, 1.442500880473093e-06, -8.931175532244424e+00, 3.584882999807882e+03, 5.889319183904120e+02, 3.781912683401307e+03
1007, -4.872353741173022e-16, 1.200000000000057e-03, 2.003995209781002e-05, -1.692087725740739e-07, -1.161825752992786e+01, 5.324941552708833e+01, 4.944808297965358e+02, 9.910867667126397e+02
1008, 4.999999999957962e-05, 1.199999999999626e-03, 2.003703300108605e-05, -1.782555494791655e-06, -1.257825690986874e+01, -3.479550877435757e+03, 3.601492624012917e+02, 3.541006794163055e+03
1009, 9.999999999967686e-05, 1.199999999999196e-03, 2.008437679395026e-05, -3.399487700433249e-06, -1.203271885804338e+01, -7.013070282844982e+03, 1.856393222944724e+02, 7.010875466322589e+03
1010, 1.499999999998148e-04, 1.199999999998765e-03, 2.018207363920106e-05, -5.021961939318802e-06, -1.020655196408177e+01, -1.054684856419111e+04, -2.934865335317778e+01, 1.053680550582777e+04
1011, 1.999999999999137e-04, 1.199999999998334e-03, 2.033020381922416e-05, -6.651942932522812e-06, -7.326830497393303e+00, -1.408041220355975e+04, -2.851159384050383e+02, 1.408463333959504e+04
1012, -2.000000000000607e-04, 1.100000000001707e-03, 1.738093516245661e-05, 5.837890262304182e-06, 8.371863168359596e+00, 1.449053850555898e+04, 6.124625775186148e+02, 1.453387740052236e+04
1013, -1.500000000001494e-04, 1.100000000001301e-03, 1.717794331519013e-05, 4.343018853027016e-06, -1.578127675138830e+00, 1.088582516350863e+04, 6.437595571848883e+02, 1.096326848593733e+04
1014, -1.000000000002619e-04, 1.100000000000895e-03, 1.702585797122684e-05, 2.852461232760851e-06, -8.811099015903892e+00, 7.278336218300299e+03, 6.356400653509419e+02, 7.397206850898934e+03
1015, -5.000000000036384e-05, 1.100000000000489e-03, 1.692481917729390e-05, 1.364272113718292e-06, -1.351682866706824e+01, 3.668504246355757e+03, 5.878041717830289e+02, 3.865143486906323e+03
1016, -5.000628410705213e-16, 1.100000000000083e-03, 1.687495762780617e-05, -1.235020826086501e-07, -1.590347696529147e+01, 5.674869986940121e+01, 4.999495655341674e+02, 1.002535092208762e+03
1017, 4.999999999956943e-05, 1.099999999999677e-03, 1.687639468551782e-05, -1.612823298366992e-06, -1.619581138798912e+01, -3.556518869452431e+03, 3.717688291827989e+02, 3.617559343655686e+03
1018, 9.999999999966927e-05, 1.099999999999272e-03, 1.692924225931718e-05, -3.105661932826161e-06, -1.462474494006210e+01, -7.170875110774111e+03, 2.029482258937890e+02, 7.167752174013391e+03
1019, 1.499999999998105e-04, 1.099999999998866e-03, 1.703360263812813e-05, -4.603996919631170e-06, -1.141614963518396e+01, -1.078586550949251e+04, -6.829475193785015e+00, 1.077445801769423e+04
1020, 1.999999999999118e-04, 1.099999999998460e-03, 1.718956820257956e-05, -6.109815751535646e-06, -6.787980776850077e+00, -1.440100070426431e+04, -2.578813226622833e+02, 1.440344996989681e+04
1021, -2.000000000000626e-04, 1.000000000002109e-03, 1.446083495306325e-05, 5.369784143149364e-06, 5.135600381232962e+00, 1.481623925757155e+04, 5.866639492168958e+02, 1.485750618042206e+04
1022, -1.500000000001537e-04, 1.000000000001674e-03, 1.425745197813549e-05, 4.001214158602893e-06, -5.737539539228464e+00, 1.113142713177195e+04, 6.263966877911016e+02, 1.120740505905826e+04
1023, -1.000000000002696e-04, 1.000000000001239e-03, 1.410608798827746e-05, 2.637119659828652e-06, -1.349322259611313e+01, 7.443559106340598e+03, 6.262841828747993e+02, 7.561518164190115e+03
1024, -5.000000000037402e-05, 1.000000000000804e-03, 1.400689436895963e-05, 1.275533862679662e-06, -1.830236339945077e+01, 3.753100971235893e+03, 5.860336999837015e+02, 3.949332235019604e+03
1025, -5.128852258260569e-16, 1.000000000000369e-03, 1.396001330437679e-05, -8.551783260066935e-08, -2.038303239303627e+01, 6.043331390830190e+01, 5.053503627626960e+02, 1.013926643503884e+03
1026, 4.999999999955924e-05, 9.999999999999337e-04, 1.396557818646853e-05, -1.448018133282081e-06, -1.998534936443684e+01, -3.634114978348727e+03, 3.839188543416532e+02, 3.694794679272199e+03
1027, 9.999999999966167e-05, 9.999999999994987e-04, 1.402371384462484e-05, -2.813958637390921e-06, -1.736733026856700e+01, -7.330199239818598e+03, 2.213997363573866e+02, 7.326225625133970e+03
1028, 1.499999999998061e-04, 9.999999999990637e-04, 1.413453588642241e-05, -4.185340550196289e-06, -1.276897966098818e+01, -1.102739201998667e+04, 1.743808405040943e+01, 1.101467825529074e+04
1029, 1.999999999999099e-04, 9.999999999986283e-04, 1.429814991632241e-05, -5.564174810573143e-06, -6.391569554753914e+00, -1.472515158893849e+04, -2.283147351661029e+02, 1.472584146938248e+04
1030, -2.000000000000644e-04, 9.000000000025380e-04, 1.179751304581860e-05, 4.883202898837341e-06, 1.944159772039711e+00, 1.514556016716775e+04, 5.584906566837049e+02, 1.518475396685319e+04
1031, -1.500000000001581e-04, 9.000000000020734e-04, 1.159344476763009e-05, 3.643732088564026e-06, -9.976017462501432e+00, 1.137963298511025e+04, 6.072289008311772e+02, 1.145417395465535e+04
1032, -1.000000000002772e-04, 9.000000000016087e-04, 1.144252039650782e-05, 2.408904276525970e-06, -1.832311628527373e+01, 7.610491367578028e+03, 6.156562073948338e+02, 7.727544285995238e+03
1033, -5.000000000038420e-05, 9.000000000011442e-04, 1.134490153149854e-05, 1.176729912962623e-06, -2.328111850255732e+01, 3.838628628460529e+03, 5.835330728329287e+02, 4.034400857878138e+03
1034, -5.256991402521199e-16, 9.000000000006796e-04, 1.130074048089405e-05, -5.478520000297384e-08, -2.507664764793731e+01, 6.433966109277537e+01, 5.106096736933743e+02, 1.025126446710761e+03
1035, 4.999999999954906e-05, 9.000000000002148e-04, 1.131018289953439e-05, -1.287641410831541e-06, -2.399013579617736e+01, -3.712232332838669e+03, 3.965776469083606e+02, 3.772562235955069e+03
1036, 9.999999999965402e-05, 8.999999999997502e-04, 1.137336790238847e-05, -2.523848603801399e-06, -2.031539592107151e+01, -7.490920607529401e+03, 2.410441141139799e+02, 7.486143953164774e+03
1037, 1.499999999998018e-04, 8.999999999992857e-04, 1.149042718574135e-05, -3.765429474852259e-06, -1.431233366704987e+01, -1.127135915701431e+04, 4.356904254251225e+01, 1.125738407574801e+04
1038, 1.999999999999080e-04, 8.999999999988212e-04, 1.166148173439787e-05, -5.014420601865463e-06, -6.208135974448396e+00, -1.505294059473017e+04, -1.962776548352632e+02, 1.505185228988524e+04
1039, -2.000000000000664e-04, 8.000000000027327e-04, 9.396737899735937e-06, 4.378538754152504e-06, -1.267956311036642e+00, 1.547844775957413e+04, 5.278628636796233e+02, 1.551567450857456e+04
1040, -1.500000000001624e-04, 8.000000000022627e-04, 9.191669179205047e-06, 3.271001609931620e-06, -1.413164506639532e+01, 1.163057171546661e+04, 5.861743597417137e+02, 1.170356859572682e+04
1041, -1.000000000002848e-04, 8.000000000017928e-04, 9.040882710262916e-06, 2.168275976389817e-06, -2.301548365504050e+01, 7.779418003938522e+03, 6.036693758638949e+02, 7.895291963553030e+03
1042, -5.000000000039436e-05, 8.000000000013229e-04, 8.944547153640559e-06, 1.068347612654847e-06, -2.822590197244676e+01, 3.925363099684509e+03, 5.802195779253410e+02, 4.120374379647350e+03
1043, -5.385198309417610e-16, 8.000000000008525e-04, 8.902824008670600e-06, -3.079377179476855e-08, -3.000728541590479e+01, 6.852257893226033e+01, 5.156755166858236e+02, 1.036046856182302e+03
1044, 4.999999999953886e-05, 8.000000000003829e-04, 8.915870424570325e-06, -1.131158495229029e-06, -2.848625540030434e+01, -3.791057419728018e+03, 4.097354796921983e+02, 3.850775820520430e+03
1045, 9.999999999964645e-05, 7.999999999999128e-04, 8.983842818536282e-06, -2.234767488193378e-06, -2.380249197242165e+01, -7.653285208621141e+03, 2.619349994257699e+02, 7.647447044559264e+03
1046, 1.499999999997974e-04, 7.999999999994429e-04, 9.106891796518838e-06, -3.343662585206891e-06, -1.624923468941688e+01, -1.151792460855007e+04, 7.167621041000803e+01, 1.150256868365617e+04
1047, 1.999999999999061e-04, 7.999999999989728e-04, 9.285158168387535e-06, -4.459909840420100e-06, -6.204965091292024e+00, -1.538442100875879e+04, -1.616240657834745e+02, 1.538161298564861e+04
1048, -2.000000000000683e-04, 7.000000000024487e-04, 7.264364648581618e-06, 3.856225344075990e-06, -5.083344220313393e+00, 1.581440414146320e+04, 4.944567820289355e+02, 1.585036700984791e+04
1049, -1.500000000001667e-04, 7.000000000020254e-04, 7.057953704718049e-06, 2.883490101178614e-06, -1.777379634550789e+01, 1.188538584045236e+04, 5.629297637501145e+02, 1.195628575330804e+04
1050, -1.000000000002923e-04, 7.000000000016023e-04, 6.906968358168128e-06, 1.915730353250260e-06, -2.629677087916411e+01, 7.952786650321937e+03, 5.902678256380609e+02, 8.065943011602563e+03
1051, -5.000000000040459e-05, 7.000000000011791e-04, 6.811589869867107e-06, 9.509092962786931e-07, -3.205990709251455e+01, 4.015312017029868e+03, 5.763896339829198e+02, 4.208339284423961e+03
1052, -5.513337453678241e-16, 7.000000000007558e-04, 6.771992611057305e-06, -1.299242289733388e-08, -3.516334396706361e+01, 7.304520978424091e+01, 5.209994704812884e+02, 1.047602445621468e+03
1053, 4.999999999952868e-05, 7.000000000003326e-04, 6.788352939516625e-06, -9.779878466191395e-07, -3.455431649841535e+01, -3.872508728438974e+03, 4.237403550363304e+02, 3.930409345358224e+03
1054, 9.999999999963887e-05, 6.999999999999092e-04, 6.860839824660497e-06, -1.946102229156614e-06, -2.916559379359364e+01, -7.819737997006826e+03, 2.841305563782277e+02, 7.811270003141536e+03
1055, 1.499999999997930e-04, 6.999999999994860e-04, 6.989621579057670e-06, -2.919391420838333e-06, -1.908475903322301e+01, -1.176830300269735e+04, 1.016415777867843e+02, 1.175097669892124e+04
1056, 1.999999999999042e-04, 6.999999999990628e-04, 7.174855019327905e-06, -3.899951631391094e-06, -5.832782974963493e+00, -1.571924304752577e+04, -1.244352909764525e+02, 1.571538095970480e+04
1057, -2.000000000000702e-04, 6.000000000020976e-04, 5.406387129967683e-06, 3.316741795380158e-06, -1.234811350533073e+01, 1.615048521116903e+04, 4.568042091003230e+02, 1.618863371081733e+04
1058, -1.500000000001711e-04, 6.000000000017323e-04, 5.198238728323569e-06, 2.481658091267570e-06, -1.961690173174588e+01, 1.214917908299313e+04, 5.361330292599755e+02, 1.221594655432440e+04
1059, -1.000000000003000e-04, 6.000000000013669e-04, 5.046625645417109e-06, 1.651717738006047e-06, -2.465057804741582e+01, 8.140242359963041e+03, 5.756697581542768e+02, 8.245669128153679e+03
1060, -5.000000000041474e-05, 6.000000000010013e-04, 4.951771535359216e-06, 8.249115755289438e-07, -3.181497977065169e+01, 4.116019241253687e+03, 5.740861487902571e+02, 4.303815557157614e+03
1061, -5.641662945187267e-16, 6.000000000006360e-04, 4.913935202218574e-06, -7.866032664717781e-10, -4.038497350518787e+01, 7.793310526305459e+01, 5.294958824720452e+02, 1.065580933567604e+03
1062, 4.999999999951849e-05, 6.000000000002706e-04, 4.933328221870742e-06, -8.274347016592666e-07, -4.496085535823477e+01, -3.964149680028809e+03, 4.405906608978328e+02, 4.017028947531281e+03
1063, 9.999999999963128e-05, 5.999999999999052e-04, 5.010118983780366e-06, -1.657105907636045e-06, -3.992376816885576e+01, -8.000052489875979e+03, 3.078153258521686e+02, 7.983899446101797e+03
1064, 1.499999999997888e-04, 5.999999999995398e-04, 5.144424281063666e-06, -2.491870057683967e-06, -2.425275294711855e+01, -1.202778767016309e+04, 1.321651657410382e+02, 1.200644497896711e+04
1065, 1.999999999999023e-04, 5.999999999991742e-04, 5.336389711316359e-06, -3.333806549969924e-06, -2.281709113295392e+00, -1.605461168152581e+04, -8.596594697449876e+01, 1.605325070256395e+04
1066, -2.000000000000721e-04, 5.000000000017480e-04, 3.829022525354109e-06, 2.760656338425958e-06, -2.781131110423348e+01, 1.648089702553376e+04, 4.098761224818158e+02, 1.652904851125145e+04
1067, -1.500000000001754e-04, 5.000000000014432e-04, 3.618636920149885e-06, 2.065783793662867e-06, -1.748409790100732e+01, 1.243703354706982e+04, 5.017392697914881e+02, 1.249487810858086e+04
1068, -1.000000000003076e-04, 5.000000000011384e-04, 3.465671005561058e-06, 1.376354058137950e-06, -1.475750713471484e+01, 8.364371625216394e+03, 5.610470131881789e+02, 8.453928082296688e+03
1069, -5.000000000042491e-05, 5.000000000008338e-04, 3.370629550121640e-06, 6.906091243234419e-07, -2.485930557968845e+01, 4.243933134908290e+03, 5.808097786037675e+02, 4.424019540604939e+03
1070, -5.769852911424733e-16, 5.000000000005289e-04, 3.334040995180254e-06, 6.468479646852934e-09, -4.531382726607762e+01, 8.290679791841364e+01, 5.510485798294374e+02, 1.109530836908493e+03
1071, 4.999999999950832e-05, 5.000000000002242e-04, 3.356302142369023e-06, -6.784616871619615e-07, -6.158401327175102e+01, -4.082787256641159e+03, 4.675562733099586e+02, 4.128499848532228e+03
1072, 9.999999999962365e-05, 4.999999999999196e-04, 3.437430303256769e-06, -1.366595352006773e-06, -5.899608374652325e+01, -8.217106268508358e+03, 3.338061020708377e+02, 8.185381349810996e+03
1073, 1.499999999997844e-04, 4.999999999996149e-04, 3.577305832435012e-06, -2.060069229766916e-06, -3.399783523777160e+01, -1.231181924222284e+04, 1.589009796515966e+02, 1.228193374787365e+04
1074, 1.999999999999003e-04, 4.999999999993100e-04, 3.775826779778404e-06, -2.760722153134502e-06, 9.101321246929047e+00, -1.638489621762777e+04, -5.124305434559756e+01, 1.639431787867688e+04
1075, -2.000000000000740e-04, 4.000000000013997e-04, 2.538687664917518e-06, 2.188686929238270e-06, -5.880022249659464e+01, 1.679467143749628e+04, 3.413351876410896e+02, 1.686729219037456e+04
1076, -1.500000000001797e-04, 4.000000000011572e-04, 2.325217005529417e-06, 1.635508134721058e-06, -2.582392361775419e+00, 1.278911417916012e+04, 4.518252563221090e+02, 1.282357537611438e+04
1077, -1.000000000003152e-04, 4.000000000009148e-04, 2.169631567642196e-06, 1.088803324781724e-06, -5.642021548415869e+00, 8.652579245015557e+03, 5.528621848153688e+02, 8.728540650210429e+03
1078, -5.000000000043512e-05, 4.000000000006724e-04, 2.073086870452256e-06, 5.475877002290336e-07, -4.714117925653386e+01, 4.380445780153050e+03, 6.126443618082425e+02, 4.594002474896538e+03
1079, -5.898025937003254e-16, 4.000000000004300e-04, 2.037070263848760e-06, 9.483133842333809e-09, -4.969565201486239e+01, 8.666630461173145e+01, 6.056440646067759e+02, 1.218939504318692e+03
1080, 4.999999999949812e-05, 4.000000000001875e-04, 2.062198329463541e-06, -5.292331471359210e-07, -4.755119046666709e+01, -4.211618107199558e+03, 5.204578019210267e+02, 4.292197407080810e+03
1081, 9.999999999961606e-05, 3.999999999999452e-04, 2.148288435549773e-06, -1.072308264269308e-06, -7.539297285516864e+01, -8.498305534526971e+03, 3.678736350083194e+02, 8.454985515475801e+03
1082, 1.499999999997800e-04, 3.999999999997027e-04, 2.294294920779289e-06, -1.622192818251811e-06, -5.615461735360282e+01, -1.266064779016020e+04, 1.729684781591640e+02, 1.260923949019428e+04
1083, 1.999999999998984e-04, 3.999999999994603e-04, 2.499498899877587e-06, -2.179974277057974e-06, 3.543682367027986e+01, -1.669954980395043e+04, -3.330217708507388e+01, 1.673511916798439e+04
1084, -2.000000000000760e-04, 3.000000000010516e-04, 1.540615044875275e-06, 1.601884842101711e-06, -2.116320073461998e+01, 1.717953595609091e+04, 2.390143445077422e+02, 1.720734037877848e+04
1085, -1.500000000001842e-04, 3.000000000008717e-04, 1.323016249513994e-06, 1.188936404569095e-06, -3.286722313750033e+00, 1.320773396131345e+04, 4.000601305551273e+02, 1.323522798955366e+04
1086, -1.000000000003227e-04, 3.000000000006917e-04, 1.162604819796212e-06, 7.868602186760761e-07, -2.019156598035779e+02, 8.769474536140853e+03, 5.718180670522434e+02, 9.043989476725263e+03
1087, -5.000000000044532e-05, 3.000000000005118e-04, 1.063714233341580e-06, 3.954246055787437e-07, -1.606458110392141e+02, 4.422428875807673e+03, 6.798047150556562e+02, 4.780492797574775e+03
1088, -6.026207432911247e-16, 3.000000000003319e-04, 1.027869628261682e-06, 9.069615012187333e-09, -5.399117947919831e+01, 8.625102178256157e+01, 6.912618109223777e+02, 1.389618451220868e+03
1089, 4.999999999948792e-05, 3.000000000001520e-04, 1.055636638319821e-06, -3.777116332428789e-07, 5.841224058406215e+01, -4.253635571672448e+03, 6.095131632532762e+02, 4.481046922305347e+03
1090, 9.999999999960845e-05, 2.999999999999720e-04, 1.146885882609743e-06, -7.704430100163275e-07, 1.168161781895058e+02, -8.611791697171320e+03, 4.303879244878008e+02, 8.770948096072092e+03
1091, 1.499999999997756e-04, 2.999999999997920e-04, 1.300525642328905e-06, -1.174746453825954e-06, -5.598736295672666e+01, -1.307331385886431e+04, 1.862917710091771e+02, 1.302265747061024e+04
1092, 1.999999999998966e-04, 2.999999999996122e-04, 1.512693017011554e-06, -1.590993347636231e-06, -5.974925592593308e+00, -1.708594492431720e+04, -4.708390672619686e+01, 1.708022958670120e+04
1093, -2.000000000000778e-04, 2.000000000007014e-04, 8.321495895791839e-07, 9.998102839271325e-07, 2.100109804810653e+02, 1.770910977818304e+04, 1.883883472761679e+02, 1.750315455594484e+04
1094, -1.500000000001885e-04, 2.000000000005817e-04, 6.081814703215988e-07, 7.240520386479358e-07, -8.740789168482881e+02, 1.244192753069018e+04, 4.385836516453647e+02, 1.334486606110561e+04
1095, -1.000000000003304e-04, 2.000000000004620e-04, 4.477320740059115e-07, 4.744900843930081e-07, -6.373666677274246e+02, 8.244994478259938e+03, 6.132323490857337e+02, 8.966635666938117e+03
1096, -5.000000000045550e-05, 2.000000000003424e-04, 3.507926586505943e-07, 2.374334157326194e-07, -3.427801518735744e+02, 4.148914996585863e+03, 6.556177152170450e+02, 4.679173395026061e+03
1097, -6.154388928819240e-16, 2.000000000002227e-04, 3.166272814628850e-07, 6.233176781357955e-09, -5.911790588191570e+01, 7.563036424514917e+01, 6.498716596406919e+02, 1.306709528670709e+03
1098, 4.999999999947777e-05, 2.000000000001030e-04, 3.450399757365104e-07, -2.252180076274882e-07, 2.311010832053298e+02, -4.000479625883580e+03, 6.072857940676430e+02, 4.402437897374462e+03
1099, 9.999999999960084e-05, 1.999999999999833e-04, 4.366217649016193e-07, -4.630428363225180e-07, 5.457839002684088e+02, -8.104610827269906e+03, 5.155060279455269e+02, 8.711619528056501e+03
1100, 1.499999999997714e-04, 1.999999999998636e-04, 5.925190445761552e-07, -7.139113700335456e-07, 8.181772577673682e+02, -1.231095318573659e+04, 2.892789876207988e+02, 1.314187184282582e+04
1101, 1.999999999998946e-04, 1.999999999997439e-04, 8.131303543303009e-07, -9.915282475173210e-07, -2.282849331352509e+02, -1.760732445902652e+04, -1.455793196326584e+01, 1.737906391541338e+04
1102, -2.000000000000798e-04, 1.000000000003506e-04, 3.659775230531282e-07, 3.856529345033261e-07, -5.539042163194443e+03, 9.866405473853403e+03, 9.856289916145695e+02, 1.553105517774847e+04
1103, -1.500000000001928e-04, 1.000000000002906e-04, 1.709830145483903e-07, 2.773530788960947e-07, -2.569465804870489e+03, 8.326025327825366e+03, 7.969711667170683e+02, 1.101146580546693e+04
1104, -1.000000000003380e-04, 1.000000000002307e-04, 4.055704445674769e-08, 1.803178756700748e-07, -1.053725949316441e+03, 5.975200292895993e+03, 2.971436435405557e+02, 7.054004642616053e+03
1105, -5.000000000046567e-05, 1.000000000001708e-04, -3.526644586238781e-08, 9.004803399170893e-08, -3.854423919788386e+02, 3.107909298599976e+03, -1.684249765043512e+01, 3.493514092282767e+03
1106, -6.282434899455673e-16, 1.000000000001108e-04, -6.122802055532591e-08, 2.409228238310600e-09, -5.575949877812889e+01, 4.517364716058694e+01, -1.353649385361426e+02, 2.889328058366872e+02
1107, 4.999999999946757e-05, 1.000000000000509e-04, -3.875000902403956e-08, -8.534337896932273e-08, 2.763517048926142e+02, -3.021892406026574e+03, -4.937073815272009e+01, 3.299721820753392e+03
1108, 9.999999999959325e-05, 9.999999999999091e-05, 3.383365823401816e-08, -1.759698657282152e-07, 9.543883610976914e+02, -5.900707626635067e+03, 2.309707132876950e+02, 6.870642683375136e+03
1109, 1.499999999997670e-04, 9.999999999993101e-05, 1.615452215239071e-07, -2.736574586220491e-07, 2.497812578606853e+03, -8.263037740940612e+03, 6.952597581400371e+02, 1.085032000103502e+04
1110, 1.999999999998927e-04, 9.999999999987105e-05, 3.547447929666595e-07, -3.828759022540880e-07, 5.523855624842395e+03, -9.796886848258446e+03, 8.414287733520359e+02, 1.541288939328298e+04
