"PointID","x","y","Displacement_x","Displacement_y","Sxx","Syy","Sxy","Von_Mises_Stress"
0, -2.500000000000000e-04, 0.000000000000000e+00, 0.000000000000000e+00, 0.000000000000000e+00, 4.845936430549129e+04, 5.921828106553276e+04, 6.101323265878023e+03, 1.626833956580939e+04
1, 2.500000000000000e-04, 0.000000000000000e+00, 0.000000000000000e+00, 0.000000000000000e+00, -4.905182753344385e+04, -5.995998362446553e+04, 5.975995715988691e+03, 1.618140811227981e+04
2, 2.500000000000000e-04, 1.000000000000000e-02, 9.311614622490764e-04, -8.092352306913794e-05, 2.259826510951854e+01, 1.957626242432572e+01, 3.088090444281922e+00, 6.875878896371996e+00
3, -2.500000000000000e-04, 1.000000000000000e-02, 9.350733595987652e-04, -1.852843054478346e-05, 1.348771546228913e+01, 4.482274652258643e+01, 3.746233141712115e+00, 3.221833674412827e+01
4, -2.000000000000817e-04, 0.000000000000000e+00, 0.000000000000000e+00, 0.000000000000000e+00, 3.274244116728163e+04, 4.001391975119139e+04, 3.477542821360771e+03, 1.006218749049379e+04
5, -1.500000000001972e-04, 0.000000000000000e+00, 0.000000000000000e+00, 0.000000000000000e+00, 2.357736487133531e+04, 2.882072469735968e+04, 1.629806592361105e+03, 6.173969580357612e+03
6, -1.000000000003456e-04, 0.000000000000000e+00, 0.000000000000000e+00, 0.000000000000000e+00, 1.535641382696112e+04, 1.877170245032274e+04, 3.928449764478081e+02, 3.504497836059328e+03
7, -5.000000000047588e-05, 0.000000000000000e+00, 0.000000000000000e+00, 0.000000000000000e+00, 7.691946015793599e+03, 9.401093577458490e+03, -3.274329893646494e+02, 1.830310038666155e+03
8, -6.410887445906788e-16, 0.000000000000000e+00, 0.000000000000000e+00, 0.000000000000000e+00, 2.315958339875604e+02, 2.815079568304583e+02, -5.756881455150192e+02, 1.152457627660459e+03
9, 4.999999999945738e-05, 0.000000000000000e+00, 0.000000000000000e+00, 0.000000000000000e+00, -7.259212846736977e+03, -8.872682862359165e+03, -3.651517821209524e+02, 1.771053016500716e+03
10, 9.999999999958566e-05, 0.000000000000000e+00, 0.000000000000000e+00, 0.000000000000000e+00, -1.501654401259147e+04, -1.835088603103058e+04, 3.202347444413674e+02, 3.395296432142319e+03
11, 1.499999999997626e-04, 0.000000000000000e+00, 0.000000000000000e+00, 0.000000000000000e+00, -2.339922022613241e+04, -2.859479526657426e+04, 1.528404050509901e+03, 6.028107146304098e+03
12, 1.999999999998909e-04, 0.000000000000000e+00, 0.000000000000000e+00, 0.000000000000000e+00, -3.278646047135768e+04, -4.007595215667213e+04, 3.358047269362713e+03, 9.911741263943793e+03
13, 2.500000000000000e-04, 9.999999999981111e-05, 7.535031590402053e-07, -6.820921102849182e-07, 2.609930600452362e+03, -2.010520292499038e+04, 1.502508509507172e+03, 2.291304035616528e+04
14, 2.500000000000000e-04, 1.999999999996242e-04, 1.293460947224110e-06, -1.539285258946483e-06, -5.262113906494367e+03, -2.920628692347640e+04, -2.682460262667439e+02, 2.395018257111211e+04
15, 2.500000000000000e-04, 2.999999999994322e-04, 2.127662618028962e-06, -2.407086069116963e-06, -5.606688940985917e+03, -2.965659921348776e+04, -2.108611080435215e+02, 2.405360749956087e+04
16, 2.500000000000000e-04, 3.999999999992179e-04, 3.298583487629932e-06, -3.281092954080765e-06, -6.112928822523419e+03, -2.993160549511190e+04, -2.498855747515479e+02, 2.382391927528269e+04
17, 2.500000000000000e-04, 4.999999999990053e-04, 4.813073950296927e-06, -4.147397927673484e-06, -6.128909015019783e+03, -2.952421114752532e+04, -3.053443078431729e+02, 2.340327119136440e+04
18, 2.500000000000000e-04, 5.999999999988090e-04, 6.665519210142220e-06, -5.003025471109979e-06, -6.041423372086576e+03, -2.895562048554383e+04, -3.712336717570350e+02, 2.292622269608663e+04
19, 2.500000000000000e-04, 6.999999999986395e-04, 8.848807129695896e-06, -5.847862939558134e-06, -5.918321965987652e+03, -2.834110838838968e+04, -4.357157458860632e+02, 2.243971354071858e+04
20, 2.500000000000000e-04, 7.999999999985029e-04, 1.135577775534863e-05, -6.682834772638484e-06, -5.791239514667436e+03, -2.772595979310930e+04, -4.963311351906199e+02, 2.195717040232023e+04
21, 2.500000000000000e-04, 8.999999999983563e-04, 1.417948743924694e-05, -7.509007354020375e-06, -5.665753214922025e+03, -2.711807746842225e+04, -5.524571388820063e+02, 2.148076002935000e+04
22, 2.500000000000000e-04, 9.999999999981935e-04, 1.731314181093492e-05, -8.327398058979572e-06, -5.542674609872573e+03, -2.651811737806350e+04, -6.042177846104619e+02, 2.101022407892432e+04
23, 2.500000000000000e-04, 1.099999999998054e-03, 2.075004512414171e-05, -9.138944136969163e-06, -5.421595474608681e+03, -2.592536779624418e+04, -6.518129212869732e+02, 2.054517266305865e+04
24, 2.500000000000000e-04, 1.199999999997903e-03, 2.448357731525533e-05, -9.944512807762649e-06, -5.302225066458982e+03, -2.533943368476884e+04, -6.954303948922854e+02, 2.008542314590935e+04
25, 2.500000000000000e-04, 1.299999999997659e-03, 2.850718801651418e-05, -1.074491057541375e-05, -5.184421377052575e+03, -2.476019040122853e+04, -7.352356547197960e+02, 1.963091996722955e+04
26, 2.500000000000000e-04, 1.399999999997322e-03, 3.281439605412854e-05, -1.154088861205085e-05, -5.068122587655428e+03, -2.418763437554322e+04, -7.713829710810535e+02, 1.918165419768263e+04
27, 2.500000000000000e-04, 1.499999999997028e-03, 3.739879011270404e-05, -1.233314579491543e-05, -4.953292347556189e+03, -2.362179272032647e+04, -8.040208020992909e+02, 1.873762802408452e+04
28, 2.500000000000000e-04, 1.599999999996764e-03, 4.225402935813670e-05, -1.312233092440733e-05, -4.839902150659846e+03, -2.306269538196633e+04, -8.332937130595973e+02, 1.829884441159737e+04
29, 2.500000000000000e-04, 1.699999999996466e-03, 4.737384391666881e-05, -1.390904474226933e-05, -4.727926216723974e+03, -2.251036838418950e+04, -8.593430885099267e+02, 1.786530524828320e+04
30, 2.500000000000000e-04, 1.799999999996210e-03, 5.275203525626735e-05, -1.469384186485986e-05, -4.617338945122015e+03, -2.196483192317677e+04, -8.823071978692884e+02, 1.743701168747979e+04
31, 2.500000000000000e-04, 1.899999999995898e-03, 5.838247641229665e-05, -1.547723269637836e-05, -4.508121084597001e+03, -2.142610669700147e+04, -9.023208432344294e+02, 1.701396393548740e+04
32, 2.500000000000000e-04, 1.999999999995521e-03, 6.425911241134073e-05, -1.625968534192611e-05, -4.400249742327122e+03, -2.089420556651842e+04, -9.195159990952669e+02, 1.659616273181071e+04
33, 2.500000000000000e-04, 2.099999999995151e-03, 7.037596036322986e-05, -1.704162740683319e-05, -4.293708523419727e+03, -2.036914246846743e+04, -9.340211915969692e+02, 1.618360772099351e+04
34, 2.500000000000000e-04, 2.199999999994897e-03, 7.672710978682004e-05, -1.782344783389117e-05, -4.188480754373209e+03, -1.985092740195670e+04, -9.459618212432722e+02, 1.577629899746449e+04
35, 2.500000000000000e-04, 2.299999999994653e-03, 8.330672278947961e-05, -1.860549864652452e-05, -4.084550102277617e+03, -1.933956668226124e+04, -9.554604009606330e+02, 1.537423653931442e+04
36, 2.500000000000000e-04, 2.399999999994409e-03, 9.010903413799572e-05, -1.938809665565877e-05, -3.981907845300117e+03, -1.883506966106689e+04, -9.626360284816642e+02, 1.497741928433185e+04
37, 2.500000000000000e-04, 2.499999999994080e-03, 9.712835161273353e-05, -2.017152515862604e-05, -3.880543782692434e+03, -1.833744186385061e+04, -9.676043559755193e+02, 1.458584707474359e+04
38, 2.500000000000000e-04, 2.599999999993751e-03, 1.043590561795556e-04, -2.095603559372010e-05, -3.780445560601267e+03, -1.784668369477116e+04, -9.704786735273992e+02, 1.419952008591352e+04
39, 2.500000000000000e-04, 2.699999999993507e-03, 1.117956019644823e-04, -2.174184908433973e-05, -3.681606909327340e+03, -1.736279770605401e+04, -9.713690412043968e+02, 1.381843742516787e+04
40, 2.500000000000000e-04, 2.799999999993264e-03, 1.194325164640767e-04, -2.252915802157591e-05, -3.584023638592963e+03, -1.688578589249661e+04, -9.703822223628490e+02, 1.344259817480561e+04
41, 2.500000000000000e-04, 2.899999999993009e-03, 1.272644007781527e-04, -2.331812757076127e-05, -3.487687837460520e+03, -1.641564477894844e+04, -9.676221989100334e+02, 1.307200220166213e+04
42, 2.500000000000000e-04, 2.999999999992623e-03, 1.352859295273004e-04, -2.410889713773207e-05, -3.392601681214695e+03, -1.595237730677076e+04, -9.631897381716868e+02, 1.270664793134638e+04
43, 2.500000000000000e-04, 3.099999999992220e-03, 1.434918512632760e-04, -2.490158183102184e-05, -3.298756941821799e+03, -1.549597594293022e+04, -9.571829160554585e+02, 1.234653586639403e+04
44, 2.500000000000000e-04, 3.199999999991949e-03, 1.518769882686899e-04, -2.569627382951257e-05, -3.206153149569176e+03, -1.504643740879343e+04, -9.496973469435591e+02, 1.199166508631725e+04
45, 2.500000000000000e-04, 3.299999999991705e-03, 1.604362367179015e-04, -2.649304373317279e-05, -3.114790428742575e+03, -1.460375729838539e+04, -9.408254479227601e+02, 1.164203460850321e+04
46, 2.500000000000000e-04, 3.399999999991461e-03, 1.691645667956857e-04, -2.729194188679627e-05, -3.024669975496682e+03, -1.416793103090852e+04, -9.306565465880643e+02, 1.129764370919383e+04
47, 2.500000000000000e-04, 3.499999999991149e-03, 1.780570228368062e-04, -2.809299968446532e-05, -2.935788076849582e+03, -1.373894817702982e+04, -9.192779102351026e+02, 1.095849239882527e+04
48, 2.500000000000000e-04, 3.599999999990803e-03, 1.871087231515963e-04, -2.889623075214550e-05, -2.848148474834569e+03, -1.331680299181453e+04, -9.067740516607294e+02, 1.062457924432520e+04
49, 2.500000000000000e-04, 3.699999999990560e-03, 1.963148601590856e-04, -2.970163218307451e-05, -2.761761058534168e+03, -1.290149406603159e+04, -8.932259856205675e+02, 1.029590190847233e+04
50, 2.500000000000000e-04, 3.799999999990315e-03, 2.056707008152497e-04, -3.050918572607491e-05, -2.676620962807312e+03, -1.249300668040756e+04, -8.787123826615765e+02, 9.972460597188507e+03
51, 2.500000000000000e-04, 3.899999999990071e-03, 2.151715862530010e-04, -3.131885888321690e-05, -2.592731393211392e+03, -1.209133157658270e+04, -8.633099834782272e+02, 9.654254085833565e+03
52, 2.500000000000000e-04, 3.999999999989709e-03, 2.248129318571434e-04, -3.213060600570653e-05, -2.510096953403839e+03, -1.169645988428348e+04, -8.470926261688232e+02, 9.341280831185726e+03
53, 2.500000000000000e-04, 4.099999999989249e-03, 2.345902273610259e-04, -3.294436935937309e-05, -2.428720864270867e+03, -1.130838088562634e+04, -8.301316997440767e+02, 9.033539541649143e+03
54, 2.500000000000000e-04, 4.199999999988788e-03, 2.444990368005178e-04, -3.376008014644817e-05, -2.348607816310674e+03, -1.092708486159515e+04, -8.124962477022050e+02, 8.731029093216526e+03
55, 2.500000000000000e-04, 4.299999999988333e-03, 2.545349985414865e-04, -3.457765952787362e-05, -2.269764675217538e+03, -1.055256399923323e+04, -7.942527106011343e+02, 8.433748520978310e+03
56, 2.500000000000000e-04, 4.399999999988144e-03, 2.646938254342297e-04, -3.539701960836041e-05, -2.192191166338933e+03, -1.018480374764486e+04, -7.754658222242548e+02, 8.141697908950049e+03
57, 2.500000000000000e-04, 4.499999999988117e-03, 2.749713045429144e-04, -3.621806430854738e-05, -2.115898447756654e+03, -9.823798578762046e+03, -7.561974632197227e+02, 7.854875100412019e+03
58, 2.500000000000000e-04, 4.599999999988090e-03, 2.853632974918564e-04, -3.704069031220920e-05, -2.040891473894508e+03, -9.469537419218786e+03, -7.365067971846152e+02, 7.573278657898401e+03
59, 2.500000000000000e-04, 4.699999999988035e-03, 2.958657404665933e-04, -3.786478788838803e-05, -1.967170045669653e+03, -9.122005083867089e+03, -7.164513361175628e+02, 7.296908557184767e+03
60, 2.500000000000000e-04, 4.799999999987717e-03, 3.064746438482743e-04, -3.869024176416926e-05, -1.894747543270261e+03, -8.781197421975663e+03, -6.960868948725791e+02, 7.025762577313229e+03
61, 2.500000000000000e-04, 4.899999999987257e-03, 3.171860926419673e-04, -3.951693191583417e-05, -1.823623621689672e+03, -8.447098623390968e+03, -6.754664619566264e+02, 6.759840298636856e+03
62, 2.500000000000000e-04, 4.999999999986965e-03, 3.279962462443775e-04, -4.034473433144935e-05, -1.753805197916708e+03, -8.119698904447698e+03, -6.546410324821142e+02, 6.499140113006323e+03
63, 2.500000000000000e-04, 5.099999999987202e-03, 3.389013385276183e-04, -4.117352176354064e-05, -1.685297784889586e+03, -7.798987021217660e+03, -6.336596367882859e+02, 6.243660322244668e+03
64, 2.500000000000000e-04, 5.199999999987608e-03, 3.498976777924532e-04, -4.200316442130259e-05, -1.618107936782258e+03, -7.484952506973868e+03, -6.125691622376661e+02, 5.993398795748953e+03
65, 2.500000000000000e-04, 5.299999999988015e-03, 3.609816468309728e-04, -4.283353067218118e-05, -1.552238333356226e+03, -7.177581786730113e+03, -5.914147595444819e+02, 5.748354080921310e+03
66, 2.500000000000000e-04, 5.399999999988211e-03, 3.721497027845307e-04, -4.366448768338315e-05, -1.487694413423477e+03, -6.876863582348671e+03, -5.702398517198774e+02, 5.508524147650794e+03
67, 2.500000000000000e-04, 5.499999999988184e-03, 3.833983771357534e-04, -4.449590205768357e-05, -1.424483445306796e+03, -6.582788369022244e+03, -5.490856709991986e+02, 5.273906520067795e+03
68, 2.500000000000000e-04, 5.599999999988157e-03, 3.947242758184426e-04, -4.532764044786504e-05, -1.362609211804869e+03, -6.295343917051318e+03, -5.279913874311952e+02, 5.044499112216084e+03
69, 2.500000000000000e-04, 5.699999999988293e-03, 4.061240791677308e-04, -4.615957012725660e-05, -1.302075649676891e+03, -6.014517723900932e+03, -5.069945768354210e+02, 4.820299192651747e+03
70, 2.500000000000000e-04, 5.799999999988694e-03, 4.175945418501251e-04, -4.699155950665326e-05, -1.242887935547878e+03, -5.740298098002486e+03, -4.861311922215536e+02, 4.601303327705421e+03
71, 2.500000000000000e-04, 5.899999999989099e-03, 4.291324927845990e-04, -4.782347866125770e-05, -1.185050020424522e+03, -5.472673148935395e+03, -4.654358407963555e+02, 4.387508880872221e+03
72, 2.500000000000000e-04, 5.999999999989505e-03, 4.407348350525848e-04, -4.865519986929775e-05, -1.128567706012788e+03, -5.211633862868738e+03, -4.449413256111339e+02, 4.178913779226462e+03
73, 2.500000000000000e-04, 6.099999999989911e-03, 4.523985460259167e-04, -4.948659813819964e-05, -1.073442921378572e+03, -4.957168420813384e+03, -4.246786553050383e+02, 3.975516519403102e+03
74, 2.500000000000000e-04, 6.199999999990317e-03, 4.641206773165041e-04, -5.031755162965067e-05, -1.019683278834184e+03, -4.709269352310952e+03, -4.046764934549612e+02, 3.777313549470541e+03
75, 2.500000000000000e-04, 6.299999999990723e-03, 4.758983549649173e-04, -5.114794208679271e-05, -9.672820541708481e+02, -4.467916493860794e+03, -3.849632934661906e+02, 3.584303060513813e+03
76, 2.500000000000000e-04, 6.399999999990975e-03, 4.877287787544699e-04, -5.197765514974193e-05, -9.162552648629701e+02, -4.233107629349453e+03, -3.655655046903844e+02, 3.396477905224429e+03
77, 2.500000000000000e-04, 6.499999999990961e-03, 4.996092228935356e-04, -5.280658077448895e-05, -8.666018046501833e+02, -4.004825886260182e+03, -3.465066330250509e+02, 3.213832256561993e+03
78, 2.500000000000000e-04, 6.599999999990934e-03, 5.115370358194144e-04, -5.363461352380535e-05, -8.183137659276870e+02, -3.783049431961307e+03, -3.278099428186993e+02, 3.036362133194097e+03
79, 2.500000000000000e-04, 6.699999999991035e-03, 5.235096394838043e-04, -5.446165294506337e-05, -7.714073783248816e+02, -3.567775785135094e+03, -3.094983268896524e+02, 2.864058854841545e+03
80, 2.500000000000000e-04, 6.799999999991401e-03, 5.355245299112031e-04, -5.528760384741826e-05, -7.258771537579587e+02, -3.358985099131442e+03, -2.915920027426813e+02, 2.696916950193853e+03
81, 2.500000000000000e-04, 6.899999999991809e-03, 5.475792768357132e-04, -5.611237665264087e-05, -6.817288826771314e+02, -3.156668478001863e+03, -2.741093937001723e+02, 2.534929947624756e+03
82, 2.500000000000000e-04, 6.999999999992214e-03, 5.596715240017391e-04, -5.693588772879449e-05, -6.389480720616032e+02, -2.960800975017696e+03, -2.570691564014570e+02, 2.378095689339995e+03
83, 2.500000000000000e-04, 7.099999999992620e-03, 5.717989881619765e-04, -5.775805959693043e-05, -5.975478658494774e+02, -2.771379835800573e+03, -2.404898256769537e+02, 2.226406714551047e+03
84, 2.500000000000000e-04, 7.199999999993026e-03, 5.839594595818911e-04, -5.857882119206758e-05, -5.575446314384196e+02, -2.588404326143446e+03, -2.243852031468542e+02, 2.079852393114092e+03
85, 2.500000000000000e-04, 7.299999999993359e-03, 5.961508028646453e-04, -5.939810809599330e-05, -5.189055570693208e+02, -2.411833814221876e+03, -2.087693831706939e+02, 1.938431326646497e+03
86, 2.500000000000000e-04, 7.399999999993427e-03, 6.083709551418687e-04, -6.021586268274009e-05, -4.816553569466585e+02, -2.241673263728678e+03, -1.936566592853877e+02, 1.802130583208572e+03
87, 2.500000000000000e-04, 7.499999999993399e-03, 6.206179272371823e-04, -6.103203426912632e-05, -4.457848603261141e+02, -2.077895941123391e+03, -1.790583718306586e+02, 1.670938114399166e+03
88, 2.500000000000000e-04, 7.599999999993372e-03, 6.328898031003211e-04, -6.184657908434802e-05, -4.113000919517878e+02, -1.920485685739227e+03, -1.649825458376257e+02, 1.544835951879617e+03
89, 2.500000000000000e-04, 7.699999999993440e-03, 6.451847402540674e-04, -6.265946045063530e-05, -3.781770764846388e+02, -1.769402432090053e+03, -1.514373819954561e+02, 1.423812176075890e+03
90, 2.500000000000000e-04, 7.799999999993771e-03, 6.575009682908288e-04, -6.347064886964018e-05, -3.464088651318245e+02, -1.624623377568893e+03, -1.384341509115479e+02, 1.307856412745351e+03
91, 2.500000000000000e-04, 7.899999999994177e-03, 6.698367883081478e-04, -6.428012233764163e-05, -3.160229009472620e+02, -1.486153444588661e+03, -1.259826270226375e+02, 1.196951117802484e+03
92, 2.500000000000000e-04, 7.999999999994584e-03, 6.821905742821653e-04, -6.508786637206416e-05, -2.870009333609293e+02, -1.353959680996398e+03, -1.140886655160900e+02, 1.091084718778894e+03
93, 2.500000000000000e-04, 8.099999999994990e-03, 6.945607720958731e-04, -6.589387414314222e-05, -2.593374333858135e+02, -1.228020942697847e+03, -1.027582134048811e+02, 9.902447893837807e+02
94, 2.500000000000000e-04, 8.199999999995398e-03, 7.069458995462769e-04, -6.669814657911224e-05, -2.330325295340017e+02, -1.108317858390159e+03, -9.199606740464601e+01, 8.944146200630402e+02
95, 2.500000000000000e-04, 8.299999999995804e-03, 7.193445461775649e-04, -6.750069224474232e-05, -2.080844719474725e+02, -9.948248940976753e+02, -8.180541274722603e+01, 8.035726439246519e+02
96, 2.500000000000000e-04, 8.399999999996209e-03, 7.317553731573718e-04, -6.830152727102890e-05, -1.844856683828591e+02, -8.875076844394771e+02, -7.218714461777012e+01, 7.176934515881966e+02
97, 2.500000000000000e-04, 8.499999999996616e-03, 7.441771131283887e-04, -6.910067523151049e-05, -1.622114289797426e+02, -7.863153196703092e+02, -6.314147234951664e+01, 6.367519520951325e+02
98, 2.500000000000000e-04, 8.599999999997021e-03, 7.566085689398491e-04, -6.989816705666654e-05, -1.412517976344040e+02, -6.912089893095176e+02, -5.466996450682313e+01, 5.607210828494741e+02
99, 2.500000000000000e-04, 8.699999999997429e-03, 7.690486130283725e-04, -7.069404108413395e-05, -1.216155836715338e+02, -6.021624213630275e+02, -4.677371996881138e+01, 4.895675507365434e+02
100, 2.500000000000000e-04, 8.799999999997834e-03, 7.814961877194012e-04, -7.148834290229786e-05, -1.032915327034745e+02, -5.191327072953850e+02, -3.945006933585534e+01, 4.232601025000998e+02
101, 2.500000000000000e-04, 8.899999999997930e-03, 7.939503047524062e-04, -7.228112546147100e-05, -8.625264645112573e+01, -4.420687739904754e+02, -3.269709027568942e+01, 3.617755042385887e+02
102, 2.500000000000000e-04, 8.999999999997496e-03, 8.064100441353587e-04, -7.307244919926482e-05, -7.048076549871809e+01, -3.709258279071782e+02, -2.651534864467590e+01, 3.050893154153688e+02
103, 2.500000000000000e-04, 9.099999999997034e-03, 8.188745535797325e-04, -7.386238180480869e-05, -5.597801857298929e+01, -3.056678772301684e+02, -2.090097216674992e+01, 2.531648239118205e+02
104, 2.500000000000000e-04, 9.199999999996832e-03, 8.313430491845010e-04, -7.465099788263903e-05, -4.271725538820037e+01, -2.462181653405047e+02, -1.584356675265918e+01, 2.059531373424541e+02
105, 2.500000000000000e-04, 9.299999999997156e-03, 8.438148150848185e-04, -7.543837803673437e-05, -3.062812860406994e+01, -1.924417343734368e+02, -1.132802451874675e+01, 1.633919813518197e+02
106, 2.500000000000000e-04, 9.399999999997563e-03, 8.562892007760495e-04, -7.622460774230515e-05, -1.967013686976214e+01, -1.442076004016262e+02, -7.335549923846393e+00, 1.253986482929196e+02
107, 2.500000000000000e-04, 9.499999999997968e-03, 8.687656191561170e-04, -7.700977644001032e-05, -9.738122759831981e+00, -1.013070469269203e+02, -3.852648110209692e+00, 9.189254302152264e+01
108, 2.500000000000000e-04, 9.599999999998375e-03, 8.812435410554312e-04, -7.779397599848028e-05, -8.789074511235633e-01, -6.366532229280213e+01, -8.638783783312372e-01, 6.281018255093315e+01
109, 2.500000000000000e-04, 9.699999999998783e-03, 8.937224926374473e-04, -7.857730190963125e-05, 6.858402825806621e+00, -3.148800417720113e+01, 1.597973278246633e+00, 3.847935816034726e+01
110, 2.500000000000000e-04, 9.799999999999188e-03, 9.062020376800873e-04, -7.935986998765797e-05, 1.243580482214559e+01, -6.375140371000706e+00, 3.290197978490203e+00, 1.992870467466960e+01
111, 2.500000000000000e-04, 9.899999999999593e-03, 9.186817916931564e-04, -8.014184594927690e-05, 1.470746673090367e+01, 8.609741628253902e+00, 3.749671446020306e+00, 9.665526123283986e+00
112, 2.000000000000817e-04, 1.000000000000000e-02, 9.315522305902929e-04, -7.468389284129818e-05, 2.140772287622694e+01, 1.894881491859784e+01, 4.556672291998871e+00, 9.439241381105402e+00
113, 1.500000000001972e-04, 1.000000000000000e-02, 9.319430246440143e-04, -6.844442562618670e-05, 1.858764488732106e+01, 1.929380854283532e+01, 7.331236832189819e+00, 1.467946869157722e+01
114, 1.000000000003456e-04, 1.000000000000000e-02, 9.323339044483042e-04, -6.220509338233663e-05, 1.249761126839972e+01, 1.925474934403551e+01, 9.783744313127485e+00, 2.070134116698299e+01
115, 5.000000000047588e-05, 1.000000000000000e-02, 9.327249160424735e-04, -5.596583902771683e-05, 4.484749223066774e+00, 1.927779484158629e+01, 1.156105072634267e+01, 2.744933103483350e+01
116, 6.410887445906788e-16, 1.000000000000000e-02, 9.331160864768839e-04, -4.972658682869902e-05, -3.543052334545670e+00, 2.033326838517777e+01, 1.233012365428980e+01, 3.432501257729415e+01
117, -4.999999999945738e-05, 1.000000000000000e-02, 9.335074227693087e-04, -4.348724614076391e-05, -9.040027730778787e+00, 2.408534553093173e+01, 1.183243746758976e+01, 4.071015425450183e+01
118, -9.999999999958566e-05, 1.000000000000000e-02, 9.338989086700040e-04, -3.724773106693832e-05, -8.873875007800706e+00, 3.257803270024273e+01, 1.010332173581000e+01, 4.611473834930992e+01
119, -1.499999999997626e-04, 1.000000000000000e-02, 9.342904959111175e-04, -3.100799785649794e-05, 1.158906533940352e+00, 4.791233160709729e+01, 7.908482553717832e+00, 4.935644984478864e+01
120, -1.999999999998909e-04, 1.000000000000000e-02, 9.346820743528853e-04, -2.476812910744823e-05, 2.979230980935113e+01, 7.288200898649671e+01, 6.982545433837640e+00, 4.529620224830475e+01
121, -2.500000000000000e-04, 9.899999999999590e-03, 9.225937403427035e-04, -1.774787903115181e-05, -1.967617936780198e+01, 3.712230193029372e+01, -8.598970816529354e-01, 5.682451205012030e+01
122, -2.500000000000000e-04, 9.799999999999181e-03, 9.101137022829361e-04, -1.696843780185301e-05, 6.220060654900808e+00, 8.453176180894869e+01, 4.340456285612754e+00, 7.879137504010299e+01
123, -2.500000000000000e-04, 9.699999999999055e-03, 8.976338487388086e-04, -1.618981067940106e-05, 1.529975684880097e+01, 1.144135782349532e+02, 9.185581522142533e+00, 1.008020298474479e+02
124, -2.500000000000000e-04, 9.599999999999458e-03, 8.851544641197532e-04, -1.541213233238861e-05, 2.208452905224588e+01, 1.464655634248378e+02, 1.424511862025511e+01, 1.276022544064816e+02
125, -2.500000000000000e-04, 9.499999999999916e-03, 8.726758720348977e-04, -1.463562540970805e-05, 2.994938738772792e+01, 1.844248276896460e+02, 1.973160923420322e+01, 1.594365305328632e+02
126, -2.500000000000000e-04, 9.400000000000373e-03, 8.601984785614735e-04, -1.386051404434986e-05, 3.897112219584338e+01, 2.281578245259291e+02, 2.565941043723012e+01, 1.960235437759388e+02
127, -2.500000000000000e-04, 9.300000000000832e-03, 8.477227521733942e-04, -1.308702622298400e-05, 4.971291268780274e+01, 2.779888513724403e+02, 3.204592703498624e+01, 2.371026569663002e+02
128, -2.500000000000000e-04, 9.200000000001289e-03, 8.352492486052315e-04, -1.231539633708021e-05, 6.146095280562335e+01, 3.332301569650986e+02, 3.892615987292263e+01, 2.827003431538135e+02
129, -2.500000000000000e-04, 9.100000000001746e-03, 8.227785716816699e-04, -1.154586312325171e-05, 7.468964337142189e+01, 3.942561884479728e+02, 4.631847645223118e+01, 3.327226799837770e+02
130, -2.500000000000000e-04, 9.000000000002204e-03, 8.103113996628181e-04, -1.077867609594857e-05, 8.931253502234033e+01, 4.610590794164764e+02, 5.421257344389480e+01, 3.872357237479777e+02
131, -2.500000000000000e-04, 8.900000000002661e-03, 7.978484802544625e-04, -1.001409585263473e-05, 1.052465769157111e+02, 5.336326011286010e+02, 6.262610087610905e+01, 4.463212965843161e+02
132, -2.500000000000000e-04, 8.800000000003118e-03, 7.853906268445734e-04, -9.252393418313827e-06, 1.225118017422203e+02, 6.120408258703455e+02, 7.157692511272813e+01, 5.100310679735177e+02
133, -2.500000000000000e-04, 8.700000000003576e-03, 7.729387212060228e-04, -8.493849794549308e-06, 1.410487754914122e+02, 6.962728043028737e+02, 8.107644431865307e+01, 5.784179124673209e+02
134, -2.500000000000000e-04, 8.600000000004033e-03, 7.604937115351501e-04, -7.738755517075469e-06, 1.608710609779888e+02, 7.863786716505781e+02, 9.113296606212029e+01, 6.515217886014633e+02
135, -2.500000000000000e-04, 8.500000000004490e-03, 7.480566137962646e-04, -6.987410955051873e-06, 1.819918778263319e+02, 8.824053158930503e+02, 1.017533115568463e+02, 7.293791400057855e+02
136, -2.500000000000000e-04, 8.400000000004949e-03, 7.356285123978176e-04, -6.240125915974589e-06, 2.044807550186198e+02, 9.844552913916430e+02, 1.129310614336160e+02, 8.120184578791327e+02
137, -2.500000000000000e-04, 8.300000000005149e-03, 7.232105636868433e-04, -5.497220704521139e-06, 2.282814823392173e+02, 1.092518896184123e+03, 1.246718458367424e+02, 8.994879565990268e+02
138, -2.500000000000000e-04, 8.200000000005172e-03, 7.108039927543891e-04, -4.759024664187638e-06, 2.534896355944761e+02, 1.206718781098683e+03, 1.369655413015553e+02, 9.918084703483794e+02
139, -2.500000000000000e-04, 8.100000000005195e-03, 6.984100987394079e-04, -4.025877866172442e-06, 2.800265078451815e+02, 1.327030266076152e+03, 1.498159556435243e+02, 1.089034504509066e+03
140, -2.500000000000000e-04, 8.000000000005220e-03, 6.860302506383394e-04, -3.298129443099075e-06, 3.078949903153368e+02, 1.453471393836614e+03, 1.632300691577109e+02, 1.191184921921726e+03
141, -2.500000000000000e-04, 7.900000000005243e-03, 6.736658876091952e-04, -2.576137077032356e-06, 3.372448036535226e+02, 1.586205153284002e+03, 1.771851491962947e+02, 1.298260475918427e+03
142, -2.500000000000000e-04, 7.800000000005240e-03, 6.613185273835906e-04, -1.860269202281845e-06, 3.678677381966665e+02, 1.725083686301482e+03, 1.916866239869094e+02, 1.410322720887687e+03
143, -2.500000000000000e-04, 7.700000000005121e-03, 6.489897555228152e-04, -1.150901807994619e-06, 3.998543752465918e+02, 1.870198770195362e+03, 2.067299490116818e+02, 1.527370854452433e+03
144, -2.500000000000000e-04, 7.600000000005145e-03, 6.366812310568665e-04, -4.484202159298687e-07, 4.331976155286575e+02, 2.021564463680865e+03, 2.223095425261763e+02, 1.649422739961399e+03
145, -2.500000000000000e-04, 7.500000000005337e-03, 6.243946865802765e-04, 2.467821782507957e-07, 4.678100850082841e+02, 2.179113879781727e+03, 2.384234540699250e+02, 1.776497580017636e+03
146, -2.500000000000000e-04, 7.400000000005796e-03, 6.121319236594215e-04, 9.343044588952582e-07, 5.038633654208277e+02, 2.343019050130944e+03, 2.550506533575853e+02, 1.908585071647073e+03
147, -2.500000000000000e-04, 7.300000000006254e-03, 5.998948219048052e-04, 1.613736067246525e-06, 5.412777532167036e+02, 2.513250087649661e+03, 2.721786088758118e+02, 2.045727173473349e+03
148, -2.500000000000000e-04, 7.200000000006711e-03, 5.876853343844763e-04, 2.284658301225353e-06, 5.800337820388741e+02, 2.689804467484928e+03, 2.898036904653882e+02, 2.187938998509087e+03
149, -2.500000000000000e-04, 7.100000000007169e-03, 5.755054870529735e-04, 2.946645031008841e-06, 6.201896071175146e+02, 2.872747777089202e+03, 3.079077203562480e+02, 2.335218826175852e+03
150, -2.500000000000000e-04, 7.000000000007627e-03, 5.633573824998357e-04, 3.599262113027648e-06, 6.616716979600667e+02, 3.062039988672098e+03, 3.264773070807039e+02, 2.487592743841015e+03
151, -2.500000000000000e-04, 6.900000000008085e-03, 5.512431963239901e-04, 4.242068159201186e-06, 7.045132157470360e+02, 3.257722973434644e+03, 3.454996471460213e+02, 2.645063343563498e+03
152, -2.500000000000000e-04, 6.800000000008542e-03, 5.391651794747328e-04, 4.874614711799107e-06, 7.486795447614111e+02, 3.459779583940398e+03, 3.649595625830329e+02, 2.807640531072220e+03
153, -2.500000000000000e-04, 6.700000000009001e-03, 5.271256567211721e-04, 5.496446816424750e-06, 7.942119147069375e+02, 3.668263886347373e+03, 3.848353385938736e+02, 2.975326484104378e+03
154, -2.500000000000000e-04, 6.600000000009459e-03, 5.151270291404273e-04, 6.107102423041841e-06, 8.410938530682159e+02, 3.883181406112117e+03, 4.051071200017831e+02, 3.148133382671259e+03
155, -2.500000000000000e-04, 6.500000000009916e-03, 5.031717738534982e-04, 6.706113346857708e-06, 8.892508102163044e+02, 4.104481041459027e+03, 4.257594310846206e+02, 3.326077240914156e+03
156, -2.500000000000000e-04, 6.400000000010177e-03, 4.912624405757492e-04, 7.293005877626335e-06, 9.387520900446850e+02, 4.332234236112930e+03, 4.467715999854401e+02, 3.509150969379651e+03
157, -2.500000000000000e-04, 6.300000000010201e-03, 4.794016556069481e-04, 7.867300530538602e-06, 9.895969630950171e+02, 4.566460217310256e+03, 4.681160407997704e+02, 3.697361390231070e+03
158, -2.500000000000000e-04, 6.200000000010225e-03, 4.675921219459336e-04, 8.428512376392433e-06, 1.041766765488679e+03, 4.807161561369901e+03, 4.897667404334632e+02, 3.890717647040025e+03
159, -2.500000000000000e-04, 6.100000000010248e-03, 4.558366188509873e-04, 8.976151573223472e-06, 1.095223139393968e+03, 5.054319713432556e+03, 5.117012221488696e+02, 4.089229541803526e+03
160, -2.500000000000000e-04, 6.000000000010509e-03, 4.441380003306060e-04, 9.509724078619108e-06, 1.149997791233359e+03, 5.307975301866102e+03, 5.338919108223554e+02, 4.292894043497213e+03
161, -2.500000000000000e-04, 5.900000000010967e-03, 4.324991972364359e-04, 1.002873167832136e-05, 1.206098829178055e+03, 5.568153609847308e+03, 5.563055744801522e+02, 4.501713615763476e+03
162, -2.500000000000000e-04, 5.800000000011424e-03, 4.209232181629663e-04, 1.053267236264784e-05, 1.263487825236424e+03, 5.834840417779777e+03, 5.789100771109372e+02, 4.715698467340252e+03
163, -2.500000000000000e-04, 5.700000000011876e-03, 4.094131481671485e-04, 1.102104097339265e-05, 1.322132792580920e+03, 6.108023284668247e+03, 6.016767722294003e+02, 4.934856386483139e+03
164, -2.500000000000000e-04, 5.600000000012062e-03, 3.979721478408942e-04, 1.149332988959081e-05, 1.382037177547281e+03, 6.387717407076892e+03, 6.245750949151402e+02, 5.159187024818605e+03
165, -2.500000000000000e-04, 5.500000000012085e-03, 3.866034539583481e-04, 1.194902949554312e-05, 1.443230152484514e+03, 6.673962368274882e+03, 6.475669143182092e+02, 5.388685474898833e+03
166, -2.500000000000000e-04, 5.400000000012110e-03, 3.753103814009737e-04, 1.238762843081966e-05, 1.505692337911109e+03, 6.966759879025107e+03, 6.706117411555067e+02, 5.623356570422275e+03
167, -2.500000000000000e-04, 5.300000000012160e-03, 3.640963226360039e-04, 1.280861421846589e-05, 1.569400387590110e+03, 7.266106902919117e+03, 6.936706065720438e+02, 5.863205672964243e+03
168, -2.500000000000000e-04, 5.200000000012475e-03, 3.529647471787659e-04, 1.321147394880523e-05, 1.634346232376580e+03, 7.572012543388193e+03, 7.167032850412378e+02, 6.108235065555178e+03
169, -2.500000000000000e-04, 5.100000000012934e-03, 3.419192018440175e-04, 1.359569486291488e-05, 1.700527345571800e+03, 7.884491001625913e+03, 7.396666345248223e+02, 6.358445833717172e+03
170, -2.500000000000000e-04, 5.000000000013221e-03, 3.309633112408930e-04, 1.396076495750240e-05, 1.767933761191058e+03, 8.203551089752771e+03, 7.625149750086002e+02, 6.613840544504629e+03
171, -2.500000000000000e-04, 4.900000000012981e-03, 3.201007778869688e-04, 1.430617362024466e-05, 1.836544015792607e+03, 8.529190602835062e+03, 7.852031797016738e+02, 6.874423210183200e+03
172, -2.500000000000000e-04, 4.800000000012570e-03, 3.093353816359417e-04, 1.463141247858451e-05, 1.906368393513029e+03, 8.861432989540346e+03, 8.076824571879624e+02, 7.140190987747414e+03
173, -2.500000000000000e-04, 4.700000000012160e-03, 2.986709808137142e-04, 1.493597599104657e-05, 1.977408771933946e+03, 9.200297223343081e+03, 8.298982556826996e+02, 7.411143099457749e+03
174, -2.500000000000000e-04, 4.600000000011960e-03, 2.881115130655509e-04, 1.521936208070231e-05, 2.049615863374049e+03, 9.545759257564187e+03, 8.517981411659582e+02, 7.687288603885999e+03
175, -2.500000000000000e-04, 4.500000000011985e-03, 2.776609934852360e-04, 1.548107315006844e-05, 2.122988007589370e+03, 9.897832275941102e+03, 8.733301095318225e+02, 7.968627568030849e+03
176, -2.500000000000000e-04, 4.400000000012010e-03, 2.673235151833063e-04, 1.572061685364811e-05, 2.197539945214384e+03, 1.025654352340820e+04, 8.944361207012245e+02, 8.255156120231824e+03
177, -2.500000000000000e-04, 4.300000000011870e-03, 2.571032506536468e-04, 1.593750684560018e-05, 2.273252716518989e+03, 1.062189269079704e+04, 9.150549941277102e+02, 8.546876153848592e+03
178, -2.500000000000000e-04, 4.200000000011467e-03, 2.470044513675751e-04, 1.613126369635441e-05, 2.350110761321770e+03, 1.099388123447961e+04, 9.351252367100078e+02, 8.843789053678463e+03
179, -2.500000000000000e-04, 4.100000000011056e-03, 2.370314476405012e-04, 1.630141584166123e-05, 2.428110534191082e+03, 1.137252070219235e+04, 9.545821365610479e+02, 9.145894241418398e+03
180, -2.500000000000000e-04, 4.000000000010646e-03, 2.271886491811787e-04, 1.644750044527616e-05, 2.507233551894854e+03, 1.175781054093499e+04, 9.733591876040197e+02, 9.453194542721072e+03
181, -2.500000000000000e-04, 3.900000000010236e-03, 2.174805447621037e-04, 1.656906440943942e-05, 2.587469471033082e+03, 1.214975588154855e+04, 9.913889697330645e+02, 9.765691463176701e+03
182, -2.500000000000000e-04, 3.800000000009824e-03, 2.079117022437430e-04, 1.666566539820780e-05, 2.668824555577305e+03, 1.254837470105345e+04, 1.008600098004839e+03, 1.008338275122785e+04
183, -2.500000000000000e-04, 3.700000000009415e-03, 1.984867694963116e-04, 1.673687284524024e-05, 2.751283559063385e+03, 1.295366698747928e+04, 1.024917818963538e+03, 1.040626992552716e+04
184, -2.500000000000000e-04, 3.600000000009160e-03, 1.892104741801788e-04, 1.678226903721803e-05, 2.834835244007925e+03, 1.336563522013285e+04, 1.040265992649325e+03, 1.073435426464971e+04
185, -2.500000000000000e-04, 3.500000000009170e-03, 1.800876237693825e-04, 1.680145024506468e-05, 2.919471330980784e+03, 1.378428373265005e+04, 1.054566073609836e+03, 1.106763691751323e+04
186, -2.500000000000000e-04, 3.400000000009196e-03, 1.711231056523682e-04, 1.679402785061878e-05, 3.005189601555137e+03, 1.420962045697405e+04, 1.067736975980173e+03, 1.140611764770838e+04
187, -2.500000000000000e-04, 3.300000000009092e-03, 1.623218874829095e-04, 1.675962957121014e-05, 3.091985002979455e+03, 1.464164911351436e+04, 1.079694164609319e+03, 1.174979570131089e+04
188, -2.500000000000000e-04, 3.200000000008720e-03, 1.536890174046912e-04, 1.669790070302661e-05, 3.179846797376297e+03, 1.508036787856530e+04, 1.090350372994783e+03, 1.209867173483863e+04
189, -2.500000000000000e-04, 3.100000000008311e-03, 1.452296239681477e-04, 1.660850536789642e-05, 3.268768068861933e+03, 1.552577705969815e+04, 1.099616395547618e+03, 1.245274645493388e+04
190, -2.500000000000000e-04, 3.000000000007901e-03, 1.369489161801296e-04, 1.649112782705137e-05, 3.358747536965946e+03, 1.597787982153045e+04, 1.107400077595977e+03, 1.281201933118962e+04
191, -2.500000000000000e-04, 2.900000000007490e-03, 1.288521838066375e-04, 1.634547383785530e-05, 3.449781923871914e+03, 1.643667605365133e+04, 1.113605731670842e+03, 1.317649005010590e+04
192, -2.500000000000000e-04, 2.800000000007079e-03, 1.209447975463090e-04, 1.617127203422342e-05, 3.541862155124452e+03, 1.690215964782200e+04, 1.118135410913467e+03, 1.354616020435071e+04
193, -2.500000000000000e-04, 2.700000000006744e-03, 1.132322088020105e-04, 1.596827534535944e-05, 3.634990200655230e+03, 1.737433130238542e+04, 1.120889099146936e+03, 1.392102953807794e+04
194, -2.500000000000000e-04, 2.600000000006672e-03, 1.057199499459701e-04, 1.573626249987336e-05, 3.729171537201884e+03, 1.785319157149644e+04, 1.121762609647986e+03, 1.430109601879419e+04
195, -2.500000000000000e-04, 2.500000000006697e-03, 9.841363476319645e-05, 1.547503956281325e-05, 3.824398083456483e+03, 1.833872782706682e+04, 1.120648624762023e+03, 1.468636038189775e+04
196, -2.500000000000000e-04, 2.400000000006722e-03, 9.131895809110262e-05, 1.518444148053435e-05, 3.920674003382057e+03, 1.883093572200054e+04, 1.117437601639531e+03, 1.507682233403085e+04
197, -2.500000000000000e-04, 2.300000000006651e-03, 8.444169603576224e-05, 1.486433366064249e-05, 4.018003132761344e+03, 1.932980736572157e+04, 1.112016888174828e+03, 1.547248122011602e+04
198, -2.500000000000000e-04, 2.200000000006315e-03, 7.778770609064196e-05, 1.451461368180049e-05, 4.116388225880566e+03, 1.983533135125590e+04, 1.104270329272441e+03, 1.587333691506706e+04
199, -2.500000000000000e-04, 2.100000000005904e-03, 7.136292708031167e-05, 1.413521293054450e-05, 4.215838290389533e+03, 2.034749825586114e+04, 1.094079236828805e+03, 1.627938852498579e+04
200, -2.500000000000000e-04, 2.000000000005494e-03, 6.517337934454953e-05, 1.372609839884711e-05, 4.316359625510577e+03, 2.086629273407925e+04, 1.081321289358117e+03, 1.669063536302240e+04
201, -2.500000000000000e-04, 1.900000000005083e-03, 5.922516468700226e-05, 1.328727445719779e-05, 4.417962843482799e+03, 2.139169962706900e+04, 1.065871146683116e+03, 1.710707647740530e+04
202, -2.500000000000000e-04, 1.800000000004675e-03, 5.352446644838372e-05, 1.281878469929861e-05, 4.520658330535704e+03, 2.192370011099573e+04, 1.047600279647372e+03, 1.752871154980041e+04
203, -2.500000000000000e-04, 1.700000000004264e-03, 4.807754942230412e-05, 1.232071380724213e-05, 4.624461215378311e+03, 2.246227459530703e+04, 1.026377420889358e+03, 1.795553921823597e+04
204, -2.500000000000000e-04, 1.600000000003854e-03, 4.289075991602260e-05, 1.179318954867495e-05, 4.729387017245314e+03, 2.300739936513565e+04, 1.002067435078287e+03, 1.838755807516074e+04
205, -2.500000000000000e-04, 1.500000000003443e-03, 3.797052568729300e-05, 1.123638472181954e-05, 4.835454353836692e+03, 2.355904922206584e+04, 9.745322712377001e+02, 1.882476712685476e+04
206, -2.500000000000000e-04, 1.400000000003032e-03, 3.332335589446054e-05, 1.065051919387641e-05, 4.942684826521875e+03, 2.411719642600997e+04, 9.436305896888928e+02, 1.926716507008984e+04
207, -2.500000000000000e-04, 1.300000000002622e-03, 2.895584106721350e-05, 1.003586199584504e-05, 5.051101388130748e+03, 2.468180897923272e+04, 9.092177104496005e+02, 1.971475051597989e+04
208, -2.500000000000000e-04, 1.200000000002211e-03, 2.487465298201170e-05, 9.392733471588723e-06, 5.160733431211211e+03, 2.525285541167132e+04, 8.711458831987919e+02, 2.016752206585988e+04
209, -2.500000000000000e-04, 1.100000000002113e-03, 2.108654452121529e-05, 8.721507410466178e-06, 5.271629464392998e+03, 2.583032155862732e+04, 8.292656358326591e+02, 2.062548294233676e+04
210, -2.500000000000000e-04, 1.000000000002544e-03, 1.759834960454383e-05, 8.022612814654423e-06, 5.383897519543822e+03, 2.641427063172342e+04, 7.834297715878416e+02, 2.108866145741657e+04
211, -2.500000000000000e-04, 9.000000000030026e-04, 1.441698406913820e-05, 7.296534163694047e-06, 5.497746729575697e+03, 2.700493303158063e+04, 7.335021028898962e+02, 2.155716038741940e+04
212, -2.500000000000000e-04, 8.000000000032027e-04, 1.154945086642461e-05, 6.543809176658795e-06, 5.613421421328152e+03, 2.760267190936344e+04, 6.793396529706283e+02, 2.203118577112801e+04
213, -2.500000000000000e-04, 7.000000000028719e-04, 9.002859082896373e-06, 5.765027582788991e-06, 5.729865451932468e+03, 2.820626347987343e+04, 6.206850517810390e+02, 2.251065232383207e+04
214, -2.500000000000000e-04, 6.000000000024631e-04, 6.784464508062318e-06, 4.960873014995214e-06, 5.841309029155058e+03, 2.880725307846983e+04, 5.564710363707263e+02, 2.299289512291862e+04
215, -2.500000000000000e-04, 5.000000000020526e-04, 4.901713608967916e-06, 4.132324917429613e-06, 5.916851666994234e+03, 2.936095349442893e+04, 4.837846081983614e+02, 2.346405976559993e+04
216, -2.500000000000000e-04, 4.000000000016421e-04, 3.361943443863443e-06, 3.281569816716542e-06, 5.891564165332287e+03, 2.975625553184320e+04, 3.909888432278118e+02, 2.387749951567238e+04
217, -2.500000000000000e-04, 3.000000000012316e-04, 2.170841094158327e-06, 2.413838839464967e-06, 5.389200607276360e+03, 2.948363800185725e+04, 2.752961688411110e+02, 2.410072748453233e+04
218, -2.500000000000000e-04, 2.000000000008210e-04, 1.321401848193894e-06, 1.545683988283283e-06, 5.059862575573182e+03, 2.905720454179322e+04, 7.155418230230850e+01, 2.399776867643584e+04
219, -2.500000000000000e-04, 1.000000000004105e-04, 7.693054138040110e-07, 6.839429357781343e-07, -2.605916331886806e+03, 2.011221440768566e+04, 1.761282943343563e+03, 2.298960492758323e+04
220, -1.999999999998928e-04, 9.899999999999593e-03, 9.222019725310534e-04, -2.398807058922515e-05, -2.306192408584209e+00, 5.441083180947351e+01, 5.039635380081278e+00, 5.760566408963977e+01
221, -1.499999999997670e-04, 9.899999999999591e-03, 9.218102724345490e-04, -3.022788107753332e-05, 5.785592706042655e-01, 4.981491055229083e+01, 1.077494283680499e+01, 5.374584504944823e+01
222, -9.999999999959327e-05, 9.899999999999591e-03, 9.214187225756829e-04, -3.646740974830126e-05, 4.439644641987941e+00, 4.314347730597044e+01, 1.446477130766464e+01, 4.832085573345852e+01
223, -4.999999999946756e-05, 9.899999999999593e-03, 9.210273473672286e-04, -4.270668214506620e-05, 8.237655325305628e+00, 3.606688070949870e+01, 1.692098332956136e+01, 4.381488894019235e+01
224, 6.282680539010377e-16, 9.899999999999593e-03, 9.206361389181199e-04, -4.894576759342682e-05, 1.115730552311106e+01, 2.893783653074336e+01, 1.785903842402696e+01, 3.989897613519499e+01
225, 5.000000000046569e-05, 9.899999999999590e-03, 9.202450795662056e-04, -5.518476422332060e-05, 1.324566092596981e+01, 2.223835663857157e+01, 1.715056531129039e+01, 3.546034599615174e+01
226, 1.000000000003380e-04, 9.899999999999590e-03, 9.198541470495387e-04, -6.142377859117956e-05, 1.458504821823946e+01, 1.638039283045719e+01, 1.487357945890556e+01, 2.980128732048547e+01
227, 1.500000000001929e-04, 9.899999999999593e-03, 9.194633135921311e-04, -6.766291129408219e-05, 1.522345504896862e+01, 1.187178402718984e+01, 1.124244244087904e+01, 2.273331798889341e+01
228, 2.000000000000797e-04, 9.899999999999593e-03, 9.190725437556242e-04, -7.390224833847915e-05, 1.492733759978472e+01, 9.071751020779391e+00, 6.626168143228824e+00, 1.448835088040007e+01
229, -1.999999999998947e-04, 9.799999999999184e-03, 9.097217018153877e-04, -2.320844727479482e-05, 1.557007340529514e+00, 7.095262623060333e+01, 9.379087233326803e+00, 7.188616717044931e+01
230, -1.499999999997712e-04, 9.799999999999181e-03, 9.093298964263943e-04, -2.944799657976153e-05, 5.716519068814003e+00, 6.139590925019070e+01, 1.628927996453275e+01, 6.451013143702080e+01
231, -9.999999999960086e-05, 9.799999999999184e-03, 9.089382964152027e-04, -3.568717804685954e-05, 8.339391968736305e+00, 4.954120600714842e+01, 2.110987314745365e+01, 5.899234236121017e+01
232, -4.999999999947776e-05, 9.799999999999184e-03, 9.085469112853666e-04, -4.192609279911012e-05, 1.133905382862720e+01, 3.829308617133720e+01, 2.395975004434144e+01, 5.497998134122214e+01
233, 6.154473632113966e-16, 9.799999999999184e-03, 9.081557337039972e-04, -4.816483760643063e-05, 1.421034741426537e+01, 2.804001698807120e+01, 2.484341276079779e+01, 5.157557940473507e+01
234, 5.000000000045551e-05, 9.799999999999184e-03, 9.077647444192169e-04, -5.440352000063418e-05, 1.644656058061981e+01, 1.882445672060521e+01, 2.365887286683185e+01, 4.737745720665269e+01
235, 1.000000000003303e-04, 9.799999999999184e-03, 9.073739171420244e-04, -6.064225409126074e-05, 1.777241081973025e+01, 1.075676981001190e+01, 2.040202381470338e+01, 4.140277190865532e+01
236, 1.500000000001885e-04, 9.799999999999188e-03, 9.069832195205318e-04, -6.688115353102779e-05, 1.797066870616499e+01, 4.043507963938128e+00, 1.519122621423568e+01, 3.342243590626138e+01
237, 2.000000000000778e-04, 9.799999999999188e-03, 9.065926112571985e-04, -7.312032502475364e-05, 1.658015856579913e+01, -1.120036904901887e+00, 8.205036418630550e+00, 2.413684756187601e+01
238, -1.999999999998966e-04, 9.699999999999027e-03, 8.972416002735434e-04, -2.242943554114198e-05, 3.717687837150377e+00, 8.997416652453562e+01, 1.465923143445812e+01, 9.110297679298610e+01
239, -1.499999999997756e-04, 9.699999999998999e-03, 8.968496113809678e-04, -2.866854847987807e-05, 7.197165793151727e+00, 7.466415487662476e+01, 2.241924224679459e+01, 8.100792743720399e+01
240, -9.999999999960846e-05, 9.699999999998973e-03, 8.964578966800370e-04, -3.490725819252684e-05, 1.061163144138998e+01, 5.903576805826444e+01, 2.776860228320133e+01, 7.368363521257741e+01
241, -4.999999999948794e-05, 9.699999999998947e-03, 8.960664575514693e-04, -4.114568270138987e-05, 1.359801266336818e+01, 4.341338321034127e+01, 3.065758193305508e+01, 6.817995043105599e+01
242, 6.026266725217555e-16, 9.699999999998920e-03, 8.956752862167906e-04, -4.738394576186033e-05, 1.621151305948069e+01, 2.854569208466930e+01, 3.107386221860044e+01, 6.335985815125897e+01
243, 5.000000000044535e-05, 9.699999999998892e-03, 8.952843644889975e-04, -5.362217308743728e-05, 1.816593092846342e+01, 1.477059786007019e+01, 2.901702933236103e+01, 5.813329727226666e+01
244, 1.000000000003228e-04, 9.699999999998864e-03, 8.948936649554685e-04, -5.986049315067827e-05, 1.915087462514590e+01, 2.323739005930212e+00, 2.450177264813980e+01, 5.181216020155890e+01
245, 1.500000000001842e-04, 9.699999999998836e-03, 8.945031516999129e-04, -6.609903526898393e-05, 1.888004197842532e+01, -8.531503964767337e+00, 1.758068898209815e+01, 4.458380144555679e+01
246, 2.000000000000759e-04, 9.699999999998809e-03, 8.941127794111700e-04, -7.233792854714828e-05, 1.718368731026379e+01, -1.733484547902674e+01, 8.324795669346013e+00, 3.832411770244391e+01
247, -1.999999999998985e-04, 9.599999999999352e-03, 8.847619156529456e-04, -2.165122470981710e-05, 5.049840581477328e+00, 1.124767231309030e+02, 2.039922800311157e+01, 1.149132242467325e+02
248, -1.499999999997800e-04, 9.599999999999241e-03, 8.843697033019478e-04, -2.788973513179647e-05, 8.474354660368245e+00, 9.158668090616069e+01, 2.895650241769915e+01, 1.012994318989594e+02
249, -9.999999999961608e-05, 9.599999999999132e-03, 8.839778420789848e-04, -3.412780215173845e-05, 1.190216286622544e+01, 7.045571942164844e+01, 3.458908663135070e+01, 9.063188534535435e+01
250, -4.999999999949810e-05, 9.599999999999024e-03, 8.835863346248530e-04, -4.036556654355814e-05, 1.500654761420887e+01, 4.951649476029729e+01, 3.729782340403018e+01, 8.219152617355817e+01
251, 5.898059818321144e-16, 9.599999999998917e-03, 8.831951722110711e-04, -4.660317231717867e-05, 1.750531449033191e+01, 2.916992608849770e+01, 3.708651795835145e+01, 7.508463505163066e+01
252, 5.000000000043517e-05, 9.599999999998809e-03, 8.828043360675898e-04, -5.284076580255592e-05, 1.919694014900235e+01, 9.860642648198612e+00, 3.397498572050713e+01, 6.858837415960643e+01
253, 1.000000000003152e-04, 9.599999999998698e-03, 8.824137976069596e-04, -5.907849442135170e-05, 1.983896881924596e+01, -8.036114615528216e+00, 2.799674404237077e+01, 6.254830920489949e+01
254, 1.500000000001798e-04, 9.599999999998591e-03, 8.820235186961896e-04, -6.531650644581695e-05, 1.921521737045900e+01, -2.413608087077100e+01, 1.919493460631805e+01, 5.790610604559226e+01
255, 2.000000000000740e-04, 9.599999999998483e-03, 8.816334519643310e-04, -7.155495055380807e-05, 1.715509226764052e+01, -3.801891078235291e+01, 7.614471433578125e+00, 5.723714976666635e+01
256, -1.999999999999004e-04, 9.499999999999719e-03, 8.722829809326453e-04, -2.087399512704474e-05, 5.938769113504264e+00, 1.384818118369115e+02, 2.646500519398025e+01, 1.427208610331670e+02
257, -1.499999999997843e-04, 9.499999999999528e-03, 8.718905190931681e-04, -2.711171000235474e-05, 9.582236797000105e+00, 1.112743599214226e+02, 3.574650912847939e+01, 1.243082441555770e+02
258, -9.999999999962368e-05, 9.499999999999330e-03, 8.714985007499111e-04, -3.334893437016175e-05, 1.307125535984402e+01, 8.374437720552274e+01, 4.157955166625236e+01, 1.091335265556847e+02
259, -4.999999999950831e-05, 9.499999999999136e-03, 8.711069280980725e-04, -3.958583380909941e-05, 1.615115815586018e+01, 5.639246470500302e+01, 4.400181745682649e+01, 9.676777620053903e+01
260, 5.769988436696294e-16, 9.499999999998942e-03, 8.707157920322046e-04, -4.582257483913209e-05, 1.856116502804912e+01, 2.966579285289332e+01, 4.304952202538315e+01, 8.681220044201218e+01
261, 5.000000000042495e-05, 9.499999999998747e-03, 8.703250727391797e-04, -5.205932491711230e-05, 2.005634097866032e+01, 3.989509387260061e+00, 3.876204980587769e+01, 7.917151696159289e+01
262, 1.000000000003075e-04, 9.499999999998551e-03, 8.699347402437622e-04, -5.829625211720500e-05, 2.042051282999632e+01, -2.020881404040757e+01, 3.118597412503821e+01, 7.443790788605180e+01
263, 1.500000000001755e-04, 9.499999999998359e-03, 8.695447547612784e-04, -6.453352465715363e-05, 1.944865370556356e+01, -4.251459753569705e+01, 2.037539422954311e+01, 7.416246533405412e+01
264, 2.000000000000721e-04, 9.499999999998164e-03, 8.691550670722124e-04, -7.077131052413585e-05, 1.696365762134609e+01, -6.251557672978216e+01, 6.396026985578203e+00, 8.050208281679761e+01
265, -1.999999999999023e-04, 9.400000000000087e-03, 8.598052099918716e-04, -2.009793296269335e-05, 6.579010163409304e+00, 1.679931090582247e+02, 3.286943230618118e+01, 1.742874339777476e+02
266, -1.499999999997887e-04, 9.399999999999811e-03, 8.594124806600927e-04, -2.633462137844033e-05, 1.051454552684494e+01, 1.334561313362250e+02, 4.278560920075430e+01, 1.497900762401964e+02
267, -9.999999999963125e-05, 9.399999999999530e-03, 8.590203028532565e-04, -3.257076971753951e-05, 1.416073268964424e+01, 9.861765269428895e+01, 4.874147480617421e+01, 1.289802186453202e+02
268, -4.999999999951849e-05, 9.399999999999249e-03, 8.586286772800004e-04, -3.880656776300727e-05, 1.726527520245082e+01, 6.395618582322066e+01, 5.080184259684209e+01, 1.118183794352878e+02
269, 5.641646004528322e-16, 9.399999999998968e-03, 8.582375935157871e-04, -4.504220522296522e-05, 1.959291025025872e+01, 2.994382515406941e+01, 4.902431811896686e+01, 9.859349120233334e+01
270, 5.000000000041476e-05, 9.399999999998687e-03, 8.578470303537600e-04, -5.127787175853226e-05, 2.091245961099715e+01, -2.966748040764479e+00, 4.346655305838770e+01, 9.015310031932613e+01
271, 1.000000000003000e-04, 9.399999999998406e-03, 8.574569561440422e-04, -5.751375684367674e-05, 2.100111946973850e+01, -3.433708851673600e+01, 3.419021175870721e+01, 8.796703691483120e+01
272, 1.500000000001711e-04, 9.399999999998125e-03, 8.570673291259510e-04, -6.375004946790055e-05, 1.964757731194806e+01, -6.373851027862885e+01, 2.126463450534435e+01, 9.360543961889657e+01
273, 2.000000000000702e-04, 9.399999999997844e-03, 8.566780977393774e-04, -6.998693761963348e-05, 1.663695923368465e+01, -9.076462241709906e+01, 4.769820733187025e+00, 1.078244151405280e+02
274, -1.999999999999042e-04, 9.300000000000464e-03, 8.473290812061187e-04, -1.932322673219090e-05, 7.491715404273595e+00, 2.013426606127223e+02, 3.962814795678189e+01, 2.094271935545796e+02
275, -1.499999999997930e-04, 9.300000000000100e-03, 8.469360741990322e-04, -2.555862202636057e-05, 1.165554420600477e+01, 1.584032289053907e+02, 5.007844354719056e+01, 1.776690321836278e+02
276, -9.999999999963886e-05, 9.299999999999729e-03, 8.465437410354802e-04, -3.179342669510679e-05, 1.540049741831792e+01, 1.152159016163355e+02, 5.607947648745821e+01, 1.501424178826328e+02
277, -4.999999999952863e-05, 9.299999999999361e-03, 8.461520806041827e-04, -3.802785437831361e-05, 1.850563914403804e+01, 7.227266341670635e+01, 5.770514963581269e+01, 1.273201872332264e+02
278, 5.513303572360351e-16, 9.299999999998993e-03, 8.457610807344905e-04, -4.426211808048041e-05, 2.073571351950451e+01, 3.004383695804249e+01, 5.502580902734390e+01, 1.104445553135235e+02
279, 5.000000000040461e-05, 9.299999999998625e-03, 8.453707183912396e-04, -5.049643017668483e-05, 2.185918633269139e+01, -1.101036505814201e+01, 4.811237940915239e+01, 1.016838808183262e+02
280, 1.000000000002923e-04, 9.299999999998258e-03, 8.449809598935061e-04, -5.673100229152921e-05, 2.164894433458106e+01, -5.044006283756109e+01, 3.703920250997794e+01, 1.033655408991110e+02
281, 1.500000000001668e-04, 9.299999999997890e-03, 8.445917611262215e-04, -6.296604505497041e-05, 1.988087894960110e+01, -8.780596321526453e+01, 2.188666383153407e+01, 1.162435382726240e+02
282, 2.000000000000683e-04, 9.299999999997520e-03, 8.442030677025001e-04, -6.920176777517742e-05, 1.633564257194279e+01, -1.226745541590844e+02, 2.743565579855703e+00, 1.391184509817543e+02
283, -1.999999999999061e-04, 9.200000000000841e-03, 8.348551519115537e-04, -1.855007486633190e-05, 8.238949769888553e+00, 2.381735124082192e+02, 4.678951960345758e+01, 2.482477385084701e+02
284, -1.499999999997973e-04, 9.200000000000397e-03, 8.344618586322274e-04, -2.478387475504920e-05, 1.269138442812245e+01, 1.858845874729512e+02, 5.767030782461079e+01, 2.080849422694221e+02
285, -9.999999999964642e-05, 9.199999999999951e-03, 8.340693764302043e-04, -3.101703355990752e-05, 1.660626779880179e+01, 1.334246104505087e+02, 6.362738259907189e+01, 1.727434526849753e+02
286, -4.999999999953884e-05, 9.199999999999505e-03, 8.336777018762361e-04, -3.724978849288027e-05, 1.975649682908195e+01, 8.127817857877288e+01, 6.473360572613021e+01, 1.433411181989821e+02
287, 5.385367716007061e-16, 9.199999999999058e-03, 8.332868205401329e-04, -4.348237591014547e-05, 2.191344404054233e+01, 2.992185400191489e+01, 6.106634640284171e+01, 1.223949724542509e+02
288, 5.000000000039439e-05, 9.199999999998614e-03, 8.328967070772748e-04, -4.971503122529159e-05, 2.284755139899383e+01, -2.017622623596757e+01, 5.270483654338249e+01, 1.138518538375255e+02
289, 1.000000000002848e-04, 9.199999999998171e-03, 8.325073253448105e-04, -5.594798877666972e-05, 2.233015760298266e+01, -6.855516494443584e+01, 3.973150915975619e+01, 1.207249482708337e+02
290, 1.500000000001625e-04, 9.199999999997726e-03, 8.321186285084500e-04, -6.218148164541475e-05, 2.013408896266048e+01, -1.147597551145621e+02, 2.223356903906257e+01, 1.420340647126213e+02
291, 2.000000000000664e-04, 9.199999999997280e-03, 8.317305591249383e-04, -6.841574141427430e-05, 1.603366181518026e+01, -1.583385262743136e+02, 3.044875159071845e-01, 1.743732514742648e+02
292, -1.999999999999080e-04, 9.100000000001274e-03, 8.223840326999515e-04, -1.777868388415231e-05, 9.218220811196190e+00, 2.788021488243523e+02, 5.438475850614554e+01, 2.906996767698403e+02
293, -1.499999999998017e-04, 9.100000000000802e-03, 8.219904503815064e-04, -2.401055167566364e-05, 1.389189185033866e+01, 2.161356624191365e+02, 6.560277567759402e+01, 2.410755886445233e+02
294, -9.999999999965405e-05, 9.100000000000334e-03, 8.215978301993742e-04, -3.024172833664903e-05, 1.793635112783956e+01, 1.534060652220747e+02, 7.141644580825769e+01, 1.968585237278514e+02
295, -4.999999999954905e-05, 9.099999999999862e-03, 8.212061663635158e-04, -3.647247467697931e-05, 2.110773004735957e+01, 9.108631361560009e+01, 7.190596902055728e+01, 1.599339728805566e+02
296, 5.257025283839090e-16, 9.099999999999390e-03, 8.208154419884767e-04, -4.270305054067003e-05, 2.317249765719089e+01, 2.965288694004219e+01, 6.715252068596433e+01, 1.344612939963496e+02
297, 5.000000000038422e-05, 9.099999999998916e-03, 8.204256291793296e-04, -4.893371465560555e-05, 2.389886052263986e+01, -3.042121646829790e+01, 5.723990694318083e+01, 1.267134505558009e+02
298, 1.000000000002772e-04, 9.099999999998446e-03, 8.200366890974361e-04, -5.516472451495065e-05, 2.305577293636840e+01, -8.866667899617705e+01, 4.225485693536520e+01, 1.400849670890230e+02
299, 1.500000000001581e-04, 9.099999999997978e-03, 8.196485720126823e-04, -6.139633623507362e-05, 2.041244685054808e+01, -1.446172820763787e+02, 2.228779311083779e+01, 1.709438338071922e+02
300, 2.000000000000645e-04, 9.099999999997506e-03, 8.192612173302248e-04, -6.762880439106344e-05, 1.573737778710436e+01, -1.978090662317528e+02, -2.566179182894214e+00, 2.136081104628140e+02
301, -1.999999999999099e-04, 9.000000000001736e-03, 8.099164049259644e-04, -1.700926822862180e-05, 1.032770873887665e+01, 3.231790149185703e+02, 6.240534775993024e+01, 3.368288133377127e+02
302, -1.499999999998060e-04, 9.000000000001264e-03, 8.095225343029098e-04, -2.323883370916123e-05, 1.522515081600405e+01, 2.491704918950991e+02, 7.386683257592911e+01, 2.766869321666917e+02
303, -9.999999999966160e-05, 9.000000000000792e-03, 8.091297907264034e-04, -2.946765841333662e-05, 1.937705404193973e+01, 1.751943011155765e+02, 7.944259831532523e+01, 2.225388060405808e+02
304, -4.999999999955923e-05, 9.000000000000320e-03, 8.087381659056241e-04, -3.569602706926721e-05, 2.254706998489795e+01, 1.017334200670369e+02, 7.921690426276706e+01, 1.771207207619613e+02
305, 5.128818376942679e-16, 8.999999999999852e-03, 8.083476403703538e-04, -4.192422321863960e-05, 2.449783302003042e+01, 2.926576846510689e+01, 7.327484050661381e+01, 1.466272219387900e+02
306, 5.000000000037403e-05, 8.999999999999380e-03, 8.079581835335771e-04, -4.815252917793438e-05, 2.499444079851687e+01, -4.173159047499891e+01, 6.170309678142497e+01, 1.402905979001650e+02
307, 1.000000000002695e-04, 8.999999999998908e-03, 8.075697537324276e-04, -5.438122594659774e-05, 2.380289824581003e+01, -1.107831275075184e+02, 4.459072388076212e+01, 1.614519400717039e+02
308, 1.500000000001538e-04, 8.999999999998436e-03, 8.071822982525697e-04, -6.061059310553629e-05, 2.068940182336086e+01, -1.774145598275455e+02, 2.202950900422155e+01, 2.029442699108602e+02
309, 2.000000000000626e-04, 8.999999999997964e-03, 8.067957533331465e-04, -6.684090870835032e-05, 1.541903607228182e+01, -2.411525512594742e+02, -5.885968039026215e+00, 2.568415034704529e+02
310, -1.999999999999118e-04, 8.900000000002187e-03, 7.974530191389064e-04, -1.624205384763171e-05, 1.150185399322482e+01, 3.713209819731979e+02, 7.086512654958554e+01, 3.867263496373415e+02
311, -1.499999999998104e-04, 8.900000000001712e-03, 7.970588637696198e-04, -2.246891244751473e-05, 1.662299176152444e+01, 2.849959698718886e+02, 8.246953442012278e+01, 3.150062726513764e+02
312, -9.999999999966923e-05, 8.900000000001240e-03, 7.966660144152280e-04, -2.869498157812096e-05, 2.088137422797052e+01, 1.988084610876194e+02, 8.770659399118000e+01, 2.498556278263426e+02
313, -4.999999999956943e-05, 8.900000000000770e-03, 7.962744601070823e-04, -3.492056992239791e-05, 2.403982633461224e+01, 1.132415935185603e+02, 8.666265733954921e+01, 1.949323471806251e+02
314, 5.000475944774707e-16, 8.900000000000293e-03, 7.958841786632621e-04, -4.114598491249508e-05, 2.586220416339449e+01, 2.877847791535378e+01, 7.942477140133887e+01, 1.588763100692363e+02
315, 5.000000000036387e-05, 8.899999999999823e-03, 7.954951367016138e-04, -4.737153268761653e-05, 2.611210676056129e+01, -5.409926589733335e+01, 6.608137022431478e+01, 1.545990112082075e+02
316, 1.000000000002620e-04, 8.899999999999349e-03, 7.951072896561772e-04, -5.359751803302167e-05, 2.455353332451547e+01, -1.349106874854026e+02, 4.672273019834405e+01, 1.848266533464893e+02
317, 1.500000000001494e-04, 8.899999999998874e-03, 7.947205817870154e-04, -5.982424430350102e-05, 2.095073096916105e+01, -2.131752092444217e+02, 2.144119109361307e+01, 2.380207020049841e+02
318, 2.000000000000606e-04, 8.899999999998404e-03, 7.943349461814029e-04, -6.605201334998298e-05, 1.506867026165156e+01, -2.884116556035531e+02, -9.668950888925659e+00, 3.040958115996020e+02
319, -1.999999999999137e-04, 8.800000000002590e-03, 7.849946923186568e-04, -1.547727722733547e-05, 1.276019483296022e+01, 4.232975057185324e+02, 7.977880378080977e+01, 4.404537589349701e+02
320, -1.499999999998147e-04, 8.800000000002060e-03, 7.846002592077061e-04, -2.170099008540346e-05, 1.809037855688652e+01, 3.236720833356046e+02, 9.142081086651268e+01, 3.561056541722278e+02
321, -9.999999999967683e-05, 8.800000000001532e-03, 7.842073250701196e-04, -2.792386592788345e-05, 2.244028675424420e+01, 2.242918617879351e+02, 9.621369897031047e+01, 2.788769653839840e+02
322, -4.999999999957961e-05, 8.800000000001001e-03, 7.838158762249030e-04, -3.414623745569290e-05, 2.557408143006184e+01, 1.256435855206081e+02, 9.424393875482670e+01, 2.134047460039771e+02
323, 4.872540088421418e-16, 8.800000000000474e-03, 7.834258877196977e-04, -4.036843612440782e-05, 2.725433732078403e+01, 2.821330398629653e+01, 8.559909315241936e+01, 1.712008721097291e+02
324, 5.000000000035368e-05, 8.799999999999947e-03, 7.830373233259008e-04, -4.659079209032817e-05, 2.724338139555982e+01, -6.751318594053753e+01, 7.036829102399777e+01, 1.696631739060440e+02
325, 1.000000000002544e-04, 8.799999999999419e-03, 7.826501355390455e-04, -5.281363414735028e-05, 2.530348901286390e+01, -1.610504267020307e+02, 4.864241303112447e+01, 2.102192172096454e+02
326, 1.500000000001451e-04, 8.799999999998892e-03, 7.822642655818986e-04, -5.903728965833266e-05, 2.119735814684893e+01, -2.519128984047821e+02, 2.051420723120799e+01, 2.761748414084772e+02
327, 2.000000000000587e-04, 8.799999999998365e-03, 7.818796434092119e-04, -6.526208448277010e-05, 1.468868133102604e+01, -3.396146214725451e+02, -1.392166810575786e+01, 3.553956692883391e+02
328, -1.999999999999156e-04, 8.700000000002964e-03, 7.725423095201534e-04, -1.471518505401989e-05, 1.406173551931242e+01, 4.791201783903421e+02, 8.915797083941486e+01, 4.980722139835092e+02
329, -1.499999999998191e-04, 8.700000000002345e-03, 7.721476089548330e-04, -2.093527900509302e-05, 1.959199138223515e+01, 3.652138776043489e+02, 1.007311054706165e+02, 4.000518849762634e+02
330, -9.999999999968445e-05, 8.700000000001731e-03, 7.717546144216103e-04, -2.715448956775600e-05, 2.402623838221623e+01, 2.516612535866164e+02, 1.049720103804459e+02, 3.096678736975426e+02
331, -4.999999999958977e-05, 8.700000000001117e-03, 7.713633095133615e-04, -3.337317357089770e-05, 2.712704975362997e+01, 1.389524148838139e+02, 1.019658662006626e+02, 2.325791559162271e+02
332, 4.743926605710325e-16, 8.700000000000502e-03, 7.709736664785585e-04, -3.959168663876366e-05, 2.865576904508588e+01, 2.757721054383500e+01, 9.180010432258153e+01, 1.836033766110744e+02
333, 5.000000000034347e-05, 8.699999999999888e-03, 7.705856462086026e-04, -4.581038311641851e-05, 2.837319457100561e+01, -8.197472966275640e+01, 7.456404353256507e+01, 1.855150957049186e+02
334, 1.000000000002468e-04, 8.699999999999274e-03, 7.701991982349735e-04, -5.202961599538860e-05, 2.604010846957369e+01, -1.892138146002256e+02, 5.034886949624075e+01, 2.376431905928234e+02
335, 1.500000000001407e-04, 8.699999999998657e-03, 7.698142607296495e-04, -5.824973684071990e-05, 2.141738316314125e+01, -2.936505407299892e+02, 1.924766036615209e+01, 3.174109109413386e+02
336, 2.000000000000568e-04, 8.699999999998044e-03, 7.694307605070983e-04, -6.447109571463479e-05, 1.426613311197334e+01, -3.947954495253088e+02, -1.864443504361708e+01, 4.107576392741839e+02
337, -1.999999999999175e-04, 8.600000000003331e-03, 7.600968225844809e-04, -1.395603383468485e-05, 1.541416748905486e+01, 5.388309618129457e+02, 9.901220698823421e+01, 5.596238103503299e+02
338, -1.499999999998235e-04, 8.600000000002632e-03, 7.597018685501885e-04, -2.017200132029531e-05, 2.113001022635143e+01, 4.096541782453337e+02, 1.104111439336333e+02, 4.468931773408231e+02
339, -9.999999999969208e-05, 8.600000000001931e-03, 7.593088417539359e-04, -2.638704015963003e-05, 2.563700358725952e+01, 2.809408316406606e+02, 1.139905025396396e+02, 3.422796857771125e+02
340, -4.999999999959999e-05, 8.600000000001230e-03, 7.589177230781345e-04, -3.260153148023421e-05, 2.869395373804075e+01, 1.531841396619895e+02, 1.098351105437406e+02, 2.524931928270586e+02
341, 4.615584173542353e-16, 8.600000000000526e-03, 7.585284819605882e-04, -3.881585524953092e-05, 3.005959274955787e+01, 2.687729732891582e+01, 9.803219043072038e+01, 1.960902048719526e+02
342, 5.000000000033329e-05, 8.599999999999825e-03, 7.581410763947407e-04, -4.503039017492496e-05, 2.949283264967931e+01, -9.748634056650062e+01, 7.867112677423374e+01, 2.021887612662357e+02
343, 1.000000000002392e-04, 8.599999999999124e-03, 7.577554529289011e-04, -5.124551362286858e-05, 2.675263550999174e+01, -2.194134280496055e+02, 5.184326534370919e+01, 2.671116386352729e+02
344, 1.500000000001364e-04, 8.599999999998423e-03, 7.573715466670362e-04, -5.746160154160357e-05, 2.159800606402711e+01, -3.384106669773770e+02, 1.764184950228466e+01, 3.617335816322251e+02
345, 2.000000000000548e-04, 8.599999999997722e-03, 7.569892812688078e-04, -6.367902838847470e-05, 1.378723541114058e+01, -4.539853683671976e+02, -2.383798697561346e+01, 4.701959244163694e+02
346, -1.999999999999195e-04, 8.500000000003703e-03, 7.476592512011026e-04, -1.320008947063419e-05, 1.681770639639385e+01, 6.024563780718189e+02, 1.093471991841156e+02, 6.251398992540780e+02
347, -1.499999999998278e-04, 8.500000000002915e-03, 7.472640615560491e-04, -1.941138840185243e-05, 2.270930594859858e+01, 4.570174351505510e+02, 1.204662085008872e+02, 4.966608306009410e+02
348, -9.999999999969967e-05, 8.500000000002127e-03, 7.468710345950964e-04, -2.562171445661958e-05, 2.727792124140097e+01, 3.121505993505485e+02, 1.232738720377591e+02, 3.767469082047061e+02
349, -4.999999999961013e-05, 8.500000000001340e-03, 7.464801484807709e-04, -3.183147330449503e-05, 3.027854643215299e+01, 1.683523928011531e+02, 1.178551992884463e+02, 2.731735328475434e+02
350, 4.487512791917503e-16, 8.500000000000552e-03, 7.460913698350476e-04, -3.804106944754659e-05, 3.146789433497283e+01, 2.612010053653657e+01, 1.042976017749724e+02, 2.086637434787210e+02
351, 5.000000000032310e-05, 8.499999999999765e-03, 7.457046537447139e-04, -4.425090613891520e-05, 3.060284850738914e+01, -1.140491571092529e+02, 8.269051792984627e+01, 2.197159296704314e+02
352, 1.000000000002316e-04, 8.499999999998977e-03, 7.453199437655330e-04, -5.046138529872544e-05, 2.744047288052681e+01, -2.516582835677095e+02, 5.312536502934861e+01, 2.986391358964161e+02
353, 1.500000000001320e-04, 8.499999999998190e-03, 7.449371719242353e-04, -5.667290743716868e-05, 2.173798343019676e+01, -3.862101557733059e+02, 1.569545248870057e+01, 4.091540946818211e+02
354, 2.000000000000531e-04, 8.499999999997402e-03, 7.445562587202999e-04, -6.288587158165732e-05, 1.325298348861726e+01, -5.172073500732578e+02, -2.950426768291679e+01, 5.337323043704554e+02
355, -1.999999999999213e-04, 8.400000000004074e-03, 7.352306837952413e-04, -1.244762706775627e-05, 1.831395987354688e+01, 6.700612949220460e+02, 1.201581573622499e+02, 6.946412886271485e+02
356, -1.499999999998322e-04, 8.400000000003200e-03, 7.348352804919313e-04, -1.865368057956563e-05, 2.436086566067468e+01, 5.073510989378693e+02, 1.308931597824611e+02, 5.493738640966700e+02
357, -9.999999999970726e-05, 8.400000000002326e-03, 7.344422895840229e-04, -2.485871802164688e-05, 2.897019778432747e+01, 3.453230203050101e+02, 1.328198873400284e+02, 4.130903027291659e+02
358, -4.999999999962035e-05, 8.400000000001451e-03, 7.340516865247553e-04, -3.106316980863898e-05, 3.189604609702815e+01, 1.844783611046798e+02, 1.260246712671376e+02, 2.946357648437382e+02
359, 4.359305885021092e-16, 8.400000000000581e-03, 7.336634351266568e-04, -3.726746518456729e-05, 3.289214799718975e+01, 2.531737398026727e+01, 1.105952744583187e+02, 2.213202117553902e+02
360, 5.000000000031294e-05, 8.399999999999703e-03, 7.332774875782731e-04, -4.347203213556319e-05, 3.171301485798650e+01, -1.316595411764294e+02, 8.662135641595658e+01, 2.381252393480773e+02
361, 1.000000000002240e-04, 8.399999999998832e-03, 7.328937844514584e-04, -4.967729731741504e-05, 2.811353687290365e+01, -2.859518772611553e+02, 5.419439935735026e+01, 3.322427065294494e+02
362, 1.500000000001277e-04, 8.399999999997958e-03, 7.325122547053515e-04, -5.588368598101650e-05, 2.184893054477100e+01, -4.370589415330498e+02, 1.340774334920716e+01, 4.596906627090291e+02
363, 2.000000000000511e-04, 8.399999999997083e-03, 7.321328156894333e-04, -6.209162189801391e-05, 1.267546628079538e+01, -5.844793221865232e+02, -3.564328015548691e+01, 6.013947248441892e+02
364, -1.999999999999233e-04, 8.300000000004210e-03, 7.228122801169293e-04, -1.169893143510812e-05, 1.985136145386649e+01, 7.416350633077411e+02, 1.314471678876656e+02, 7.681699968396549e+02
365, -1.499999999998365e-04, 8.300000000003279e-03, 7.224166887065548e-04, -1.789912752894916e-05, 2.605089469433404e+01, 5.606516432312217e+02, 1.416905669111553e+02, 6.050643166991580e+02
366, -9.999999999971485e-05, 8.300000000002344e-03, 7.220237738854317e-04, -2.409826542723396e-05, 3.069509926824279e+01, 3.804597902204324e+02, 1.426265675032117e+02, 4.513365596402240e+02
367, -4.999999999963053e-05, 8.300000000001409e-03, 7.216335083406520e-04, -3.029680050290956e-05, 3.353587077674205e+01, 2.015637923126887e+02, 1.343414607537065e+02, 3.168972936543461e+02
368, 4.231098978124681e-16, 8.300000000000474e-03, 7.212458530531859e-04, -3.649518691323234e-05, 3.432638576490353e+01, 2.446809224117986e+01, 1.169235730077578e+02, 2.340548517993202e+02
369, 5.000000000030276e-05, 8.299999999999542e-03, 7.208607573060665e-04, -4.269387755223237e-05, 3.281994656355322e+01, -1.503230790288395e+02, 9.046272219285456e+01, 2.574400595270716e+02
370, 1.000000000002164e-04, 8.299999999998609e-03, 7.204781586902131e-04, -4.889332398352268e-05, 2.876989842919190e+01, -3.223056031132830e+02, 5.505040481036862e+01, 3.679350432650336e+02
371, 1.500000000001233e-04, 8.299999999997672e-03, 7.200979831066443e-04, -5.509397637279695e-05, 2.192962798567617e+01, -4.909752515373091e+02, 1.077988076347135e+01, 5.133578077282809e+02
372, 2.000000000000492e-04, 8.299999999996739e-03, 7.197201447655040e-04, -6.129628341503290e-05, 1.205203062524994e+01, -6.558279887368045e+02, -4.225358184089195e+01, 6.732051551916385e+02
373, -1.999999999999252e-04, 8.200000000004194e-03, 7.104052694506876e-04, -1.095429678345422e-05, 2.149630743432654e+01, 8.172655754376267e+02, 1.432069790548907e+02, 8.457432726889525e+02
374, -1.499999999998408e-04, 8.200000000003217e-03, 7.100095196371348e-04, -1.714798805876459e-05, 2.782108307517613e+01, 6.169797157232417e+02, 1.528534070526758e+02, 6.637503676941974e+02
375, -9.999999999972244e-05, 8.200000000002240e-03, 7.096167250273369e-04, -2.334058019924706e-05, 3.247519649011423e+01, 4.175994539151846e+02, 1.526887960981323e+02, 4.915039852054101e+02
376, -4.999999999964069e-05, 8.200000000001265e-03, 7.092268555548668e-04, -2.953255364658415e-05, 3.520940329633582e+01, 2.196314596413049e+02, 1.428010637330282e+02, 3.399706900302502e+02
377, 4.102892071228270e-16, 8.200000000000287e-03, 7.088398693747986e-04, -3.572438763515202e-05, 3.577497519894133e+01, 2.358290734058736e+01, 1.232787184792247e+02, 2.468586969061096e+02
378, 5.000000000029257e-05, 8.199999999999309e-03, 7.084557128717126e-04, -4.191656012533463e-05, 3.392305867475378e+01, -1.700394769413714e+02, 9.421174452818863e+01, 2.776762992463308e+02
379, 1.000000000002088e-04, 8.199999999998328e-03, 7.080743206663573e-04, -4.810954774813913e-05, 2.940495897158171e+01, -3.607288248393014e+02, 5.569156573895839e+01, 4.057222834013727e+02
380, 1.500000000001190e-04, 8.199999999997352e-03, 7.076956156163497e-04, -5.430382574811609e-05, 2.197180444035443e+01, -5.479780884824462e+02, 7.811127138004103e+00, 5.701639547282659e+02
381, 2.000000000000473e-04, 8.199999999996377e-03, 7.073195088096058e-04, -6.049986792448280e-05, 1.137411402557368e+01, -7.312799344294968e+02, -4.933506804434828e+01, 7.491801061443558e+02
382, -1.999999999999271e-04, 8.100000000004175e-03, 6.980109541851566e-04, -1.021402698595556e-05, 2.317850945365910e+01, 8.969306521944295e+02, 1.554379100559937e+02, 9.274085305162922e+02
383, -1.499999999998452e-04, 8.100000000003150e-03, 6.976150791202031e-04, -1.640053044582358e-05, 2.962435643234286e+01, 6.763260045004919e+02, 1.643780659718335e+02, 7.254678600080239e+02
384, -9.999999999973005e-05, 8.100000000002133e-03, 6.972224525148347e-04, -2.258589502488775e-05, 3.427962674208175e+01, 4.567383216440212e+02, 1.630028118967410e+02, 5.336206664319021e+02
385, -4.999999999965090e-05, 8.100000000001112e-03, 6.968330415093635e-04, -2.877062640223035e-05, 3.689663872965791e+01, 2.386799220132740e+02, 1.513993409015258e+02, 3.638729656272664e+02
386, 3.974685164331859e-16, 8.100000000000092e-03, 6.964468014024032e-04, -3.495522902300905e-05, 3.722456394582759e+01, 2.265947917576415e+01, 1.296566067497133e+02, 2.597219366741252e+02
387, 5.000000000028236e-05, 8.099999999999071e-03, 6.960636756675424e-04, -4.114020605014362e-05, 3.501332109276824e+01, -1.908137898191681e+02, 9.786467248937515e+01, 2.988442077548813e+02
388, 1.000000000002012e-04, 8.099999999998051e-03, 6.956835959571730e-04, -4.732605932012585e-05, 3.001283736724792e+01, -4.012304041567235e+02, 5.611475256866466e+01, 4.456076695743377e+02
389, 1.500000000001146e-04, 8.099999999997031e-03, 6.953064821006493e-04, -5.351328929867965e-05, 2.197288850529325e+01, -6.080804141892544e+02, 4.499256160338220e+00, 6.301175584446861e+02
390, 2.000000000000454e-04, 8.099999999996011e-03, 6.949322420960289e-04, -5.970239503941817e-05, 1.064289327202526e+01, -8.108532305763205e+02, -5.688819524946849e+01, 8.293376565264738e+02
391, -1.999999999999291e-04, 8.000000000004158e-03, 6.856307072154254e-04, -9.478435577192895e-06, 2.490175550555179e+01, 9.806513457661226e+02, 1.681453219515635e+02, 1.013187384672761e+03
392, -1.499999999998495e-04, 8.000000000003093e-03, 6.852347439732144e-04, -1.565703223410896e-05, 3.145804844398042e+01, 7.387026857487122e+02, 1.762681147491200e+02, 7.902384261127380e+02
393, -9.999999999973761e-05, 8.000000000002028e-03, 6.848423371477822e-04, -2.183445161293233e-05, 3.610835715890663e+01, 4.978892221608246e+02, 1.735684256283857e+02, 5.777071583271108e+02
394, -4.999999999966106e-05, 8.000000000000966e-03, 6.844534510264625e-04, -2.801122473118293e-05, 3.859717706118366e+01, 2.587186480314385e+02, 1.601342000197390e+02, 3.886197499432523e+02
395, 3.846478257435448e-16, 7.999999999999901e-03, 6.840680380337689e-04, -3.418788134133810e-05, 3.867472037139845e+01, 2.170310300760148e+01, 1.360543906739446e+02, 2.726375335176293e+02
396, 5.000000000027218e-05, 7.999999999998840e-03, 6.836860387314649e-04, -4.036494991218128e-05, 3.609062978345261e+01, -2.126455039027356e+02, 1.014187201427502e+02, 3.209559025516235e+02
397, 1.000000000001936e-04, 7.999999999997775e-03, 6.833073818175553e-04, -4.654295759547971e-05, 3.059425428179856e+01, -4.438149600862654e+02, 5.631786706696551e+01, 4.875970788276045e+02
398, 1.500000000001103e-04, 7.999999999996709e-03, 6.829319841199500e-04, -5.272243019220207e-05, 2.193462182423452e+01, -6.712925361948826e+02, 8.435341736916975e-01, 6.932292108782425e+02
399, 2.000000000000435e-04, 7.999999999995648e-03, 6.825597505878934e-04, -5.890389211704013e-05, 9.860573994914297e+00, -8.945647099139911e+02, -6.491157979054314e+01, 9.136953250057265e+02
400, -1.999999999999309e-04, 7.900000000004136e-03, 6.732659723134677e-04, -8.747844290179456e-06, 2.676746693565738e+01, 1.068532183874232e+03, 1.813101407147771e+02, 1.103071708440642e+03
401, -1.499999999998538e-04, 7.900000000003030e-03, 6.728699624819753e-04, -1.491777936034095e-05, 3.339867108287642e+01, 8.041930019198413e+02, 1.885081783173914e+02, 8.580589919233819e+02
402, -9.999999999974523e-05, 7.900000000001926e-03, 6.724778314861871e-04, -2.108650014554693e-05, 3.800489409589709e+01, 5.411050348580974e+02, 1.843738771208925e+02, 6.237665091148334e+02
403, -4.999999999967128e-05, 7.900000000000816e-03, 6.720895408373818e-04, -2.725456305188186e-05, 4.033611171588988e+01, 2.797812619705434e+02, 1.689968702497454e+02, 4.142146165906155e+02
404, 3.718271350539037e-16, 7.899999999999709e-03, 6.717050401374365e-04, -3.342252322956799e-05, 4.013960674913086e+01, 2.073348878405302e+01, 1.424657304510854e+02, 2.855915524421544e+02
405, 5.000000000026201e-05, 7.899999999998603e-03, 6.713242670838795e-04, -3.959093454505675e-05, 3.716315759022152e+01, -2.355253660255455e+02, 1.048697252828309e+02, 3.440198657568082e+02
406, 1.000000000001860e-04, 7.899999999997496e-03, 6.709471474651668e-04, -4.576034956261021e-05, 3.115444653239949e+01, -4.884816114321736e+02, 5.629888720630202e+01, 5.316952995274952e+02
407, 1.500000000001060e-04, 7.899999999996389e-03, 6.705735951538357e-04, -5.193131951748866e-05, 2.186083603984365e+01, -7.376208954605166e+02, -3.155846946641976e+00, 7.595079578006988e+02
408, 2.000000000000416e-04, 7.899999999995286e-03, 6.702035120966902e-04, -5.810439428497093e-05, 9.029679776834442e+00, -9.824278412250100e+02, -7.340248276983920e+01, 1.002267286634772e+03
409, -1.999999999999328e-04, 7.800000000004094e-03, 6.609182698873013e-04, -8.022584590572213e-06, 2.861646482572077e+01, 1.160477527133130e+03, 1.949332711226282e+02, 1.197123796910716e+03
410, -1.499999999998583e-04, 7.800000000002947e-03, 6.605222579203453e-04, -1.418306718048293e-05, 3.532958221144236e+01, 8.727316971916142e+02, 2.010937876292622e+02, 9.289763979055638e+02
411, -9.999999999975283e-05, 7.800000000001799e-03, 6.601304620591147e-04, -2.034229990250600e-05, 3.989607670418434e+01, 5.863498964619707e+02, 1.954153303920180e+02, 6.718335973563404e+02
412, -4.999999999968147e-05, 7.800000000000654e-03, 6.597428409821491e-04, -2.650086462078855e-05, 4.206625445575634e+01, 3.018468742189270e+02, 1.779842692362389e+02, 4.406808037420838e+02
413, 3.590064443642627e-16, 7.799999999999507e-03, 6.593593414583592e-04, -3.265934193028719e-05, 4.158864453165985e+01, 1.973700871095149e+01, 1.488886898860280e+02, 2.985780666625600e+02
414, 5.000000000025183e-05, 7.799999999998360e-03, 6.589798983268175e-04, -3.881831116931633e-05, 3.821102867390174e+01, -2.594644866473220e+02, 1.082171203172075e+02, 3.680414282940875e+02
415, 1.000000000001784e-04, 7.799999999997211e-03, 6.586044344840771e-04, -4.497835039643489e-05, 3.168063498507124e+01, -5.352417066470573e+02, 5.605887617709920e+01, 5.779025279704297e+02
416, 1.500000000001016e-04, 7.799999999996065e-03, 6.582328608738227e-04, -5.114003636531907e-05, 2.174422905803473e+01, -8.070780573405943e+02, -7.495908498716524e+00, 8.289578620219098e+02
417, 2.000000000000397e-04, 7.799999999994919e-03, 6.578650764769461e-04, -5.730394450157278e-05, 8.147154004658347e+00, -1.074457068485043e+03, -8.235619916159527e+01, 1.095062590317973e+03
418, -1.999999999999347e-04, 7.700000000003952e-03, 6.485891897493728e-04, -7.302997144308156e-06, 3.052461494029131e+01, 1.256568295099727e+03, 2.090148676940484e+02, 1.295350132330072e+03
419, -1.499999999998626e-04, 7.700000000002785e-03, 6.481932242070690e-04, -1.345320002720053e-05, 3.729376817156225e+01, 9.443717078073325e+02, 2.140297785168822e+02, 1.003008161951744e+03
420, -9.999999999976044e-05, 7.700000000001617e-03, 6.478018267300048e-04, -1.960211901149228e-05, 4.180208251637744e+01, 6.336564900239932e+02, 2.066955688722780e+02, 7.219306562627254e+02
421, -4.999999999969162e-05, 7.700000000000449e-03, 6.474149532317446e-04, -2.575036136025078e-05, 4.379591746706345e+01, 3.249346544318280e+02, 1.870986844330598e+02, 4.680413019045112e+02
422, 3.461857536746216e-16, 7.699999999999279e-03, 6.470325476900379e-04, -3.189853316621892e-05, 4.302371918343381e+01, 1.872290299167392e+01, 1.553254948127787e+02, 3.116000112691331e+02
423, 5.000000000024164e-05, 7.699999999998113e-03, 6.466545421184479e-04, -3.804723930505086e-05, 3.923238610458819e+01, -2.844617575467404e+02, 1.114634450343915e+02, 3.930321830968886e+02
424, 1.000000000001708e-04, 7.699999999996944e-03, 6.462808565495603e-04, -4.419708340557854e-05, 3.216809303046260e+01, -5.841016057395642e+02, 5.560092730776049e+01, 6.262221603329214e+02
425, 1.500000000000973e-04, 7.699999999995776e-03, 6.459113990234166e-04, -5.034866781818038e-05, 2.157655206669719e+01, -8.796782132377683e+02, -1.217271629765533e+01, 9.015835247342644e+02
426, 2.000000000000377e-04, 7.699999999994609e-03, 6.455460655798732e-04, -5.650259358456182e-05, 7.203470589239402e+00, -1.170672129193250e+03, -9.176755556949118e+01, 1.192088950365601e+03
427, -1.999999999999367e-04, 7.600000000003967e-03, 6.362803946973036e-04, -6.589430631393890e-06, 3.248157213486124e+01, 1.356811907057024e+03, 2.235483662398347e+02, 1.397764759961076e+03
428, -1.499999999998669e-04, 7.600000000002791e-03, 6.358845279153198e-04, -1.272849060902922e-05, 3.929066774720209e+01, 1.019129378316446e+03, 2.273099742401702e+02, 1.080168133341410e+03
429, -9.999999999976803e-05, 7.600000000001615e-03, 6.354935958672182e-04, -1.886623396620199e-05, 4.372096566820697e+01, 6.830359335703024e+02, 2.182129649895596e+02, 7.740744282960110e+02
430, -4.999999999970180e-05, 7.600000000000435e-03, 6.351075517953456e-04, -2.500329348754187e-05, 4.552433013221234e+01, 3.490525125897195e+02, 1.963407509936735e+02, 4.963145369108149e+02
431, 3.333650629849805e-16, 7.599999999999259e-03, 6.347263369436172e-04, -3.114030083770367e-05, 4.444623191199666e+01, 1.769630093677780e+01, 1.617784234872426e+02, 3.246607337379275e+02
432, 5.000000000023146e-05, 7.599999999998081e-03, 6.343498805443034e-04, -3.727788651310896e-05, 4.023190577370096e+01, -3.105142243727438e+02, 1.146122895717380e+02, 4.190068680776134e+02
433, 1.000000000001632e-04, 7.599999999996904e-03, 6.339780998052822e-04, -4.341667979708025e-05, 3.262612702324580e+01, -6.350596851171952e+02, 5.492978520099613e+01, 6.766634827907817e+02
434, 1.500000000000929e-04, 7.599999999995727e-03, 6.336108999003443e-04, -4.955730871995816e-05, 2.137347040831682e+01, -9.554197300116834e+02, -1.718057578051487e+01, 9.773973834236241e+02
435, 2.000000000000358e-04, 7.599999999994550e-03, 6.332481739632155e-04, -5.570040002143178e-05, 6.219372106529036e+00, -1.271072535540744e+03, -1.016289947158608e+02, 1.293363223386623e+03
436, -1.999999999999386e-04, 7.500000000004145e-03, 6.239936206359221e-04, -5.882242673513410e-06, 3.442986624349456e+01, 1.461175810043399e+03, 2.385349750016560e+02, 1.504393474243239e+03
437, -1.499999999998712e-04, 7.500000000002950e-03, 6.235979083568213e-04, -1.200926016822032e-05, 4.127167520991358e+01, 1.096973040481617e+03, 2.409385356746726e+02, 1.160478730752425e+03
438, -9.999999999977570e-05, 7.500000000001755e-03, 6.232075124032446e-04, -1.813492959922918e-05, 4.562612459757804e+01, 7.344721045244127e+02, 2.299712651912586e+02, 8.282849239941735e+02
439, -4.999999999971198e-05, 7.500000000000564e-03, 6.228223833470909e-04, -2.425990937990557e-05, 4.723617513781805e+01, 3.741909537915487e+02, 2.057145949090824e+02, 5.255220314305972e+02
440, 3.205443722953394e-16, 7.499999999999370e-03, 6.224424597174274e-04, -3.038485684585685e-05, 4.584738248567139e+01, 1.665016805529288e+01, 1.682524235160447e+02, 3.377691362551993e+02
441, 5.000000000022125e-05, 7.499999999998177e-03, 6.220676679908827e-04, -3.651042819860080e-05, 4.120450062226101e+01, -3.376292375320824e+02, 1.176699245605577e+02, 4.459818894846997e+02
442, 1.000000000001556e-04, 7.499999999996980e-03, 6.216979225820188e-04, -4.263727845974329e-05, 3.305173513856560e+01, -6.881254401537994e+02, 5.405344047764839e+01, 7.292349524484940e+02
443, 1.500000000000885e-04, 7.499999999995787e-03, 6.213331258320216e-04, -4.876606142837384e-05, 2.113274165609697e+01, -1.034315790491296e+03, -2.250946477327181e+01, 1.056408210887062e+03
444, 2.000000000000339e-04, 7.499999999994593e-03, 6.209731679981153e-04, -5.489742963228704e-05, 5.190126545514488e+00, -1.375677278720251e+03, -1.119298059380239e+02, 1.398895248671144e+03
445, -1.999999999999404e-04, 7.400000000004559e-03, 6.117306736101032e-04, -5.181798379309432e-06, 3.648509342422572e+01, 1.569762862886616e+03, 2.539585840112583e+02, 1.615215331743597e+03
446, -1.499999999998756e-04, 7.400000000003323e-03, 6.113351760469738e-04, -1.129583755069630e-05, 4.332580228182752e+01, 1.177980525879242e+03, 2.549057022906871e+02, 1.243924840986448e+03
447, -9.999999999978329e-05, 7.400000000002085e-03, 6.109453910914390e-04, -1.740849839568749e-05, 4.757220538776066e+01, 7.880130435084802e+02, 2.419641300008346e+02, 8.845559312927345e+02
448, -4.999999999972218e-05, 7.400000000000849e-03, 6.105612667342625e-04, -2.352046509829403e-05, 4.896464111181579e+01, 4.003790901630569e+02, 2.152168319481015e+02, 5.556664953162973e+02
449, 3.077507866600104e-16, 7.399999999999613e-03, 6.101827388603973e-04, -2.963242077278010e-05, 4.724575588595944e+01, 1.559993244774468e+01, 1.747468242755757e+02, 3.509234510811131e+02
450, 5.000000000021107e-05, 7.399999999998373e-03, 6.098097312542133e-04, -3.574504741924674e-05, 4.215844508141210e+01, -3.658019757557570e+02, 1.206381957589803e+02, 4.739683555613901e+02
451, 1.000000000001480e-04, 7.399999999997137e-03, 6.094421555926095e-04, -4.185902588740766e-05, 3.344519950668378e+01, -7.433032095384010e+02, 5.297609321337342e+01, 7.839412967580408e+02
452, 1.500000000000842e-04, 7.399999999995899e-03, 6.090799114333735e-04, -4.797503583947145e-05, 2.084772002617891e+01, -1.116379476120298e+03, -2.815322537045199e+01, 1.138620266836233e+03
453, 2.000000000000320e-04, 7.399999999994663e-03, 6.087228861973873e-04, -5.409375571322669e-05, 4.106457304570483e+00, -1.484505670664258e+03, -1.226622999864277e+02, 1.508691561217112e+03
454, -1.999999999999424e-04, 7.300000000004963e-03, 5.994934362578930e-04, -4.488471006584224e-06, 3.856923096011866e+01, 1.682534378355668e+03, 2.698046388594199e+02, 1.730259974238415e+03
455, -1.499999999998800e-04, 7.300000000003675e-03, 5.990982168844036e-04, -1.058855953898708e-05, 4.540573288654707e+01, 1.262132119022793e+03, 2.691953778821453e+02, 1.330521591186183e+03
456, -9.999999999979085e-05, 7.300000000002383e-03, 5.987091213004965e-04, -1.668724065953351e-05, 4.953238594962227e+01, 8.436501670203397e+02, 2.541796682712030e+02, 9.428956810074565e+02
457, -4.999999999973237e-05, 7.300000000001096e-03, 5.983260949144704e-04, -2.278522444422226e-05, 5.069397547980149e+01, 4.276128865941387e+02, 2.248393678896136e+02, 5.867527852235742e+02
458, 2.949029909160572e-16, 7.299999999999806e-03, 5.979490710009497e-04, -2.888321987838830e-05, 4.863238730310583e+01, 1.454316401457675e+01, 1.812569274976266e+02, 3.641131283103298e+02
459, 5.000000000020089e-05, 7.299999999998517e-03, 5.975779706967248e-04, -3.498193485066575e-05, 4.308927481127404e+01, -3.950349905633732e+02, 1.235153977787394e+02, 5.029682752061358e+02
460, 1.000000000001404e-04, 7.299999999997227e-03, 5.972127029920689e-04, -4.108207612814498e-05, 3.380582133618380e+01, -8.005964294296485e+02, 5.169866767756870e+01, 8.407842321556880e+02
461, 1.500000000000799e-04, 7.299999999995936e-03, 5.968531647170869e-04, -4.718434932940496e-05, 2.052262535813203e+01, -1.201614724145722e+03, -3.410847400785142e+01, 1.224039726907947e+03
462, 2.000000000000302e-04, 7.299999999994650e-03, 5.964992405243322e-04, -5.328945889945532e-05, 2.979379977348316e+00, -1.597562199982529e+03, -1.338203990910863e+02, 1.622764599697705e+03
463, -1.999999999999443e-04, 7.200000000005343e-03, 5.872838650831310e-04, -3.802642530991876e-06, 4.067457302084645e+01, 1.799505777259043e+03, 2.860692431027394e+02, 1.849548499607264e+03
464, -1.499999999998843e-04, 7.200000000003976e-03, 5.868889907416618e-04, -9.887771210769817e-06, 4.749400920066346e+01, 1.349431671226641e+03, 2.838033097412035e+02, 1.420288333502009e+03
465, -9.999999999979844e-05, 7.200000000002606e-03, 5.865006663354596e-04, -1.597146473020178e-05, 5.149316026656734e+01, 9.013868967394981e+02, 2.666127387706486e+02, 1.003318879118231e+03
466, -4.999999999974257e-05, 7.200000000001237e-03, 5.861188346986011e-04, -2.205445905509797e-05, 5.241448418668168e+01, 4.558947578108820e+02, 2.345780384538448e+02, 6.187921748885270e+02
467, 2.821094052807283e-16, 7.199999999999870e-03, 5.857434265216055e-04, -2.813748909900690e-05, 5.000044645660415e+01, 1.348033606377614e+01, 1.877803205779391e+02, 3.773320999444902e+02
468, 5.000000000019069e-05, 7.199999999998501e-03, 5.853743603347950e-04, -3.422128870555051e-05, 4.399230639861568e+01, -4.253305685121616e+02, 1.263012980163658e+02, 5.329840827238581e+02
469, 1.000000000001328e-04, 7.199999999997132e-03, 5.850115424929050e-04, -4.030659063245731e-05, 3.413045094557670e+01, -8.600110351774373e+02, 5.022336792258770e+01, 8.997658272840898e+02
470, 1.500000000000756e-04, 7.199999999995762e-03, 5.846548671577073e-04, -4.639412653170633e-05, 2.015438859697610e+01, -1.290032921347094e+03, -4.037027992948325e+01, 1.312672779158926e+03
471, 2.000000000000282e-04, 7.199999999994395e-03, 5.843042162789761e-04, -5.248462692606616e-05, 1.803482991226389e+00, -1.714866146176280e+03, -1.453956539693231e+02, 1.741124406950512e+03
472, -1.999999999999461e-04, 7.100000000005715e-03, 5.751039898553748e-04, -3.124702402170108e-06, 4.284611377514261e+01, 1.920728646159172e+03, 3.027377952199049e+02, 1.973079698352677e+03
473, -1.499999999998886e-04, 7.100000000004259e-03, 5.747095310974374e-04, -9.193825291582800e-06, 4.962150158401880e+01, 1.439919692752015e+03, 2.987186206351573e+02, 1.513228441981476e+03
474, -9.999999999980600e-05, 7.100000000002804e-03, 5.743220632718736e-04, -1.526148656170037e-05, 5.347058549991915e+01, 9.612495502990798e+02, 2.792555119548530e+02, 1.065831700016707e+03
475, -4.999999999975274e-05, 7.100000000001348e-03, 5.739415267214188e-04, -2.132844810863769e-05, 5.413504446900336e+01, 4.852420603583828e+02, 2.444277048041697e+02, 6.517920455577705e+02
476, 2.692616095367750e-16, 7.099999999999895e-03, 5.735678496214135e-04, -2.739547081262447e-05, 5.135590954869835e+01, 1.242261499876328e+01, 1.943147253203898e+02, 3.905747704727818e+02
477, 5.000000000018050e-05, 7.099999999998441e-03, 5.732009479642605e-04, -3.346331452534760e-05, 4.487360664388225e+01, -4.566817825921527e+02, 1.289966647599364e+02, 5.640198281518657e+02
478, 1.000000000001252e-04, 7.099999999996985e-03, 5.728407255409346e-04, -3.953273805523366e-05, 3.442767951660595e+01, -9.215427733254619e+02, 4.855425839549102e+01, 9.608899888855190e+02
479, 1.500000000000712e-04, 7.099999999995530e-03, 5.724870739224704e-04, -4.560449915041281e-05, 1.975682526126825e+01, -1.381630564342484e+03, -4.693105840410582e+01, 1.404527220352862e+03
480, 2.000000000000263e-04, 7.099999999994075e-03, 5.721398724400286e-04, -5.167935448186503e-05, 5.985123221744857e-01, -1.836414253940788e+03, -1.573768783513853e+02, 1.863782667258070e+03
481, -1.999999999999481e-04, 7.000000000006086e-03, 5.629559160837810e-04, -2.455047819187480e-06, 4.502253682100542e+01, 2.046171754272987e+03, 3.197986082765206e+02, 2.100876671756598e+03
482, -1.499999999998929e-04, 7.000000000004546e-03, 5.625619465182123e-04, -8.507082138819526e-06, 5.174743809080650e+01, 1.533579531179161e+03, 3.139316613958130e+02, 1.609359718712244e+03
483, -9.999999999981362e-05, 7.000000000003004e-03, 5.621754238510981e-04, -1.455762965423232e-05, 5.543796496294200e+01, 1.023230403184704e+03, 2.921012030216747e+02, 1.130448873105751e+03
484, -4.999999999976293e-05, 7.000000000001462e-03, 5.617962859765795e-04, -2.060747822001634e-05, 5.583637537722078e+01, 5.156498306608199e+02, 2.543844361700370e+02, 6.857653965621428e+02
485, 2.564544713742900e-16, 6.999999999999921e-03, 5.614244586098633e-04, -2.665741471996875e-05, 5.268371719871536e+01, 1.136481392542186e+01, 2.008591065875785e+02, 4.038375596255860e+02
486, 5.000000000017032e-05, 6.999999999998381e-03, 5.610598552623651e-04, -3.270822505839216e-05, 4.571971540009034e+01, -4.890964318681163e+02, 1.316035219541615e+02, 5.960757161147953e+02
487, 1.000000000001176e-04, 6.999999999996837e-03, 5.607023772214081e-04, -3.876069414370770e-05, 3.468310019126633e+01, -9.852042377118967e+02, 4.669663426874705e+01, 1.024154521848787e+03
488, 1.500000000000668e-04, 6.999999999995296e-03, 5.603519135295256e-04, -4.481560587325343e-05, 1.931159512139948e+01, -1.476427477710051e+03, -5.378192295471254e+01, 1.499601732108067e+03
489, 2.000000000000244e-04, 6.999999999993755e-03, 5.600083409632067e-04, -5.087374311697099e-05, -6.586117675599610e-01, -1.962233861168495e+03, -1.697520002139382e+02, 1.990738663252630e+03
490, -1.999999999999499e-04, 6.900000000006458e-03, 5.508418228237451e-04, -1.794083379733521e-06, 4.723142700217284e+01, 2.175873432083712e+03, 3.372408798453010e+02, 2.232944788827723e+03
491, -1.499999999998973e-04, 6.900000000004828e-03, 5.504484194117999e-04, -7.827909450648001e-06, 5.388481635378335e+01, 1.630436053821440e+03, 3.294345541112214e+02, 1.708690231180197e+03
492, -9.999999999982122e-05, 6.900000000003202e-03, 5.500629337880889e-04, -1.386022477907983e-05, 5.740057307706400e+01, 1.087345487617047e+03, 3.051443709139656e+02, 1.197179550188146e+03
493, -4.999999999977310e-05, 6.900000000001573e-03, 5.496853014862914e-04, -1.989184319518749e-05, 5.752090833141548e+01, 5.471289407410786e+02, 2.644453706514481e+02, 7.207228604921512e+02
494, 2.436337806846489e-16, 6.899999999999946e-03, 5.493154458340150e-04, -2.592357762800536e-05, 5.398549385942144e+01, 1.031392631547754e+01, 2.074132247338398e+02, 4.171189146870549e+02
495, 5.000000000016015e-05, 6.899999999998319e-03, 5.489532779339043e-04, -3.195624007679170e-05, 4.653307532042956e+01, -5.225704099445719e+02, 1.341242974571130e+02, 6.291550568931542e+02
496, 1.000000000001100e-04, 6.899999999996692e-03, 5.485986966421722e-04, -3.799064159643853e-05, 3.490141437584634e+01, -1.050993279500260e+03, 4.465558233602165e+01, 1.089561274239939e+03
497, 1.500000000000625e-04, 6.899999999995065e-03, 5.482515885469062e-04, -4.402759228199259e-05, 1.882727411146934e+01, -1.574422267049851e+03, -6.091527555407026e+01, 1.597900742722798e+03
498, 2.000000000000225e-04, 6.899999999993437e-03, 5.479118279461115e-04, -5.006790125595153e-05, -1.952820209826712e+00, -2.092322748654636e+03, -1.825099612987407e+02, 2.122000466927240e+03
499, -1.999999999999519e-04, 6.800000000006828e-03, 5.387639640408515e-04, -1.142220694143909e-06, 4.944652720040870e+01, 2.309823958517927e+03, 3.550523268743393e+02, 2.369294146214250e+03
500, -1.499999999999017e-04, 6.800000000005111e-03, 5.383712068078340e-04, -7.156681925179156e-06, 5.601544062464083e+01, 1.730484311915202e+03, 3.452183760116238e+02, 1.811228563562727e+03
501, -9.999999999982880e-05, 6.800000000003401e-03, 5.379868532408646e-04, -1.316960963383690e-05, 5.934802962923015e+01, 1.153594670392574e+03, 3.183793659728067e+02, 1.266032145536142e+03
502, -4.999999999978328e-05, 6.800000000001686e-03, 5.376108365729048e-04, -1.918184369639300e-05, 5.918271293066013e+01, 5.796808748007870e+02, 2.746079555235592e+02, 7.566746020962360e+02
503, 2.308130899950078e-16, 6.799999999999972e-03, 5.372430778161045e-04, -2.519422312038613e-05, 5.525866058714371e+01, 9.271488287412438e+00, 2.139778315023715e+02, 4.304194111723521e+02
504, 5.000000000014997e-05, 6.799999999998255e-03, 5.368834857411583e-04, -3.120758603900273e-05, 4.731418084133287e+01, -5.571029832499488e+02, 1.365632023895606e+02, 6.632632518357365e+02
505, 1.000000000001024e-04, 6.799999999996542e-03, 5.365319568537772e-04, -3.722276969611278e-05, 3.508648155038907e+01, -1.118910292337524e+03, 4.243892364736918e+01, 1.157113997454486e+03
506, 1.500000000000582e-04, 6.799999999994830e-03, 5.361883753708600e-04, -4.324061043101379e-05, 1.831176587982645e+01, -1.675616406489637e+03, -6.831943730848369e+01, 1.699430150139612e+03
507, 2.000000000000206e-04, 6.799999999993115e-03, 5.358526131985800e-04, -4.926194366016089e-05, -3.274892886666024e+00, -2.226685769434425e+03, -1.956354514489971e+02, 2.257575878105870e+03
508, -1.999999999999538e-04, 6.700000000007203e-03, 5.267246677228945e-04, -4.998779835420640e-07, 5.169187612349569e+01, 2.448054391357735e+03, 3.732152236337399e+02, 2.509922651602575e+03
509, -1.499999999999060e-04, 6.700000000005407e-03, 5.263326399400920e-04, -6.493780798105230e-06, 5.815936003081345e+01, 1.833750673691869e+03, 3.612706189296256e+02, 1.916974270446990e+03
510, -9.999999999983645e-05, 6.700000000003612e-03, 5.259495166107633e-04, -1.248612846521437e-05, 6.129153453756783e+01, 1.221996084151635e+03, 3.317976438143228e+02, 1.337009258478691e+03
511, -4.999999999979346e-05, 6.700000000001816e-03, 5.255752287619626e-04, -1.847778691496977e-05, 6.082705341803617e+01, 6.133169894384064e+02, 2.848679872707776e+02, 7.936272488332344e+02
512, 2.179923993053667e-16, 6.700000000000018e-03, 5.252096951876757e-04, -2.446962126983150e-05, 5.650468262434927e+01, 8.243210302891157e+00, 2.205529605164589e+02, 4.437382148079357e+02
513, 5.000000000013978e-05, 6.699999999998221e-03, 5.248528224209482e-04, -3.046249583541782e-05, 4.806186320678560e+01, -5.926936132509975e+02, 1.389244543470636e+02, 6.984036058563543e+02
514, 1.000000000000948e-04, 6.699999999996424e-03, 5.245045047072731e-04, -3.645727408841672e-05, 3.523480205802903e+01, -1.188960007585383e+03, 4.005503521926733e+01, 1.226813170512747e+03
515, 1.500000000000538e-04, 6.699999999994629e-03, 5.241646239789418e-04, -4.245481866019488e-05, 1.775841439207534e+01, -1.780020774057557e+03, -7.598196102125726e+01, 1.804190412352632e+03
516, 2.000000000000187e-04, 6.699999999992831e-03, 5.238330498291100e-04, -4.845599131735323e-05, -4.633754250476244e+00, -2.365339020078372e+03, -2.091123771090614e+02, 2.397465598741379e+03
517, -1.999999999999557e-04, 6.600000000007607e-03, 5.147263377763361e-04, 1.325201130956367e-07, 5.395382933342898e+01, 2.590573337109679e+03, 3.917111244097925e+02, 2.654842546588510e+03
518, -1.499999999999103e-04, 6.600000000005753e-03, 5.143351254838018e-04, -5.839593763689228e-06, 6.030367907368299e+01, 1.940243000611067e+03, 3.775752904086211e+02, 2.025937869820064e+03
519, -9.999999999984406e-05, 6.600000000003900e-03, 5.139533333691182e-04, -1.181013193419761e-05, 6.322011336926801e+01, 1.292555233670026e+03, 3.453889641000507e+02, 1.410120202001696e+03
520, -4.999999999980367e-05, 6.600000000002050e-03, 5.135808903597945e-04, -1.777998640831289e-05, 6.244552655365803e+01, 6.480410615115072e+02, 2.952202894317184e+02, 8.315901681304078e+02
521, 2.051717086157256e-16, 6.600000000000198e-03, 5.132177131305986e-04, -2.375004845769619e-05, 5.771757657304744e+01, 7.231088806181901e+00, 2.271381026157101e+02, 4.570730314583145e+02
522, 5.000000000012958e-05, 6.599999999998345e-03, 5.128637060712988e-04, -2.972120860574264e-05, 4.877247896099996e+01, -6.293421099668197e+02, 1.412118803984039e+02, 7.345764605399211e+02
523, 1.000000000000872e-04, 6.599999999996491e-03, 5.125187612589372e-04, -3.569435661075196e-05, 3.534519899033086e+01, -1.261143964931892e+03, 3.751182349061450e+01, 1.298658038043159e+03
524, 1.500000000000495e-04, 6.599999999994639e-03, 5.121827584311136e-04, -4.167038144887658e-05, 1.716951927401198e+01, -1.887637875324983e+03, -8.389111743721421e+01, 1.912182545903625e+03
525, 2.000000000000168e-04, 6.599999999992787e-03, 5.118555649591527e-04, -4.765017129904105e-05, -6.022146806899030e+00, -2.508285381051029e+03, -2.229251853318819e+02, 2.541673434269420e+03
526, -1.999999999999576e-04, 6.500000000008018e-03, 5.027714536823729e-04, 7.545422015006636e-07, 5.618309266642754e+01, 2.737358867686559e+03, 4.105289741782046e+02, 2.804075550179424e+03
527, -1.499999999999147e-04, 6.500000000006126e-03, 5.023811453176695e-04, -5.194515051024809e-06, 6.240629218281154e+01, 2.049941756739073e+03, 3.941258908496127e+02, 2.138138932394450e+03
528, -9.999999999985163e-05, 6.500000000004228e-03, 5.020007879182972e-04, -1.114197706632320e-05, 6.510566415012525e+01, 1.365260937538210e+03, 3.591492808510111e+02, 1.485380947320262e+03
529, -4.999999999981387e-05, 6.500000000002332e-03, 5.016303083889967e-04, -1.708876194990056e-05, 6.401953330976102e+01, 6.838463959820651e+02, 3.056637874842884e+02, 8.705783960144843e+02
530, 1.923510179260846e-16, 6.500000000000438e-03, 5.012696213607144e-04, -2.303578716112681e-05, 5.888516104683717e+01, 6.230305234974793e+00, 2.337354835894968e+02, 4.704270814864209e+02
531, 5.000000000011942e-05, 6.499999999998543e-03, 5.009186291601809e-04, -2.898396948215916e-05, 4.943817892929891e+01, -6.670533233665913e+02, 1.434312603710995e+02, 7.717837641909748e+02
532, 1.000000000000796e-04, 6.499999999996646e-03, 5.005772217807256e-04, -3.493422499892725e-05, 3.541280115668982e+01, -1.335468434898612e+03, 3.481875352434365e+01, 1.372648806416436e+03
533, 1.500000000000451e-04, 6.499999999994751e-03, 5.002452768530242e-04, -4.088746908366798e-05, 1.654187498803472e+01, -1.998476906466838e+03, -9.203361172072924e+01, 2.023408370142154e+03
534, 2.000000000000149e-04, 6.499999999992855e-03, 4.999226596165210e-04, -4.684461637552677e-05, -7.442784932852362e+00, -2.655538271866704e+03, -2.370566693783967e+02, 2.690203183015466e+03
535, -1.999999999999595e-04, 6.400000000008258e-03, 4.908625681328585e-04, 1.365751293811846e-06, 5.842771054531485e+01, 2.888456579089423e+03, 4.296522068975885e+02, 2.957611785268803e+03
536, -1.499999999999190e-04, 6.400000000006336e-03, 4.904732550905714e-04, -4.558944567139735e-06, 6.450404477075242e+01, 2.162882528448384e+03, 4.109117361468672e+02, 2.253571849392464e+03
537, -9.999999999985919e-05, 6.400000000004416e-03, 4.900944387541205e-04, -1.048202656252147e-05, 6.697102205201722e+01, 1.440136811519714e+03, 3.730720022254686e+02, 1.562790824372386e+03
538, -4.999999999982406e-05, 6.400000000002495e-03, 4.897260441233265e-04, -1.640443896821158e-05, 6.556352324228052e+01, 7.207486335327710e+02, 3.161958138872860e+02, 9.105968919482071e+02
539, 1.795438797635995e-16, 6.400000000000575e-03, 4.893679838954086e-04, -2.232712547336824e-05, 6.001728499296252e+01, 5.250798488384021e+00, 2.403465415909293e+02, 4.838028609495167e+02
540, 5.000000000010922e-05, 6.399999999998654e-03, 4.890201584422080e-04, -2.825102916039427e-05, 5.006705918740511e+01, -7.058214213623119e+02, 1.455882835247947e+02, 8.100315970544260e+02
541, 1.000000000000720e-04, 6.399999999996736e-03, 4.886824557807738e-04, -3.417709248763475e-05, 3.544618266110703e+01, -1.411930553821830e+03, 3.198588816042506e+01, 1.448789772699146e+03
542, 1.500000000000408e-04, 6.399999999994814e-03, 4.883547515428960e-04, -4.010625727198514e-05, 1.588653040991196e+01, -2.112536935762134e+03, -1.003950076913143e+02, 2.137873495235202e+03
543, 2.000000000000129e-04, 6.399999999992895e-03, 4.880369089439420e-04, -4.603946467202191e-05, -8.881389598674957e+00, -2.807098684757389e+03, -2.514877700075442e+02, 2.843062508067457e+03
544, -1.999999999999615e-04, 6.300000000008254e-03, 4.790023098794421e-04, 1.965705198147771e-06, 6.067813587591939e+01, 3.043870115467993e+03, 4.490564603962892e+02, 3.115452006627137e+03
545, -1.499999999999234e-04, 6.300000000006307e-03, 4.786140860737331e-04, -3.933287403847024e-06, 6.659581129979242e+01, 2.279073814270387e+03, 4.279131428027153e+02, 2.372234715360590e+03
546, -9.999999999986685e-05, 6.300000000004357e-03, 4.782369196720764e-04, -9.830648346051943e-06, 6.881673944513864e+01, 1.517191006527896e+03, 3.871438864302831e+02, 1.642348797530199e+03
547, -4.999999999983422e-05, 6.300000000002410e-03, 4.778707338723394e-04, -1.572734812817113e-05, 6.707761099763439e+01, 7.587535094652497e+02, 3.268092633839618e+02, 9.516473753734908e+02
548, 1.667096365468024e-16, 6.300000000000461e-03, 4.775154395550510e-04, -2.162435671437240e-05, 6.111353231705908e+01, 4.295401398767041e+00, 2.469699442628972e+02, 4.971970569883960e+02
549, 5.000000000009904e-05, 6.299999999998514e-03, 4.771709352533963e-04, -2.752264353182376e-05, 5.065817126302036e+01, -7.456469230277739e+02, 1.476871586354927e+02, 8.493219592691403e+02
550, 1.000000000000644e-04, 6.299999999996569e-03, 4.768371071227787e-04, -3.342317745751352e-05, 3.544373160024776e+01, -1.490534738244346e+03, 2.902284634988780e+01, 1.527082051780534e+03
551, 1.500000000000364e-04, 6.299999999994618e-03, 4.765138289090715e-04, -3.932692680342347e-05, 1.520091518485128e+01, -2.229826971264291e+03, -1.089602672935669e+02, 2.255579652845150e+03
552, 2.000000000000111e-04, 6.299999999992672e-03, 4.762009619160164e-04, -4.523485929955950e-05, -1.034157516704448e+01, -2.962980523966878e+03, -2.661986765158313e+02, 3.000253939833245e+03
553, -1.999999999999633e-04, 6.200000000008235e-03, 4.671933841056595e-04, 2.553956335168173e-06, 6.292215798317736e+01, 3.203609889434163e+03, 4.687193088126099e+02, 3.277607448780561e+03
554, -1.499999999999277e-04, 6.200000000006244e-03, 4.668063455808322e-04, -3.317953896787106e-06, 6.866636211022904e+01, 2.398520463022636e+03, 4.451120152732285e+02, 2.494136916069513e+03
555, -9.999999999987445e-05, 6.200000000004252e-03, 4.664309401529916e-04, -9.188215490147957e-06, 7.063071642291771e+01, 1.596426948711047e+03, 4.013522412198933e+02, 1.724061666122641e+03
556, -4.999999999984441e-05, 6.200000000002263e-03, 4.660670893289450e-04, -1.505782517163712e-05, 6.855307014281868e+01, 7.978633921534830e+02, 3.374970675923834e+02, 9.937356933939377e+02
557, 1.538618408028491e-16, 6.200000000000271e-03, 4.657147022834469e-04, -2.092777921827002e-05, 6.216783002368220e+01, 3.364966826452786e+00, 2.536041361894009e+02, 5.106055310018498e+02
558, 5.000000000008886e-05, 6.199999999998280e-03, 4.653736758242741e-04, -2.679907344488595e-05, 5.120756267721433e+01, -7.865309506341529e+02, 1.497317001984684e+02, 8.896539466907545e+02
559, 1.000000000000568e-04, 6.199999999996288e-03, 4.650438943597032e-04, -3.267270319312324e-05, 3.540325069178337e+01, -1.571284540581568e+03, 2.593866990122647e+01, 1.607525090632125e+03
560, 1.500000000000321e-04, 6.199999999994299e-03, 4.647252298652041e-04, -3.854966331897129e-05, 1.448426006174310e+01, -2.350353506477720e+03, -1.177153283855884e+02, 2.376527983466440e+03
561, 2.000000000000091e-04, 6.199999999992307e-03, 4.644175418483710e-04, -4.443094818080784e-05, -1.182133636873451e+01, -3.123192723797881e+03, -2.811699254801878e+02, 3.161780830242810e+03
562, -1.999999999999653e-04, 6.100000000008216e-03, 4.554385719624117e-04, 3.130051997314564e-06, 6.513395444308037e+01, 3.367671178050638e+03, 4.886225108461305e+02, 3.444090583265171e+03
563, -1.499999999999321e-04, 6.100000000006179e-03, 4.550528166686562e-04, -2.713359427097800e-06, 7.069393552244262e+01, 2.521218920187916e+03, 4.624951153605132e+02, 2.619289909001877e+03
564, -9.999999999988203e-05, 6.100000000004146e-03, 4.546792852161891e-04, -8.555105977339131e-06, 7.239755207822546e+01, 1.677843484567513e+03, 4.156880286338549e+02, 1.807938823839015e+03
565, -4.999999999985460e-05, 6.100000000002112e-03, 4.543178975272358e-04, -1.439621063510415e-05, 6.997992937412278e+01, 8.380785473037949e+02, 3.482546442196960e+02, 1.036870616686489e+03
566, 1.410275975860520e-16, 6.100000000000079e-03, 4.539685611761893e-04, -2.023769601733026e-05, 6.317471964028766e+01, 2.460166621051741e+00, 2.602493973219972e+02, 5.240279116365622e+02
567, 5.000000000007866e-05, 6.099999999998046e-03, 4.536311713573825e-04, -2.608058436001039e-05, 5.171391111140210e+01, -8.284730722682339e+02, 1.517273345261477e+02, 9.310283894063498e+02
568, 1.000000000000492e-04, 6.099999999996011e-03, 4.533056108506223e-04, -3.192589750771832e-05, 3.532778991426923e+01, -1.654179992641138e+03, 2.274411775157085e+01, 1.690120033277068e+03
569, 1.500000000000277e-04, 6.099999999993980e-03, 4.529917499852998e-04, -3.777465690397491e-05, 1.374496435575398e+01, -2.474116745056933e+03, -1.266439169794942e+02, 2.500722018136653e+03
570, 2.000000000000072e-04, 6.099999999991945e-03, 4.526894466039556e-04, -4.362788358048873e-05, -1.330765506103219e+01, -3.287736829050124e+03, -2.963796350233320e+02, 3.327649315612620e+03
571, -1.999999999999672e-04, 6.000000000008407e-03, 4.437407295431107e-04, 3.693535190482365e-06, 6.733374108536725e+01, 3.536079538873383e+03, 5.087432967921987e+02, 3.614896454643756e+03
572, -1.499999999999365e-04, 6.000000000006308e-03, 4.433563575131515e-04, -2.119923669135059e-06, 7.269436440828989e+01, 2.647190169939123e+03, 4.800460841295491e+02, 2.747690962289666e+03
573, -9.999999999988962e-05, 6.000000000004209e-03, 4.429848150548504e-04, -7.931702080906981e-06, 7.412654811291804e+01, 1.761455767203574e+03, 4.301401159488453e+02, 1.893980456866181e+03
574, -4.999999999986476e-05, 6.000000000002106e-03, 4.426260206307869e-04, -1.374284932055649e-05, 7.136289059041087e+01, 8.794090381607284e+02, 3.590762488984012e+02, 1.081055774090781e+03
575, 1.282204594235670e-16, 6.000000000000007e-03, 4.422798803437340e-04, -1.955441436990670e-05, 6.413613255246759e+01, 1.586630819092136e+00, 2.669055901975948e+02, 5.374633164058728e+02
576, 5.000000000006848e-05, 5.999999999997906e-03, 4.419462879051943e-04, -2.536744591211210e-05, 5.217753830828087e+01, -8.714718605036293e+02, 1.536797332885467e+02, 9.734464821551099e+02
577, 1.000000000000416e-04, 5.999999999995806e-03, 4.416251245982739e-04, -3.118299232636890e-05, 3.521657981188883e+01, -1.739224050022661e+03, 1.945084677834143e+01, 1.774867006445613e+03
578, 1.500000000000234e-04, 5.999999999993707e-03, 4.413162592390286e-04, -3.700210168054188e-05, 1.298084507226855e+01, -2.601124804856711e+03, -1.357282380067230e+02, 2.628162279494980e+03
579, 2.000000000000053e-04, 5.999999999991606e-03, 4.410195481369507e-04, -4.282582172186928e-05, -1.480413669279432e+01, -3.456626341870712e+03, -3.118039683522512e+02, 3.497860338946744e+03
580, -1.999999999999690e-04, 5.900000000008779e-03, 4.321027894655739e-04, 4.243945161494364e-06, 6.952206589854484e+01, 3.708848653148485e+03, 5.290526017403421e+02, 3.790024357480727e+03
581, -1.499999999999408e-04, 5.900000000006594e-03, 4.317199024934509e-04, -1.538070075876086e-06, 7.467025123012110e+01, 2.776448690130900e+03, 4.977415947252454e+02, 2.879339075792855e+03
582, -9.999999999989724e-05, 5.900000000004408e-03, 4.313504657756157e-04, -7.318389886998156e-06, 7.581874578443086e+01, 1.847275501602797e+03, 4.446925080537094e+02, 1.982186859156050e+03
583, -4.999999999987495e-05, 5.900000000002220e-03, 4.309943964508893e-04, -1.309808985712245e-05, 7.270180301257182e+01, 9.218634522592997e+02, 3.699530407475227e+02, 1.126293263757169e+03
584, 1.153862162067698e-16, 5.900000000000033e-03, 4.306515992965206e-04, -1.887824535152865e-05, 6.505165085935499e+01, 7.499668907576336e-01, 2.735707557543640e+02, 5.509070159085405e+02
585, 5.000000000005830e-05, 5.899999999997847e-03, 4.303219666868743e-04, -2.465993152674861e-05, 5.259863670283988e+01, -9.155244725428474e+02, 1.555935805652535e+02, 1.016906978984804e+03
586, 1.000000000000340e-04, 5.899999999995659e-03, 4.300053785523793e-04, -3.044422332851572e-05, 3.507117725169229e+01, -1.826416423460224e+03, 1.607000442868969e+01, 1.861765040968800e+03
587, 1.500000000000191e-04, 5.899999999993472e-03, 4.297017023386052e-04, -3.623219548591621e-05, 1.219574760443356e+01, -2.731379506877051e+03, -1.449508352217237e+02, 2.758849063564196e+03
588, 2.000000000000034e-04, 5.899999999991286e-03, 4.294107929651314e-04, -4.202492250474215e-05, -1.630307545420396e+01, -3.629864361874770e+03, -3.274191061391492e+02, 3.672415860843826e+03
589, -1.999999999999710e-04, 5.800000000009150e-03, 4.205277616048876e-04, 4.780817358949267e-06, 7.167234577614533e+01, 3.885977954467539e+03, 5.495232550430076e+02, 3.969487436411264e+03
590, -1.499999999999452e-04, 5.800000000006880e-03, 4.201464627225884e-04, -9.682258078181271e-07, 7.659707262645162e+01, 2.908993718815350e+03, 5.155604260807120e+02, 3.014246335836575e+03
591, -9.999999999990477e-05, 5.800000000004606e-03, 4.197792497684348e-04, -6.715559118699069e-06, 7.745543303045184e+01, 1.935303267928962e+03, 4.593308109005985e+02, 2.072567912761241e+03
592, -4.999999999988512e-05, 5.800000000002332e-03, 4.194260387025400e-04, -1.246228444046462e-05, 7.398305169338778e+01, 9.654427092066180e+02, 3.808775736436511e+02, 1.172591670357719e+03
593, 1.025655255171287e-16, 5.800000000000059e-03, 4.190867331210678e-04, -1.820950353477324e-05, 6.591185076560384e+01, -4.946433303359754e-02, 2.802442596298923e+02, 5.643565143697446e+02
594, 5.000000000004811e-05, 5.799999999997786e-03, 4.187612242053787e-04, -2.395831805701571e-05, 5.297128579738597e+01, -9.606318305420618e+02, 1.574749268255917e+02, 1.061406937874415e+03
595, 1.000000000000264e-04, 5.799999999995513e-03, 4.184493906773140e-04, -2.970982955170951e-05, 3.488871721351683e+01, -1.915759877342844e+03, 1.261423196648923e+01, 1.950811732289183e+03
596, 1.500000000000147e-04, 5.799999999993240e-03, 4.181510987562581e-04, -3.546513944580214e-05, 1.138952465937837e+01, -2.864885972960331e+03, -1.542924995057584e+02, 2.892781609424127e+03
597, 2.000000000000015e-04, 5.799999999990969e-03, 4.178662021172164e-04, -4.122534904100326e-05, -1.780281068924251e+01, -3.807459352315501e+03, -3.431992278169121e+02, 3.851316598695463e+03
598, -1.999999999999729e-04, 5.700000000009518e-03, 4.090187320837472e-04, 5.303683816548397e-06, 7.376463855630800e+01, 4.067469360266155e+03, 5.701322922081772e+02, 4.153297572614047e+03
599, -1.499999999999495e-04, 5.700000000007160e-03, 4.086391253594454e-04, -4.108214088756027e-07, 7.845527185935339e+01, 3.044825874306258e+03, 5.334865564263794e+02, 3.152425443148802e+03
600, -9.999999999991239e-05, 5.700000000004800e-03, 4.082742552582468e-04, -6.123602778878862e-06, 7.902079336566806e+01, 2.025539841585060e+03, 4.740449557795334e+02, 2.165135304197178e+03
601, -4.999999999989533e-05, 5.700000000002444e-03, 4.079240367191044e-04, -1.183578844323735e-05, 7.519498567279919e+01, 1.010147677588962e+03, 3.918457207817629e+02, 1.219962627173962e+03
602, 8.974483482748763e-17, 5.700000000000083e-03, 4.075883723018308e-04, -1.754850657497590e-05, 6.670883279992381e+01, -8.113217264151444e-01, 2.869281108829343e+02, 5.778147925820682e+02
603, 5.000000000003792e-05, 5.699999999997726e-03, 4.072671521388185e-04, -2.326288535251766e-05, 5.329098761100835e+01, -1.006794679365760e+03, 1.593320866043065e+02, 1.106945561722124e+03
604, 1.000000000000188e-04, 5.699999999995369e-03, 4.069602538889324e-04, -2.898005294946741e-05, 3.466791562475873e+01, -2.007256688193386e+03, 9.098274098514437e+00, 2.042005681197820e+03
605, 1.500000000000104e-04, 5.699999999993010e-03, 4.066675426926151e-04, -3.470113752568563e-05, 1.056398089594455e+01, -3.001648390139242e+03, -1.637319929162321e+02, 3.029959740695362e+03
606, 1.999999999999996e-04, 5.699999999990651e-03, 4.063888711278626e-04, -4.042726721779994e-05, -1.929846702099411e+01, -3.989417565879737e+03, -3.591165975687693e+02, 4.034563741189428e+03
607, -1.999999999999748e-04, 5.600000000009672e-03, 3.975788625267462e-04, 5.812073995011294e-06, 7.579984878844937e+01, 4.253333116631180e+03, 5.908549372054288e+02, 4.341453953598136e+03
608, -1.499999999999538e-04, 5.600000000007281e-03, 3.972010530808822e-04, 1.337099898115428e-07, 8.024655620164606e+01, 3.183954802201666e+03, 5.515030118114460e+02, 3.293877223643423e+03
609, -9.999999999991998e-05, 5.600000000004890e-03, 3.968386459536905e-04, -5.542916439779470e-06, 8.051546344184760e+01, 2.117993091469812e+03, 4.888244199275474e+02, 2.259892107775163e+03
610, -4.999999999990553e-05, 5.600000000002499e-03, 3.964915552237005e-04, -1.121895977184674e-05, 7.633744816085169e+01, 1.055984063772026e+03, 4.028533032525381e+02, 1.268412640761812e+03
611, 7.692414413784654e-17, 5.600000000000110e-03, 3.961596825713669e-04, -1.689557461665406e-05, 6.744238821675049e+01, -1.532153845535618e+00, 2.936246238594048e+02, 5.912860275695764e+02
612, 5.000000000002774e-05, 5.599999999997718e-03, 3.958429172361908e-04, -2.257391570087761e-05, 5.355811001348758e+01, -1.054011966102634e+03, 1.611740397700904e+02, 1.153524927295078e+03
613, 1.000000000000112e-04, 5.599999999995330e-03, 3.955411359704773e-04, -2.825513785668226e-05, 3.441020623667839e+01, -2.100908394350277e+03, 5.537902176594159e+00, 2.135347325250556e+03
614, 1.500000000000060e-04, 5.599999999992939e-03, 3.952542029923476e-04, -3.394039601205152e-05, 9.722011866547348e+00, -3.141671089685804e+03, -1.732466965956178e+02, 3.170384227824275e+03
615, 1.999999999999977e-04, 5.599999999990549e-03, 3.949819699387574e-04, -3.963084518036330e-05, -2.078540514733024e+01, -4.175746353907334e+03, -3.751418421944397e+02, 4.222158937413510e+03
616, -1.999999999999767e-04, 5.500000000009695e-03, 3.862113906541228e-04, 6.305515588442783e-06, 7.779508165440478e+01, 4.443592172808317e+03, 6.116589011998300e+02, 4.533948685946490e+03
617, -1.499999999999582e-04, 5.500000000007305e-03, 3.858354845443046e-04, 6.649334686593898e-07, 8.198540996861851e+01, 3.326399803740665e+03, 5.695855012478090e+02, 3.438594964726452e+03
618, -9.999999999992762e-05, 5.500000000004914e-03, 3.854756613925134e-04, -4.973897509996622e-06, 8.194905470077265e+01, 2.212677339529006e+03, 5.036532034767074e+02, 2.356834576557393e+03
619, -4.999999999991570e-05, 5.500000000002524e-03, 3.851318345872014e-04, -1.061215819911222e-05, 7.741646468674242e+01, 1.102961865945243e+03, 4.138924097130051e+02, 1.317941985564847e+03
620, 6.410345344820545e-17, 5.500000000000133e-03, 3.848039051048430e-04, -1.625102967812625e-05, 6.811645992442573e+01, -2.205690074177539e+00, 3.003337694508816e+02, 6.047699538425559e+02
621, 5.000000000001756e-05, 5.499999999997745e-03, 3.844917614662265e-04, -2.189169325164548e-05, 5.377578479176753e+01, -1.102280761288339e+03, 1.630084921911110e+02, 1.201146873550584e+03
622, 1.000000000000036e-04, 5.499999999995354e-03, 3.841952796892650e-04, -2.753533044283471e-05, 3.411891810591072e+01, -2.196715208727125e+03, 1.948448660703690e+00, 2.230837530447174e+03
623, 1.500000000000017e-04, 5.499999999992964e-03, 3.839143232403306e-04, -3.318312298545501e-05, 8.867987410634555e+00, -3.284957350433462e+03, -1.828137546911753e+02, 3.314056250554737e+03
624, 1.999999999999958e-04, 5.499999999990576e-03, 3.836487429846514e-04, -3.883625281488018e-05, -2.225728248005055e+01, -4.366451966767034e+03, -3.912446980672031e+02, 4.414104338373762e+03
625, -1.999999999999786e-04, 5.400000000009719e-03, 3.749196317521950e-04, 6.783534766348575e-06, 7.973382217540728e+01, 4.638249163244301e+03, 6.325095469248116e+02, 4.730785920179074e+03
626, -1.499999999999625e-04, 5.400000000007331e-03, 3.745457354385964e-04, 1.182412651224739e-06, 8.365898605136221e+01, 3.472164194777153e+03, 5.877068482212148e+02, 3.586581228321237e+03
627, -9.999999999993521e-05, 5.400000000004939e-03, 3.741886176847813e-04, -4.416944828665069e-06, 8.331256916984864e+01, 2.309596349011174e+03, 5.185128094286086e+02, 2.455964495376669e+03
628, -4.999999999992589e-05, 5.400000000002551e-03, 3.738481913558785e-04, -1.001574491120999e-05, 7.842587684412507e+01, 1.151084343903226e+03, 4.249532527459875e+02, 1.368552978525552e+03
629, 5.128276275856436e-17, 5.400000000000158e-03, 3.735243568994758e-04, -1.561519517035807e-05, 6.872712822948131e+01, -2.829904259850935e+00, 3.070542916730212e+02, 6.182635045334331e+02
630, 5.000000000000737e-05, 5.399999999997771e-03, 3.732170022951797e-04, -2.121650351884331e-05, 5.394208382002921e+01, -1.151600816784895e+03, 1.648425273910818e+02, 1.249810353831993e+03
631, 9.999999999999598e-05, 5.399999999995381e-03, 3.729260030044722e-04, -2.682087820502251e-05, 3.379410134825702e+01, -2.294679085605951e+03, -1.654820293256975e+00, 2.328475539078197e+03
632, 1.499999999999973e-04, 5.399999999992991e-03, 3.726512219199010e-04, -3.242952780724819e-05, 8.004114091061581e+00, -3.431511662061004e+03, -1.924098260307031e+02, 3.460976009597814e+03
633, 1.999999999999938e-04, 5.399999999990601e-03, 3.723925093135887e-04, -3.804366122728834e-05, -2.370944456257979e+01, -4.561541788770128e+03, -4.073937923634307e+02, 4.610401413365348e+03
634, -1.999999999999805e-04, 5.300000000009745e-03, 3.637069783730994e-04, 7.245656470586075e-06, 8.160045504902911e+01, 4.837309660783491e+03, 6.533742749003258e+02, 4.931973420641440e+03
635, -1.499999999999669e-04, 5.300000000007331e-03, 3.633351983679553e-04, 1.685710012893731e-06, 8.525168034792591e+01, 3.621251558934783e+03, 6.058423666293539e+02, 3.737843634260065e+03
636, -9.999999999994280e-05, 5.300000000004915e-03, 3.629809075037845e-04, -3.872458299801640e-06, 8.459350459877049e+01, 2.408753335628171e+03, 5.333864432432067e+02, 2.557288273056670e+03
637, -4.999999999993605e-05, 5.300000000002501e-03, 3.626440182988410e-04, -9.430082087766034e-06, 7.935643364290416e+01, 1.200354091471184e+03, 4.360271841156470e+02, 1.420251586870358e+03
638, 3.846207206892327e-17, 5.300000000000087e-03, 3.623244308487938e-04, -1.498839543556634e-05, 6.926808597864647e+01, -3.403348311752382e+00, 3.137858047033869e+02, 6.317651955396341e+02
639, 4.999999999999720e-05, 5.299999999997673e-03, 3.620220327717304e-04, -2.054863288977210e-05, 5.405339334932700e+01, -1.201972335835886e+03, 1.666840501464315e+02, 1.299513340704172e+03
640, 9.999999999998842e-05, 5.299999999995259e-03, 3.617366991543235e-04, -2.611202945617007e-05, 3.343470183834791e+01, -2.394802338904925e+03, -5.255723933281729e+00, 2.428259791820863e+03
641, 1.499999999999930e-04, 5.299999999992844e-03, 3.614682924982260e-04, -3.167982059520211e-05, 7.131805391761930e+00, -3.581338920691087e+03, -2.020104667500471e+02, 3.611143180027601e+03
642, 1.999999999999920e-04, 5.299999999990430e-03, 3.612166626665670e-04, -3.725324221605286e-05, -2.513798783051288e+01, -4.761023686065908e+03, -4.235563770589877e+02, 4.811051170476147e+03
643, -1.999999999999824e-04, 5.200000000009989e-03, 3.525768999010440e-04, 7.691405128224516e-06, 8.338889577241696e+01, 5.040783913493804e+03, 6.742197379452670e+02, 5.137514416706660e+03
644, -1.499999999999712e-04, 5.200000000007502e-03, 3.522073425683500e-04, 2.174387515794201e-06, 8.675766753894231e+01, 3.773671205984366e+03, 6.239675153365386e+02, 3.892386579048023e+03
645, -9.999999999995044e-05, 5.200000000005017e-03, 3.518559999220093e-04, -3.340838297801973e-06, 8.578604264933853e+01, 2.510155670163427e+03, 5.482578334071898e+02, 2.660810909926180e+03
646, -4.999999999994625e-05, 5.200000000002529e-03, 3.515227843254849e-04, -8.855532324861272e-06, 8.020317946786503e+01, 1.250776526402231e+03, 4.471062217166616e+02, 1.473043738163982e+03
647, 2.564138137928218e-17, 5.200000000000042e-03, 3.512075957119330e-04, -1.437095517482362e-05, 6.973588153677269e+01, -3.922612334046505e+00, 3.205287289754924e+02, 6.452753196224818e+02
648, 4.999999999998700e-05, 5.199999999997556e-03, 3.509103215275119e-04, -1.988836805091563e-05, 5.410824933285636e+01, -1.253394022144193e+03, 1.685419663503331e+02, 1.350254704714110e+03
649, 9.999999999998081e-05, 5.199999999995069e-03, 3.506308366745759e-04, -2.540903274643888e-05, 3.304164642298542e+01, -2.497085931023580e+03, -8.836824216591083e+00, 2.530189304381111e+03
650, 1.499999999999887e-04, 5.199999999992581e-03, 3.503690034553781e-04, -3.093421163989760e-05, 6.254745682220062e+00, -3.734442500466553e+03, -2.115896946591189e+02, 3.764557966466816e+03
651, 1.999999999999900e-04, 5.199999999990096e-03, 3.501246715161689e-04, -3.646516768902878e-05, -2.653639306102474e+01, -4.964903790043941e+03, -4.396978966460473e+02, 5.016055174023073e+03
652, -1.999999999999843e-04, 5.100000000010360e-03, 3.415329427498068e-04, 8.120305381416235e-06, 8.509559619032495e+01, 5.248683216525746e+03, 6.950097916090950e+02, 5.347409798641890e+03
653, -1.499999999999755e-04, 5.100000000007788e-03, 3.411657140382699e-04, 2.648007330711001e-06, 8.817403574801449e+01, 3.929433746581381e+03, 6.420553607471446e+02, 4.050211909410200e+03
654, -9.999999999995803e-05, 5.100000000005215e-03, 3.408174405009392e-04, -2.822484983259422e-06, 8.688688805198643e+01, 2.613811914387011e+03, 5.631092634050276e+02, 2.766535425193120e+03
655, -4.999999999995644e-05, 5.100000000002642e-03, 3.404880345500214e-04, -8.292457979779964e-06, 8.096291203130971e+01, 1.302357877660336e+03, 4.581817469096061e+02, 1.526934089890092e+03
656, 1.282069068964109e-17, 5.100000000000066e-03, 3.401773961589765e-04, -1.376319881163890e-05, 7.012811060387884e+01, -4.383822533036039e+00, 3.272834857230649e+02, 6.587943140980791e+02
657, 4.999999999997683e-05, 5.099999999997495e-03, 3.398854128031247e-04, -1.923599536284168e-05, 5.410560734147379e+01, -1.305864448123409e+03, 1.704257299776150e+02, 1.402033619252679e+03
658, 9.999999999997324e-05, 5.099999999994921e-03, 3.396119594011375e-04, -2.471213624409227e-05, 3.261570535647616e+01, -2.601531028648665e+03, -1.237962303501588e+01, 2.634263091746135e+03
659, 1.499999999999843e-04, 5.099999999992348e-03, 3.393568982566113e-04, -3.019291078789014e-05, 5.375898523355829e+00, -3.890826352538401e+03, -2.211199585312773e+02, 3.921220234241147e+03
660, 1.999999999999881e-04, 5.099999999989774e-03, 3.391200789996043e-04, -3.567960904232853e-05, -2.789915929162044e+01, -5.173188987811675e+03, -4.557818612301078e+02, 5.225414417974661e+03
661, -1.999999999999862e-04, 5.000000000010596e-03, 3.305787307626409e-04, 8.531882674203475e-06, 8.671256851125617e+01, 5.461017241858355e+03, 7.157062583645862e+02, 5.561662747327405e+03
662, -1.499999999999799e-04, 5.000000000007969e-03, 3.302139358315616e-04, 3.106132450965518e-06, 8.949279800338542e+01, 4.088546872485389e+03, 6.600773140695787e+02, 4.211323038289553e+03
663, -9.999999999996564e-05, 5.000000000005344e-03, 3.298688515021372e-04, -2.317797671705898e-06, 8.788914767782586e+01, 2.719728205384462e+03, 5.779218700987325e+02, 2.874465442029843e+03
664, -4.999999999996662e-05, 5.000000000002718e-03, 3.295433904464104e-04, -7.741220535065179e-06, 8.163017428114887e+01, 1.355102740067543e+03, 4.692444942084156e+02, 1.581927292004986e+03
665, 0.000000000000000e+00, 5.000000000000093e-03, 3.292374528861588e-04, -1.316544985821717e-05, 7.044082087058126e+01, -4.784242828883123e+00, 3.340503101241637e+02, 6.723222805952427e+02
666, 4.999999999996663e-05, 4.999999999997467e-03, 3.289509265336107e-04, -1.859180023183456e-05, 5.404313565265846e+01, -1.359383082431439e+03, 1.723450309814274e+02, 1.454848759419161e+03
667, 9.999999999996559e-05, 4.999999999994841e-03, 3.286836865316608e-04, -2.402158711447299e-05, 3.215629579557680e+01, -2.708139670046893e+03, -1.586499975996607e+01, 2.740479661169199e+03
668, 1.499999999999799e-04, 4.999999999992216e-03, 3.284355953934112e-04, -2.945612682851672e-05, 4.496576206679663e+00, -4.050495446674970e+03, -2.305727389528982e+02, 4.081129189014576e+03
669, 1.999999999999863e-04, 4.999999999989590e-03, 3.282065029411383e-04, -3.489673655569488e-05, -2.922271563322016e+01, -5.385887433521830e+03, -4.717703671249592e+02, 5.439129159806883e+03
670, -1.999999999999881e-04, 4.900000000010410e-03, 3.197179652920878e-04, 8.925663821049616e-06, 8.822307985880656e+01, 5.677787415197916e+03, 7.362714295797255e+02, 5.780277842020783e+03
671, -1.499999999999843e-04, 4.900000000007836e-03, 3.193557081416680e-04, 3.548327295452786e-06, 9.070026782850215e+01, 4.251012347846114e+03, 6.780052290819640e+02, 4.375724050461868e+03
672, -9.999999999997321e-05, 4.900000000005265e-03, 3.190139319791444e-04, -1.827174198283453e-06, 8.878307674541259e+01, 2.827907412996323e+03, 5.926768961396979e+02, 2.984604788294949e+03
673, -4.999999999997681e-05, 4.900000000002690e-03, 3.186925499410664e-04, -7.202179948197327e-06, 8.219816824696971e+01, 1.409013991137559e+03, 4.802851992858795e+02, 1.638027996856323e+03
674, -1.282069068964109e-17, 4.900000000000120e-03, 3.183914627065549e-04, -1.257803025945328e-05, 7.066967081770258e+01, -5.121851104165955e+00, 3.408295634688389e+02, 6.858596942033189e+02
675, 4.999999999995644e-05, 4.899999999997547e-03, 3.181105584376082e-04, -1.795606645296321e-05, 5.391882950744730e+01, -1.413949379138041e+03, 1.743099301356574e+02, 1.508699070367482e+03
676, 9.999999999995801e-05, 4.899999999994974e-03, 3.178497127167048e-04, -2.333763086405426e-05, 3.166386738661458e+01, -2.816913235843063e+03, -1.927316351150364e+01, 2.848837891557072e+03
677, 1.499999999999756e-04, 4.899999999992402e-03, 3.176087884834305e-04, -2.872406684011081e-05, 3.619968048620763e+00, -4.213453422176257e+03, -2.399184977822447e+02, 4.244284571144481e+03
678, 1.999999999999843e-04, 4.899999999989829e-03, 3.173876359708291e-04, -3.411671873686139e-05, -3.050068348654770e+01, -5.603005245805195e+03, -4.876241033118767e+02, 5.657200381954398e+03
679, -1.999999999999901e-04, 4.800000000010084e-03, 3.089544248717902e-04, 9.301177870993926e-06, 8.963269642066871e+01, 5.899010089941310e+03, 7.566642226106038e+02, 6.003251509262653e+03
680, -1.499999999999886e-04, 4.800000000007600e-03, 3.085948081653959e-04, 3.974158536385084e-06, 9.180077963034444e+01, 4.416844657941432e+03, 6.958082671091364e+02, 4.543412938268531e+03
681, -9.999999999998080e-05, 4.800000000005114e-03, 3.082564577445640e-04, -1.351010140898313e-06, 8.957032373941871e+01, 2.938360764202054e+03, 6.073535105448698e+02, 3.096953361088281e+03
682, -4.999999999998701e-05, 4.800000000002629e-03, 3.079392874314182e-04, -6.675693907236837e-06, 8.266702277492436e+01, 1.464099754596825e+03, 4.912932600781168e+02, 1.695238231677677e+03
683, -2.564138137928218e-17, 4.800000000000143e-03, 3.076431985896927e-04, -1.200125966862033e-05, 7.081446602693057e+01, -5.391389803312563e+00, 3.476209518136311e+02, 6.994059172055088e+02
684, 4.999999999994627e-05, 4.799999999997659e-03, 3.073680800598463e-04, -1.732907549721556e-05, 5.373309470774058e+01, -1.469560874391885e+03, 1.763304654688588e+02, 1.563583783653805e+03
685, 9.999999999995042e-05, 4.799999999995174e-03, 3.071138080930586e-04, -2.266051063289684e-05, 3.114014428416090e+01, -2.927852112675370e+03, -2.258374630312035e+01, 2.959336966135285e+03
686, 1.499999999999713e-04, 4.799999999992687e-03, 3.068802462848487e-04, -2.799693548242472e-05, 2.749617396461872e+00, -4.379703732775109e+03, -2.491265594339629e+02, 4.410686288650739e+03
687, 1.999999999999824e-04, 4.799999999990203e-03, 3.066672455083223e-04, -3.333972161676966e-05, -3.172763666808527e+01, -5.824549494930177e+03, -5.033020659525276e+02, 5.879628981485772e+03
688, -1.999999999999919e-04, 4.700000000009747e-03, 2.982919661050352e-04, 9.657956890400725e-06, 9.094206422016515e+01, 6.124701856873691e+03, 7.768384281244452e+02, 6.230583360254942e+03
689, -1.499999999999929e-04, 4.700000000007334e-03, 2.979350907259757e-04, 4.383195829577653e-06, 9.279303458978438e+01, 4.586057907038151e+03, 7.134509338442803e+02, 4.714390538976542e+03
690, -9.999999999998839e-05, 4.700000000004922e-03, 2.976002818037197e-04, -8.896981089500110e-07, 9.024775133992665e+01, 3.051098696956496e+03, 6.219279032068978e+02, 3.211512975111240e+03
691, -4.999999999999717e-05, 4.700000000002511e-03, 2.972874540902931e-04, -6.162117126910595e-06, 8.303332930912330e+01, 1.520367493655913e+03, 5.022563447406014e+02, 1.753560732717074e+03
692, -3.846207206892327e-17, 4.700000000000096e-03, 2.969965098770016e-04, -1.143545474461763e-05, 7.087251724586861e+01, -5.588056170780362e+00, 3.544233988940408e+02, 7.129586257431914e+02
693, 4.999999999993608e-05, 4.699999999997685e-03, 2.967273389239476e-04, -1.671110580777125e-05, 5.348468237460656e+01, -1.526215313177308e+03, 1.784166512367127e+02, 1.619500565514198e+03
694, 9.999999999994281e-05, 4.699999999995272e-03, 2.964798183910926e-04, -2.199046648969625e-05, 3.058588892687084e+01, -3.040956612939441e+03, -2.577574930745676e+01, 3.071975080917911e+03
695, 1.499999999999669e-04, 4.699999999992859e-03, 2.962538127695859e-04, -2.727493429129978e-05, 1.888931335937343e+00, -4.549249231680755e+03, -2.581650022586439e+02, 4.580333530697495e+03
696, 1.999999999999805e-04, 4.699999999990447e-03, 2.960491738130908e-04, -3.256590804033688e-05, -3.289688777980751e+01, -6.050525564273978e+03, -5.187615665646160e+02, 6.106415408399864e+03
697, -1.999999999999939e-04, 4.600000000009572e-03, 2.877345242196567e-04, 9.995536324241579e-06, 9.211611626135738e+01, 6.354853977727103e+03, 7.967504033400326e+02, 6.462285226011505e+03
698, -1.499999999999973e-04, 4.600000000007185e-03, 2.873804886267342e-04, 4.775012277249604e-06, 9.364754518026564e+01, 4.758645695405738e+03, 7.309004734616924e+02, 4.888667482047964e+03
699, -9.999999999999598e-05, 4.600000000004799e-03, 2.870493345894104e-04, -4.436271899626026e-07, 9.079408987908215e+01, 3.166118522594109e+03, 6.363782611920697e+02, 3.328292284599621e+03
700, -5.000000000000737e-05, 4.600000000002412e-03, 2.867409780263365e-04, -5.661800730704072e-06, 8.328201679550432e+01, 1.577816267770090e+03, 5.131636111483310e+02, 1.813003087301108e+03
701, -5.126921023140829e-17, 4.600000000000025e-03, 2.864553223926975e-04, -1.088092849170778e-05, 7.083343685418185e+01, -5.712567447278047e+00, 3.612370717528011e+02, 7.265178447971340e+02
702, 4.999999999992590e-05, 4.599999999997638e-03, 2.861922586066488e-04, -1.610243211309722e-05, 5.316685996965543e+01, -1.583914374080845e+03, 1.805796920520323e+02, 1.676445963223014e+03
703, 9.999999999993524e-05, 4.599999999995251e-03, 2.859516649775280e-04, -2.132773472928865e-05, 2.999732076511197e+01, -3.156230349268921e+03, -2.882692148403021e+01, 3.186749241923420e+03
704, 1.499999999999625e-04, 4.599999999992864e-03, 2.857334071343151e-04, -2.655826096955382e-05, 1.036394661935901e+00, -4.722096479435128e+03, -2.670005199908474e+02, 4.753224301153683e+03
705, 1.999999999999786e-04, 4.599999999990477e-03, 2.855373379540532e-04, -3.179543695661735e-05, -3.400759297214142e+01, -6.280943332908521e+03, -5.339581843236278e+02, 6.337558797306675e+03
706, -1.999999999999958e-04, 4.500000000009600e-03, 2.772861117524989e-04, 1.031345589860180e-05, 9.315354384823343e+01, 6.589479146535018e+03, 8.163571469557980e+02, 6.698358179559156e+03
707, -1.500000000000016e-04, 4.500000000007212e-03, 2.769350118312976e-04, 5.149185290518052e-06, 9.436164323408696e+01, 4.934618396933488e+03, 7.481256515280500e+02, 5.066246480741906e+03
708, -1.000000000000036e-04, 4.500000000004825e-03, 2.766076234669699e-04, -1.318211501632462e-08, 9.120572805232939e+01, 3.283428365211364e+03, 6.506839345937710e+02, 3.447295127508566e+03
709, -5.000000000001756e-05, 4.500000000002437e-03, 2.763038639968907e-04, -5.175091435182770e-06, 8.340978873053194e+01, 1.636452326144991e+03, 5.240051829523373e+02, 1.873570615179047e+03
710, -6.409667718462742e-17, 4.500000000000053e-03, 2.760236382894817e-04, -1.033798945635241e-05, 7.069514907439577e+01, -5.760454739788429e+00, 3.680631055250365e+02, 7.400859801060469e+02
711, 4.999999999991571e-05, 4.499999999997665e-03, 2.757668386717281e-04, -1.550332463154266e-05, 5.277958763736638e+01, -1.642655328938104e+03, 1.828319254260052e+02, 1.734419098189130e+03
712, 9.999999999992765e-05, 4.499999999995279e-03, 2.755333448553222e-04, -2.067254708144885e-05, 2.937728495186570e+01, -3.273672260706103e+03, -3.171358450106584e+01, 3.303658473092965e+03
713, 1.499999999999582e-04, 4.499999999992891e-03, 2.753230238624595e-04, -2.584710859534495e-05, 1.988262530830980e-01, -4.898245794895498e+03, -2.755980347064414e+02, 4.929358661468617e+03
714, 1.999999999999767e-04, 4.499999999990504e-03, 2.751357299513850e-04, -3.102846263214141e-05, -3.504878972800009e+01, -6.515805062466214e+03, -5.488452508497628e+02, 6.573060649663676e+03
715, -1.999999999999977e-04, 4.400000000009622e-03, 2.669508189736961e-04, 1.061126077322576e-05, 9.406231565791916e+01, 6.828594884073664e+03, 8.356097042451553e+02, 6.938796958145343e+03
716, -1.500000000000059e-04, 4.400000000007235e-03, 2.666027477453255e-04, 5.505297664338305e-06, 9.494200904661028e+01, 5.113991833454315e+03, 7.650896272157546e+02, 5.247123944655737e+03
717, -1.000000000000112e-04, 4.400000000004850e-03, 2.662792329232143e-04, 4.012577366103935e-07, 9.148578198693383e+01, 3.403040163543870e+03, 6.648204979124778e+02, 3.568520365611960e+03
718, -5.000000000002772e-05, 4.400000000002464e-03, 2.659801935303856e-04, -4.702330615753240e-06, 8.341747019774994e+01, 1.696284128324163e+03, 5.347688588632021e+02, 1.935264784605783e+03
719, -7.691736787426851e-17, 4.400000000000076e-03, 2.657055361163782e-04, -9.806940835438693e-06, 7.045741909803667e+01, -5.726455518656280e+00, 3.749014533659704e+02, 7.536633079136064e+02
720, 4.999999999990552e-05, 4.399999999997690e-03, 2.654551546840561e-04, -1.491404820792621e-05, 5.232244842726266e+01, -1.702436100778577e+03, 1.851854434022039e+02, 1.793419125526230e+03
721, 9.999999999991999e-05, 4.399999999995304e-03, 2.652289306140048e-04, -2.002512986499590e-05, 2.872571431081013e+01, -3.393283687980346e+03, -3.441149469970459e+01, 3.422701411639488e+03
722, 1.499999999999539e-04, 4.399999999992917e-03, 2.650267325878896e-04, -2.514166478748777e-05, -6.233311850748464e-01, -5.077702456123276e+03, -2.839210774435933e+02, 5.108735377150609e+03
723, 1.999999999999748e-04, 4.399999999990530e-03, 2.648484165114764e-04, -3.026513380592967e-05, -3.601916269842798e+01, -6.755120131697500e+03, -5.633743807931098e+02, 6.812920123070603e+03
724, -1.999999999999997e-04, 4.300000000009517e-03, 2.567328149303674e-04, 1.088850220008034e-05, 9.482741645425222e+01, 7.072203856651376e+03, 8.544564343725303e+02, 7.183603913160883e+03
725, -1.500000000000103e-04, 4.300000000007164e-03, 2.563878619513600e-04, 5.842938325389533e-06, 9.537610299505184e+01, 5.296769073666000e+03, 7.817529659999855e+02, 5.431301836092727e+03
726, -1.000000000000188e-04, 4.300000000004808e-03, 2.560683250811353e-04, 7.993191259357352e-07, 9.162516359651488e+01, 3.524957929968607e+03, 6.787613667299627e+02, 3.691969915438741e+03
727, -5.000000000003792e-05, 4.300000000002456e-03, 2.557741252934007e-04, -4.243853498024779e-06, 8.329845871334123e+01, 1.757315452607126e+03, 5.454409295167674e+02, 1.998088117729957e+03
728, -8.973805856390960e-17, 4.300000000000101e-03, 2.555051710906073e-04, -9.288079659918285e-06, 7.011575360198594e+01, -5.607823722912542e+00, 3.817511772621510e+02, 7.672482685070281e+02
729, 4.999999999989533e-05, 4.299999999997747e-03, 2.552613584257374e-04, -1.433486149735498e-05, 5.179300651530389e+01, -1.763255558743218e+03, 1.876519721422159e+02, 1.853443914674105e+03
730, 9.999999999991241e-05, 4.299999999995395e-03, 2.550425706234174e-04, -1.938570317895455e-05, 2.804234739363829e+01, -3.515065579862003e+03, -3.689635966299086e+01, 3.543876288699606e+03
731, 1.499999999999495e-04, 4.299999999993039e-03, 2.548486783004343e-04, -2.444211090885584e-05, -1.427975755766113e+00, -5.260469889120230e+03, -2.919329318278354e+02, 5.291353436812414e+03
732, 1.999999999999729e-04, 4.299999999990687e-03, 2.546795392855330e-04, -2.950559293059275e-05, -3.691340066868457e+01, -6.998894462639622e+03, -5.774961996164544e+02, 7.057137362240286e+03
733, -2.000000000000014e-04, 4.200000000009198e-03, 2.466363472131657e-04, 1.114473826812457e-05, 9.543803292363793e+01, 7.320312470677597e+03, 8.728457263527015e+02, 7.432782069276569e+03
734, -1.500000000000147e-04, 4.200000000006931e-03, 2.462945981272733e-04, 6.161703078579565e-06, 9.565350536993276e+01, 5.482955839588037e+03, 7.980767470824246e+02, 5.618783891306595e+03
735, -1.000000000000264e-04, 4.200000000004664e-03, 2.459791396967662e-04, 1.180635735715620e-06, 9.161513237019290e+01, 3.649186950246081e+03, 6.924802734135748e+02, 3.817647568282398e+03
736, -5.000000000004811e-05, 4.200000000002396e-03, 2.456898951236093e-04, -3.799988346690254e-06, 8.304611989912019e+01, 1.819550885639488e+03, 5.560080091903536e+02, 2.062044719828911e+03
737, -1.025587492535507e-16, 4.200000000000129e-03, 2.454267751437750e-04, -8.781695959862244e-06, 6.966585282100709e+01, -5.401037837701608e+00, 3.886118826177918e+02, 7.808404570206030e+02
738, 4.999999999988515e-05, 4.199999999997860e-03, 2.451896779436077e-04, -1.376601611055401e-05, 5.118962803404406e+01, -1.825111530809350e+03, 1.902441502498069e+02, 1.914491416928827e+03
739, 9.999999999990481e-05, 4.199999999995591e-03, 2.449784890770789e-04, -1.875448002871989e-05, 2.732871168886368e+01, -3.639017286873157e+03, -3.914249310081550e+01, 3.667181686286668e+03
740, 1.499999999999452e-04, 4.199999999993324e-03, 2.447930813832333e-04, -2.374862117340999e-05, -2.209617878387121e+00, -5.446548931112370e+03, -2.995948160826231e+02, 5.477212682826859e+03
741, 1.999999999999710e-04, 4.199999999991056e-03, 2.446333149039149e-04, -2.874997523704014e-05, -3.772217472234786e+01, -7.247131104694720e+03, -5.911589433132062e+02, 7.305713702616749e+03
742, -2.000000000000034e-04, 4.100000000008875e-03, 2.366657418620693e-04, 1.137953491154228e-05, 9.589173418060045e+01, 7.572933108553051e+03, 8.907234240433260e+02, 7.686332063255876e+03
743, -1.500000000000190e-04, 4.100000000006694e-03, 2.363272779925528e-04, 6.461195551583105e-06, 9.577041815707901e+01, 5.672562975959761e+03, 8.140204101453224e+02, 5.809572458046808e+03
744, -1.000000000000340e-04, 4.100000000004513e-03, 2.360159941344867e-04, 1.544849081792538e-06, 9.145057501844963e+01, 3.775735496002682e+03, 7.059501754369951e+02, 3.945556738888682e+03
745, -5.000000000005830e-05, 4.100000000002334e-03, 2.357318160168998e-04, -3.371055566406014e-06, 8.265530924512063e+01, 1.882996427626507e+03, 5.664565327828906e+02, 2.127138960355998e+03
746, -1.153726636796137e-16, 4.100000000000152e-03, 2.354746569046074e-04, -8.288071869443755e-06, 6.910331082017865e+01, -5.102353564881355e+00, 3.954834925904071e+02, 7.944402131519114e+02
747, 4.999999999987496e-05, 4.099999999997971e-03, 2.352444175118304e-04, -1.320775571940292e-05, 5.050907127362143e+01, -1.888002751519732e+03, 1.929754162211649e+02, 1.976559164855061e+03
748, 9.999999999989721e-05, 4.099999999995790e-03, 2.350409859165535e-04, -1.813166543134998e-05, 2.658291879743706e+01, -3.765140426998872e+03, -4.112290390347206e+01, 3.792615232785758e+03
749, 1.499999999999408e-04, 4.099999999993610e-03, 2.348642374752339e-04, -2.306136174956066e-05, -2.968972520735520e+00, -5.635944780700363e+03, -3.068661546595295e+02, 5.666311304811891e+03
750, 1.999999999999691e-04, 4.099999999991429e-03, 2.347140347375580e-04, -2.799840785242371e-05, -3.844457546312719e+01, -7.499838919103542e+03, -6.043084348312503e+02, 7.558648046373237e+03
751, -2.000000000000054e-04, 4.000000000008551e-03, 2.268254037402002e-04, 1.159246679885475e-05, 9.617451070508594e+01, 7.830069348313952e+03, 9.080339420046791e+02, 7.944257795321304e+03
752, -1.500000000000234e-04, 4.000000000006458e-03, 2.264903015435108e-04, 6.741028108079803e-06, 9.571463739437502e+01, 5.865594423813760e+03, 8.295423620677568e+02, 6.003671782467028e+03
753, -1.000000000000416e-04, 4.000000000004365e-03, 2.261832835237732e-04, 1.891609434713692e-06, 9.112182826945946e+01, 3.904607915855768e+03, 7.191434799704748e+02, 4.075701843774948e+03
754, -5.000000000006849e-05, 4.000000000002271e-03, 2.259042782400942e-04, -2.957366778816144e-06, 8.211856770717247e+01, 1.947656039399103e+03, 5.767727907807335e+02, 2.193375815273503e+03
755, -1.282069068964109e-16, 4.000000000000177e-03, 2.256532017883279e-04, -7.807480704969777e-06, 6.842284376300211e+01, -4.708768219168746e+00, 4.023661596505671e+02, 8.080484752778717e+02
756, 4.999999999986478e-05, 3.999999999998083e-03, 2.254299577131593e-04, -1.266031513843972e-05, 4.974837063053906e+01, -1.951927615283786e+03, 1.958597895851935e+02, 2.039644817435504e+03
757, 9.999999999988963e-05, 3.999999999995989e-03, 2.252344369201951e-04, -1.751745550337992e-05, 2.580458938392587e+01, -3.893435130029609e+03, -4.280970484468699e+01, 3.920174825380144e+03
758, 1.499999999999365e-04, 3.999999999993896e-03, 2.250665175879647e-04, -2.238048986022248e-05, -3.703346602679517e+00, -5.828659450832409e+03, -3.137052148279957e+02, 5.858648091790827e+03
759, 1.999999999999672e-04, 3.999999999991804e-03, 2.249260650798699e-04, -2.725100891169583e-05, -3.907450973286245e+01, -7.757022159289985e+03, -6.168890342120764e+02, 7.815940394055519e+03
760, -2.000000000000072e-04, 3.900000000008219e-03, 2.171198163220230e-04, 1.178311828489232e-05, 9.627759745193123e+01, 8.091726954242853e+03, 9.247208965079330e+02, 8.206561116738369e+03
761, -1.500000000000277e-04, 3.900000000006203e-03, 2.167881469469009e-04, 7.000822830033420e-06, 9.547862684265988e+01, 6.062055999588137e+03, 8.446005922994912e+02, 6.201084275109390e+03
762, -1.000000000000492e-04, 3.900000000004186e-03, 2.164854807111578e-04, 2.220576808401081e-06, 9.062250036493083e+01, 4.035809794288999e+03, 7.320321954344430e+02, 4.208085945504226e+03
763, -5.000000000007867e-05, 3.900000000002170e-03, 2.162117493127624e-04, -2.559223834810591e-06, 8.143066020052731e+01, 2.013534521217010e+03, 5.869429367800888e+02, 2.260759468386441e+03
764, -1.410275975860520e-16, 3.900000000000153e-03, 2.159668719894389e-04, -7.340185979924900e-06, 6.762056009102275e+01, -4.216750198339241e+00, 4.092602809861837e+02, 8.216669091068292e+02
765, 4.999999999985460e-05, 3.899999999998138e-03, 2.157507554291562e-04, -1.212391934123655e-05, 4.890527693750914e+01, -2.016884273294949e+03, 1.989119896909374e+02, 2.103746749117121e+03
766, 9.999999999988204e-05, 3.899999999996121e-03, 2.155632936794732e-04, -1.691203647575751e-05, 2.499346546037521e+01, -4.023901604022978e+03, -4.417379723469119e+01, 4.049858834716975e+03
767, 1.499999999999321e-04, 3.899999999994104e-03, 2.154043680565688e-04, -2.170615279089535e-05, -4.410642954853870e+00, -6.024695570105573e+03, -3.200684690003694e+02, 6.054222155113827e+03
768, 1.999999999999652e-04, 3.899999999992088e-03, 2.152738470543993e-04, -2.650788655107895e-05, -3.960734420526967e+01, -8.018686345045598e+03, -6.288428501296837e+02, 8.077590916993011e+03
769, -2.000000000000091e-04, 3.800000000007874e-03, 2.075535417754651e-04, 1.195108456152480e-05, 9.620451904831225e+01, 8.357920179464387e+03, 9.407241685851911e+02, 8.473239846658740e+03
770, -1.500000000000321e-04, 3.800000000005924e-03, 2.072253706370883e-04, 7.240212621306326e-06, 9.506380816730689e+01, 6.261959954018274e+03, 8.591497584945298e+02, 6.401809221134003e+03
771, -1.000000000000568e-04, 3.800000000003971e-03, 2.069271363543516e-04, 2.531422032179816e-06, 8.995178042987880e+01, 4.169350742096910e+03, 7.445860051054832e+02, 4.342709887207046e+03
772, -5.000000000008884e-05, 3.800000000002021e-03, 2.066587740886246e-04, -2.176917766716550e-06, 8.058971040734502e+01, 2.080639156919682e+03, 5.969516812248853e+02, 2.329292387692703e+03
773, -1.538415120121150e-16, 3.800000000000070e-03, 2.064202065462226e-04, -6.886440374472084e-06, 6.669448300338024e+01, -3.621241803154589e+00, 4.161655980578543e+02, 8.352960679797759e+02
774, 4.999999999984441e-05, 3.799999999998119e-03, 2.062113438858176e-04, -1.159878244238055e-05, 4.797847015028117e+01, -2.082869970388381e+03, 2.021467836261090e+02, 2.168863380913508e+03
775, 9.999999999987444e-05, 3.799999999996168e-03, 2.060320836247772e-04, -1.631558368477283e-05, 2.414946488896237e+01, -4.156539619215992e+03, -4.518540010081909e+01, 4.181665708719841e+03
776, 1.499999999999278e-04, 3.799999999994218e-03, 2.058823105450046e-04, -2.103848688805050e-05, -5.089323397594171e+00, -6.224055809996334e+03, -3.259111472590016e+02, 6.253032581481484e+03
777, 1.999999999999633e-04, 3.799999999992265e-03, 2.057618965987182e-04, -2.576913791761507e-05, -4.003917487850254e+01, -8.284837084888200e+03, -6.401101202384089e+02, 8.343599729195235e+03
778, -2.000000000000110e-04, 3.700000000007529e-03, 1.981312216342469e-04, 1.209597262054942e-05, 9.594363315943690e+01, 8.628652472235932e+03, 9.559808974513176e+02, 8.744296314605393e+03
779, -1.500000000000364e-04, 3.700000000005644e-03, 1.978066077848590e-04, 7.458842197299824e-06, 9.446014169842340e+01, 6.465310588195772e+03, 8.731422766673629e+02, 6.605849313513814e+03
780, -1.000000000000644e-04, 3.700000000003758e-03, 1.975128792506304e-04, 2.823827753449489e-06, 8.910147209324896e+01, 4.305235454315275e+03, 7.567729495068201e+02, 4.479576647906403e+03
781, -5.000000000009902e-05, 3.700000000001873e-03, 1.972499749877172e-04, -1.810727775449169e-06, 7.958915818637854e+01, 2.148974289713127e+03, 6.067827327313805e+02, 2.398978107767519e+03
782, -1.666825314924902e-16, 3.699999999999988e-03, 1.970178215058236e-04, -6.446484716502263e-06, 6.563973675958573e+01, -2.918792261335284e+00, 4.230814705672578e+02, 8.489358013718860e+02
783, 4.999999999983423e-05, 3.699999999998102e-03, 1.968163327711283e-04, -1.108510667488147e-05, 4.696496563326946e+01, -2.149882600792686e+03, 2.055791688478514e+02, 2.234992261456029e+03
784, 9.999999999986681e-05, 3.699999999996217e-03, 1.966454101093305e-04, -1.572826054677742e-05, 2.327184332058278e+01, -4.291348796834104e+03, -4.581389325537350e+01, 4.315593460893843e+03
785, 1.499999999999234e-04, 3.699999999994331e-03, 1.965049421081397e-04, -2.037761653053878e-05, -5.737433418226374e+00, -6.426741863191203e+03, -3.311870496075405e+02, 6.455078414277797e+03
786, 1.999999999999614e-04, 3.699999999992445e-03, 1.963948045189393e-04, -2.503484813541091e-05, -4.036540006789789e+01, -8.555478979320653e+03, -6.506290869166714e+02, 8.613967268485687e+03
787, -2.000000000000130e-04, 3.600000000007325e-03, 1.888575766901314e-04, 1.221740225285890e-05, 9.548727286038604e+01, 8.903930654992266e+03, 9.704272245768830e+02, 9.019733411194749e+03
788, -1.500000000000407e-04, 3.600000000005489e-03, 1.885365722705542e-04, 7.656369084819989e-06, 9.365905091975685e+01, 6.672113664326917e+03, 8.865300826673906e+02, 6.813208308172807e+03
789, -1.000000000000720e-04, 3.600000000003653e-03, 1.882474163523858e-04, 3.097489455831647e-06, 8.806362474571586e+01, 4.443469151318539e+03, 7.685607414192067e+02, 4.618690263906474e+03
790, -5.000000000010923e-05, 3.600000000001818e-03, 1.879900520297017e-04, -1.460920198618912e-06, 7.842216380040168e+01, 2.218544446779185e+03, 6.164196784572688e+02, 2.469821100011046e+03
791, -1.794761171278192e-16, 3.599999999999982e-03, 1.877644099591690e-04, -6.020546940265639e-06, 6.445083839015479e+01, -2.105919012605682e+00, 4.300074596400182e+02, 8.625864961499324e+02
792, 4.999999999982404e-05, 3.599999999998146e-03, 1.875704082603385e-04, -1.058308134285989e-05, 4.586091124152540e+01, -2.217920088371927e+03, 2.092247716155851e+02, 2.302130412127266e+03
793, 9.999999999985923e-05, 3.599999999996311e-03, 1.874079524156784e-04, -1.515021750684686e-05, 2.235873666022576e+01, -4.428328808958308e+03, -4.602749148005722e+01, 4.451639445037269e+03
794, 1.499999999999191e-04, 3.599999999994474e-03, 1.872769351699557e-04, -1.972365307306312e-05, -6.354276613679303e+00, -6.632755382334197e+03, -3.358481335950320e+02, 6.660357909996366e+03
795, 1.999999999999595e-04, 3.599999999992638e-03, 1.871772364285934e-04, -2.430508923565917e-05, -4.058199183341776e+01, -8.830615831350351e+03, -6.603355439827405e+02, 8.888693212302960e+03
796, -2.000000000000149e-04, 3.500000000007369e-03, 1.797374069960552e-04, 1.231500719585296e-05, 9.482856293988687e+01, 9.183760306572936e+03, 9.839973327625212e+02, 9.299552851828710e+03
797, -1.500000000000451e-04, 3.500000000005565e-03, 1.794200567016339e-04, 7.832464755939033e-06, 9.265399560437913e+01, 6.882375012944152e+03, 8.992637600764619e+02, 7.023888718797649e+03
798, -1.000000000000796e-04, 3.500000000003764e-03, 1.791355327993830e-04, 3.352116579525881e-06, 8.683184453166575e+01, 4.584057265396891e+03, 7.799161487205124e+02, 4.760053915893867e+03
799, -5.000000000011939e-05, 3.500000000001962e-03, 1.788837828734874e-04, -1.127747399737838e-06, 7.708267990053048e+01, 2.289354205118875e+03, 6.258455290224273e+02, 2.541825290235611e+03
800, -1.923239128717724e-16, 3.500000000000160e-03, 1.786647420811828e-04, -5.608840983779708e-06, 6.312230710122708e+01, -1.179357785011575e+00, 4.369429146345074e+02, 8.762483362063152e+02
801, 4.999999999981385e-05, 3.499999999998358e-03, 1.784783330510940e-04, -1.009288172734980e-05, 4.466153282974881e+01, -2.286981011101444e+03, 2.130993656848858e+02, 2.370274733293828e+03
802, 9.999999999985163e-05, 3.499999999996555e-03, 1.783244657802745e-04, -1.458159095502128e-05, 2.140609791095949e+01, -4.567480707907570e+03, -4.579392430768610e+01, 4.589800698356016e+03
803, 1.499999999999148e-04, 3.499999999994753e-03, 1.782030375304431e-04, -1.907669377757538e-05, -6.943362747860647e+00, -6.842100719565527e+03, -3.398455375503239e+02, 6.868868614992584e+03
804, 1.999999999999576e-04, 3.499999999992950e-03, 1.781139327235125e-04, -2.357991910768769e-05, -4.069126375706253e+01, -9.110255484428108e+03, -6.691638192529240e+02, 9.167775958260816e+03
805, -2.000000000000167e-04, 3.400000000007423e-03, 1.707755919839225e-04, 1.238843633893183e-05, 9.396476607153591e+01, 9.468148568584200e+03, 9.966228725427471e+02, 9.583754512903190e+03
806, -1.500000000000494e-04, 3.400000000005649e-03, 1.704619325243200e-04, 7.986815830926831e-06, 9.144214673791112e+01, 7.096102085621916e+03, 9.112916038509471e+02, 7.237891295702319e+03
807, -1.000000000000872e-04, 3.400000000003875e-03, 1.701820920214806e-04, 3.587433709686634e-06, 8.540283594218511e+01, 4.727006738806358e+03, 7.908042950815849e+02, 4.903669291822385e+03
808, -5.000000000012958e-05, 3.400000000002102e-03, 1.699360229133621e-04, -8.114465922499604e-07, 7.556746666775405e+01, 2.361409730058893e+03, 6.350423175002700e+02, 2.614993275932001e+03
809, -2.051242747706794e-16, 3.400000000000329e-03, 1.697236652253230e-04, -5.211565620867360e-06, 6.165165043870149e+01, -1.338871757366178e-01, 4.438868379005835e+02, 8.899210931896270e+02
810, 4.999999999980369e-05, 3.399999999998554e-03, 1.695449464652106e-04, -9.614667922675093e-06, 4.336583613189111e+01, -2.357061218052784e+03, 2.172189687346042e+02, 2.439423367104246e+03
811, 9.999999999984403e-05, 3.399999999996781e-03, 1.693997815172908e-04, -1.402250206462744e-05, 2.041525050331450e+01, -4.708801489569880e+03, -4.508012355874337e+01, 4.730076092913181e+03
812, 1.499999999999104e-04, 3.399999999995008e-03, 1.692880725355125e-04, -1.843682065270135e-05, -7.500112546355695e+00, -7.054775984774689e+03, -3.431291231838568e+02, 7.080610679877782e+03
813, 1.999999999999557e-04, 3.399999999993234e-03, 1.692097088365616e-04, -2.285938034986139e-05, -4.068531680784906e+01, -9.394397867227137e+03, -6.770464272821282e+02, 9.451217166833767e+03
814, -2.000000000000187e-04, 3.300000000007353e-03, 1.619770907543019e-04, 1.243735491968569e-05, 9.289246074181051e+01, 9.757101692261429e+03, 1.008232623702102e+03, 9.872338738342498e+03
815, -1.500000000000538e-04, 3.300000000005614e-03, 1.616671502385431e-04, 8.119125271279220e-06, 9.001902959471499e+01, 7.313300965571703e+03, 9.225596370734747e+02, 7.455217438977889e+03
816, -1.000000000000948e-04, 3.300000000003875e-03, 1.613920358883916e-04, 3.803181769095446e-06, 8.377187285062541e+01, 4.872323395743307e+03, 8.011887854834869e+02, 5.049538549940562e+03
817, -5.000000000013977e-05, 3.300000000002137e-03, 1.611517053722203e-04, -5.122386461980550e-07, 7.387204498534027e+01, 2.434716301617563e+03, 6.439913330362707e+02, 2.689327974081384e+03
818, -2.179652942510546e-16, 3.300000000000398e-03, 1.609461039636731e-04, -4.828903265351512e-06, 6.003511483633611e+01, 1.034915930012517e+00, 4.508382711729333e+02, 9.036047866671487e+02
819, 4.999999999979350e-05, 3.299999999998659e-03, 1.607751644326493e-04, -9.148583635288599e-06, 4.197127563482502e+01, -2.428157471430916e+03, 2.216004530236037e+02, 2.509574280670256e+03
820, 9.999999999983644e-05, 3.299999999996922e-03, 1.606388069360337e-04, -1.347305558150627e-05, 1.938534510151817e+01, -4.852289437359608e+03, -4.385129378092728e+01, 4.872464153786327e+03
821, 1.499999999999061e-04, 3.299999999995182e-03, 1.605369389079406e-04, -1.780409922897019e-05, -8.023255514175730e+00, -7.270781372312985e+03, -3.456460532508341e+02, 7.295583611996953e+03
822, 1.999999999999538e-04, 3.299999999993444e-03, 1.604694549496984e-04, -2.214349902049047e-05, -4.056067337836441e+01, -9.683045559364235e+03, -6.839127003418622e+02, 9.739017460874662e+03
823, -2.000000000000206e-04, 3.200000000007042e-03, 1.533469422400996e-04, 1.246144570013576e-05, 9.160435344274765e+01, 1.005062269273646e+04, 1.018753340277436e+03, 1.016530765671626e+04
824, -1.500000000000580e-04, 3.200000000005365e-03, 1.530407395227790e-04, 8.229113555694760e-06, 8.837688027917625e+01, 7.533975138335331e+03, 9.330125968691520e+02, 7.675870207607403e+03
825, -1.000000000001024e-04, 3.200000000003689e-03, 1.527703848012722e-04, 3.999119202125248e-06, 8.193158826833792e+01, 5.020011133083126e+03, 8.110323870948348e+02, 5.197665218401933e+03
826, -5.000000000014997e-05, 3.200000000002012e-03, 1.525358413621308e-04, -2.303268991234974e-07, 7.198966204700025e+01, 2.509277761328564e+03, 6.526734754316481e+02, 2.764833438207018e+03
827, -2.307656561499616e-16, 3.200000000000335e-03, 1.523370601169323e-04, -4.461018781405602e-06, 5.826667056889528e+01, 2.330286611163388e+00, 4.577963451878225e+02, 9.172997621931330e+02
828, 4.999999999978330e-05, 3.199999999998658e-03, 1.521739794899749e-04, -8.694754998316482e-06, 4.047264589496626e+01, -2.500267708275908e+03, 2.262612723434332e+02, 2.580724355827684e+03
829, 9.999999999982882e-05, 3.199999999996980e-03, 1.520465253055593e-04, -1.293333864828075e-05, 1.831206537696380e+01, -4.997944257649868e+03, -4.207157092040535e+01, 5.016961985766437e+03
830, 1.499999999999017e-04, 3.199999999995303e-03, 1.519546106748101e-04, -1.717857739754686e-05, -8.516194192992657e+00, -7.490118971676796e+03, -3.473420099879917e+02, 7.513785065309185e+03
831, 1.999999999999519e-04, 3.199999999993626e-03, 1.518981358818138e-04, -2.143228350213020e-05, -4.031892290311953e+01, -9.976202996528811e+03, -6.896897708047570e+02, 1.003117541688608e+04
832, -2.000000000000225e-04, 3.100000000006703e-03, 1.448902651552388e-04, 1.246041022569827e-05, 9.009521705452585e+01, 1.034871467792269e+04, 1.028110097743721e+03, 1.046266288930468e+04
833, -1.500000000000624e-04, 3.100000000005093e-03, 1.445878092176407e-04, 8.316519934160101e-06, 8.651013589818183e+01, 7.758128666093112e+03, 9.425940294932501e+02, 7.899852206881817e+03
834, -1.000000000001100e-04, 3.100000000003483e-03, 1.443222376990644e-04, 4.175023224289109e-06, 7.987625874448258e+01, 5.170074472764364e+03, 8.202970663552298e+02, 5.348052633089467e+03
835, -5.000000000016015e-05, 3.100000000001875e-03, 1.440935199030125e-04, 3.410408905161740e-08, 6.991474454362412e+01, 2.585098643610070e+03, 6.610692410460038e+02, 2.841513718416937e+03
836, -2.436134518939148e-16, 3.100000000000265e-03, 1.439016127803818e-04, -4.108058243151059e-06, 5.634127585586964e+01, 3.756382934473891e+00, 4.647602071838807e+02, 9.310066442781005e+02
837, 4.999999999977311e-05, 3.099999999998656e-03, 1.437464608140223e-04, -8.253289336799195e-06, 3.886584850183851e+01, -2.573388509305880e+03, 2.312193223700605e+02, 2.652870582978841e+03
838, 9.999999999982122e-05, 3.099999999997047e-03, 1.436279959024734e-04, -1.240341957607227e-05, 1.719271388128300e+01, -5.145763599762611e+03, -3.970424483135446e+01, 5.163566945903371e+03
839, 1.499999999998973e-04, 3.099999999995438e-03, 1.435461372431635e-04, -1.656028419033358e-05, -8.979636879366240e+00, -7.712787748170836e+03, -3.481614060552627e+02, 7.735213305026939e+03
840, 1.999999999999499e-04, 3.099999999993829e-03, 1.435007912152909e-04, -2.072572327801841e-05, -3.995841179705508e+01, -1.027387097589624e+04, -6.943030595137219e+02, 1.032769060939703e+04
841, -2.000000000000244e-04, 3.000000000006373e-03, 1.366122580528885e-04, 1.243397017618352e-05, 8.836390767624459e+01, 1.065138217178206e+04, 1.036225313982018e+03, 1.076440460281857e+04
842, -1.500000000000668e-04, 3.000000000004845e-03, 1.363135473791058e-04, 8.381103768822323e-06, 8.441655911607484e+01, 7.985766964364484e+03, 9.512453236603744e+02, 8.127164874029696e+03
843, -1.000000000001176e-04, 3.000000000003318e-03, 1.360527721010131e-04, 4.330691147085715e-06, 7.760239130965874e+01, 5.322518884545084e+03, 8.289433238253965e+02, 5.500703332981318e+03
844, -5.000000000017031e-05, 3.000000000001789e-03, 1.358299079518078e-04, 2.808898493586763e-07, 6.764313605887389e+01, 2.662184189960733e+03, 6.691583500201471e+02, 2.919372341786658e+03
845, -2.564273663199779e-16, 3.000000000000262e-03, 1.356449183373748e-04, -3.770147628549296e-06, 5.425473246963929e+01, 5.317967962459988e+00, 4.717288900074802e+02, 9.447260923628544e+02
846, 4.999999999976296e-05, 2.999999999998735e-03, 1.354977542171437e-04, -7.824273864688585e-06, 3.714722599721881e+01, -2.647515876903363e+03, 2.364930409794410e+02, 2.726010236554991e+03
847, 9.999999999981362e-05, 2.999999999997206e-03, 1.353883539844905e-04, -1.188334654031095e-05, 1.602474402892403e+01, -5.295744548709238e+03, -3.671138180644064e+01, 5.312276717330587e+03
848, 1.499999999998930e-04, 2.999999999995678e-03, 1.353166433465492e-04, -1.594922846785595e-05, -9.414541850731553e+00, -7.938786294644269e+03, -3.480467369379217e+02, 7.959866991248824e+03
849, 1.999999999999481e-04, 2.999999999994151e-03, 1.352825352034110e-04, -2.002378761734395e-05, -3.947842701346167e+01, -1.057605032493565e+04, -6.976754174312620e+02, 1.062856299376521e+04
850, -2.000000000000263e-04, 2.900000000006043e-03, 1.285181995635398e-04, 1.238186871365065e-05, 8.640872558173930e+01, 1.095862875646057e+04, 1.043018487197512e+03, 1.107053380187180e+04
851, -1.500000000000711e-04, 2.900000000004594e-03, 1.282232214466969e-04, 8.422645874795149e-06, 8.209254211084590e+01, 8.216894007700597e+03, 9.589055934590995e+02, 8.357810397061528e+03
852, -1.000000000001252e-04, 2.900000000003146e-03, 1.279672442204914e-04, 4.465941716968490e-06, 7.510541861628485e+01, 5.477348743134922e+03, 8.369301357590414e+02, 5.655620314861383e+03
853, -5.000000000018052e-05, 2.900000000001698e-03, 1.277502504737775e-04, 5.098873398756922e-07, 6.516986373949783e+01, 2.740538971702339e+03, 6.769196950485417e+02, 2.998413073280653e+03
854, -2.692480570096190e-16, 2.900000000000249e-03, 1.275722104951306e-04, -3.447391486632211e-06, 5.200210785564741e+01, 7.019489942044515e+00, 4.787012756015511e+02, 9.584587007088879e+02
855, 4.999999999975274e-05, 2.899999999998802e-03, 1.274330821508783e-04, -7.407774355406554e-06, 3.531234702251163e+01, -2.722645824910862e+03, 2.421013951969869e+02, 2.800140285835584e+03
856, 9.999999999980604e-05, 2.899999999997354e-03, 1.273328107625347e-04, -1.137314625412526e-05, 1.480471215878401e+01, -5.447883929787215e+03, -3.305381723174509e+01, 5.463088633564367e+03
857, 1.499999999998886e-04, 2.899999999995905e-03, 1.272713289834315e-04, -1.534539759627457e-05, -9.822772892490889e+00, -8.168112535423341e+03, -3.469385158722026e+02, 8.187744328238278e+03
858, 1.999999999999462e-04, 2.899999999994458e-03, 1.272485566745619e-04, -1.932642425074486e-05, -3.887835444930454e+01, -1.088274012060040e+04, -6.997270327234237e+02, 1.093379209993903e+04
859, -2.000000000000283e-04, 2.800000000005697e-03, 1.206134485084314e-04, 1.230387180769857e-05, 8.422319695062652e+01, 1.127045306625172e+04, 1.048407384882395e+03, 1.138105315283026e+04
860, -1.500000000000755e-04, 2.800000000004316e-03, 1.203221783259720e-04, 8.440949862424642e-06, 7.953121426569294e+01, 8.451510110900294e+03, 9.655128129007413e+02, 8.591792048996364e+03
861, -1.000000000001328e-04, 2.800000000002934e-03, 1.200709890241040e-04, 4.580616469448758e-06, 7.237871589345832e+01, 5.634566064554579e+03, 8.442156243960684e+02, 5.812807254976171e+03
862, -5.000000000019071e-05, 2.800000000001552e-03, 1.198598704797874e-04, 7.209763048779685e-07, 6.248839501585837e+01, 2.820165980300651e+03, 6.843316728870564e+02, 3.078640124868081e+03
863, -2.820416426449479e-16, 2.800000000000171e-03, 1.196888003003363e-04, -3.139871578365786e-06, 4.957694576752090e+01, 8.864245908617022e+00, 4.856761765847740e+02, 9.722051830441038e+02
864, 4.999999999974258e-05, 2.799999999998790e-03, 1.195577436988255e-04, -7.003833786551859e-06, 3.335488416905923e+01, -2.798775404204288e+03, 2.480637456524710e+02, 2.875257285522503e+03
865, 9.999999999979847e-05, 2.799999999997408e-03, 1.194666533683039e-04, -1.087282262049853e-05, 1.352647876189474e+01, -5.602179817903146e+03, -2.869152063581078e+01, 5.615999467933465e+03
866, 1.499999999998843e-04, 2.799999999996027e-03, 1.194154693550336e-04, -1.474875611007214e-05, -1.021032278426378e+01, -8.400766360227737e+03, -3.447759304533361e+02, 8.418842698753728e+03
867, 1.999999999999443e-04, 2.799999999994645e-03, 1.194041189306362e-04, -1.863355804743135e-05, -3.816386136843846e+01, -1.119394274463605e+04, -7.003761131899373e+02, 1.124337624079474e+04
868, -2.000000000000301e-04, 2.700000000005420e-03, 1.129034437616841e-04, 1.219976970042775e-05, 8.180836264700713e+01, 1.158685672435361e+04, 1.052307721722428e+03, 1.169596272095608e+04
869, -1.500000000000799e-04, 2.700000000004097e-03, 1.126158443225416e-04, 8.435843594059501e-06, 7.673238717800155e+01, 8.689618763325834e+03, 9.710032278984428e+02, 8.829110985982095e+03
870, -1.000000000001404e-04, 2.700000000002773e-03, 1.123694202053811e-04, 4.674581172863535e-06, 6.942030351526751e+01, 5.794175156925418e+03, 8.507566305680167e+02, 5.972266362903186e+03
871, -5.000000000020087e-05, 2.700000000001450e-03, 1.121641690207973e-04, 9.140607083083817e-07, 5.959556965763625e+01, 2.901070100188499e+03, 6.913719285615077e+02, 3.160056658046976e+03
872, -2.948962146524792e-16, 2.700000000000125e-03, 1.120000761450759e-04, -2.847645451166543e-06, 4.697557599520269e+01, 1.085747978592906e+01, 4.926522183422783e+02, 9.859662011570446e+02
873, 4.999999999973239e-05, 2.699999999998801e-03, 1.118771145923382e-04, -6.612470920670581e-06, 3.127135880474430e+01, -2.875899217678144e+03, 2.543998504791836e+02, 2.951358652631559e+03
874, 9.999999999979085e-05, 2.699999999997478e-03, 1.117952448854627e-04, -1.038235531797254e-05, 1.218753800977424e+01, -5.758626819354338e+03, -2.358346384962348e+01, 5.771007110221609e+03
875, 1.499999999998800e-04, 2.699999999996155e-03, 1.117544149260613e-04, -1.415924430147307e-05, -1.057772629062686e+01, -8.636742372050951e+03, -3.414965541106943e+02, 8.653161045632009e+03
876, 1.999999999999424e-04, 2.699999999994831e-03, 1.117545598637508e-04, -1.794508960771631e-05, -3.733283086718325e+01, -1.150965311004155e+04, -6.995386660023762e+02, 1.155731586350762e+04
877, -2.000000000000321e-04, 2.600000000005380e-03, 1.053937044735767e-04, 1.206937844596092e-05, 7.916920379222495e+01, 1.190784288915974e+04, 1.054631562231970e+03, 1.201526163190504e+04
878, -1.500000000000841e-04, 2.600000000004088e-03, 1.051097252965051e-04, 8.407180695355222e-06, 7.369758332999788e+01, 8.931223791190198e+03, 9.753100209555132e+02, 9.069767862014731e+03
879, -1.000000000001480e-04, 2.600000000002797e-03, 1.048680302823969e-04, 4.747727320773474e-06, 6.622898521574791e+01, 5.956180305146812e+03, 8.565079165403046e+02, 6.133999494256788e+03
880, -5.000000000021105e-05, 2.600000000001504e-03, 1.046686252370331e-04, 1.089070213184547e-06, 5.648828593576638e+01, 2.983255990721830e+03, 6.980169147328079e+02, 3.242665516329292e+03
881, -3.077169053421203e-16, 2.600000000000212e-03, 1.045115037708172e-04, -2.570744967842270e-06, 4.419363273041495e+01, 1.300398019636214e+01, 4.996276525821976e+02, 9.997419463663529e+02
882, 4.999999999972220e-05, 2.599999999998920e-03, 1.043966471674196e-04, -6.233678838972346e-06, 2.905665624681137e+01, -2.954012709777579e+03, 2.611298786827046e+02, 3.028441529347485e+03
883, 9.999999999978321e-05, 2.599999999997628e-03, 1.043240242513077e-04, -9.901698336063779e-06, 1.078240235523833e+01, -5.917221099521748e+03, -1.768743333145486e+01, 5.928109049221112e+03
884, 1.499999999998756e-04, 2.599999999996335e-03, 1.042935912544248e-04, -1.357677675568504e-05, -1.093070782808275e+01, -8.876038149704462e+03, -3.370359708123290e+02, 8.890697550726691e+03
885, 1.999999999999405e-04, 2.599999999995043e-03, 1.043052916823117e-04, -1.726089379471909e-05, -3.639091924613786e+01, -1.182987066972287e+04, -6.971280081112567e+02, 1.187561006701034e+04
886, -2.000000000000340e-04, 2.500000000005436e-03, 9.808983036753731e-05, 1.191254134643185e-05, 7.630108687969687e+01, 1.223340618422684e+04, 1.055288649873379e+03, 1.233895217942554e+04
887, -1.500000000000885e-04, 2.500000000004174e-03, 9.780940685783669e-05, 8.354842009366421e-06, 7.042123092135034e+01, 9.176322691359725e+03, 9.783648417870802e+02, 9.313765750854694e+03
888, -1.000000000001556e-04, 2.500000000002911e-03, 9.757239072232900e-05, 4.799973599183905e-06, 6.279917813569114e+01, 6.120581944380384e+03, 8.614231570921210e+02, 6.298010119498811e+03
889, -5.000000000022121e-05, 2.500000000001650e-03, 9.737879643164142e-05, 1.245961656135395e-06, 5.316076153181041e+01, 3.066726164056701e+03, 7.042425026785468e+02, 3.326470568877888e+03
890, -3.205375960317614e-16, 2.500000000000388e-03, 9.722862630530528e-05, -2.309174829309016e-06, 4.122520469457504e+01, 1.530767406404948e+01, 5.066007002655246e+02, 1.013532829479176e+03
891, 4.999999999971200e-05, 2.499999999999127e-03, 9.712187037617069e-05, -5.867423464919809e-06, 2.670497194759082e+01, -3.033111094919033e+03, 2.682745413980152e+02, 3.106502741235617e+03
892, 9.999999999977564e-05, 2.499999999997865e-03, 9.705850625434563e-05, -9.430778503128166e-06, 9.305743107669059e+00, -6.077957489062705e+03, -1.096009836456619e+01, 6.087302699287916e+03
893, 1.499999999998713e-04, 2.499999999996604e-03, 9.703849899027422e-05, -1.300124088603748e-05, -1.127364609180313e+01, -9.118648539278103e+03, -3.313281483281892e+02, 9.131450641192700e+03
894, 1.999999999999386e-04, 2.499999999995341e-03, 9.706180093691919e-05, -1.658081828902053e-05, -3.534114221012203e+01, -1.215459077610299e+04, -6.930551960564468e+02, 1.219825863423693e+04
895, -2.000000000000358e-04, 2.400000000005491e-03, 9.099750149549965e-05, 1.172913050798360e-05, 7.320778744571828e+01, 1.256354552809579e+04, 1.054186785086234e+03, 1.266703501167141e+04
896, -1.500000000000929e-04, 2.400000000004260e-03, 9.072055421631447e-05, 8.278737141923703e-06, 6.690438205428154e+01, 9.424916592175508e+03, 9.800979751586715e+02, 9.561106666511909e+03
897, -1.000000000001632e-04, 2.400000000003029e-03, 9.048815184137836e-05, 4.831267425873891e-06, 5.912916837498028e+01, 6.287382576690281e+03, 8.654551165684729e+02, 6.464301257937269e+03
898, -5.000000000023145e-05, 2.400000000001797e-03, 9.030031799237462e-05, 1.384720583092983e-06, 4.960935982756973e+01, 3.151484426312045e+03, 7.100241580981506e+02, 3.411475655549958e+03
899, -3.333650629849805e-16, 2.400000000000566e-03, 9.015706418708713e-05, -2.062911041974228e-06, 3.806534774755789e+01, 1.777341422157758e+01, 5.135697378104201e+02, 1.027339897475454e+03
900, 4.999999999970184e-05, 2.399999999999334e-03, 9.005838970098449e-05, -5.513642033934709e-06, 2.421062682231423e+01, -3.113188782887974e+03, 2.758553303040493e+02, 3.185539155163391e+03
901, 9.999999999976805e-05, 2.399999999998102e-03, 9.000428142775611e-05, -8.969493956667271e-06, 7.751727335514943e+00, -6.240829989292640e+03, -3.356658223148941e+00, 6.248585322934893e+03
902, 1.499999999998670e-04, 2.399999999996872e-03, 8.999471373890331e-05, -1.243249540237577e-05, -1.161184851607220e+01, -9.364567427128235e+03, -3.243047797044393e+02, 9.375418519514153e+03
903, 1.999999999999366e-04, 2.399999999995640e-03, 9.002964834229088e-05, -1.590468203899542e-05, -3.418783012086908e+01, -1.248380771936758e+04, -6.872284248861690e+02, 1.252526115570503e+04
904, -2.000000000000378e-04, 2.300000000005451e-03, 8.412247838913838e-05, 1.151904848417950e-05, 6.989320202351610e+01, 1.289825752036153e+04, 1.051230932880674e+03, 1.299951064390458e+04
905, -1.500000000000972e-04, 2.300000000004251e-03, 8.384891226352351e-05, 8.178806083136784e-06, 6.314785222005241e+01, 9.677004575281471e+03, 9.804372857816356e+02, 9.811792403886086e+03
906, -1.000000000001708e-04, 2.300000000003051e-03, 8.362104284121426e-05, 4.841586556430623e-06, 5.521725267154909e+01, 6.456583500691789e+03, 8.685549347407610e+02, 6.632875736808494e+03
907, -5.000000000024163e-05, 2.300000000001851e-03, 8.343890339286241e-05, 1.505362841207561e-06, 4.583019036581845e+01, 3.237533825555007e+03, 7.153364152727557e+02, 3.497684497341203e+03
908, -3.461857536746216e-16, 2.300000000000652e-03, 8.330251513673273e-05, -1.831899337964254e-06, 3.470839455814360e+01, 2.040557216578077e+01, 5.205328683071575e+02, 1.041163982608260e+03
909, 4.999999999969163e-05, 2.299999999999453e-03, 8.321188709724237e-05, -5.172241525112868e-06, 2.156654451622603e+01, -3.194240554597620e+03, 2.838940974628052e+02, 3.265547233314486e+03
910, 9.999999999976044e-05, 2.299999999998253e-03, 8.316701596232118e-05, -8.517712586985759e-06, 6.112191918750227e+00, -6.405833064668939e+03, 5.168676385905087e+00, 6.411953589534136e+03
911, 1.499999999998626e-04, 2.299999999997052e-03, 8.316788593964307e-05, -1.187036876635590e-05, -1.195431601361531e+01, -9.613789577153284e+03, -3.158959518556237e+02, 9.622598473991326e+03
912, 1.999999999999347e-04, 2.299999999995853e-03, 8.321446861170781e-05, -1.523227373467526e-05, -3.293992151382838e+01, -1.281751671003565e+04, -6.795533953558901e+02, 1.285661599839435e+04
913, -2.000000000000396e-04, 2.200000000005174e-03, 7.747060213605108e-05, 1.128222989085188e-05, 6.636049260045365e+01, 1.323753590971807e+04, 1.046323347417683e+03, 1.333638002075109e+04
914, -1.500000000001016e-04, 2.200000000004032e-03, 7.720030562313003e-05, 8.055020840842654e-06, 5.915219646421133e+01, 9.932583702813554e+03, 9.793087653785623e+02, 1.006582497077915e+04
915, -1.000000000001784e-04, 2.200000000002889e-03, 7.697687183361503e-05, 4.830940715881083e-06, 5.106175052411731e+01, 6.628184806763207e+03, 8.706723317800499e+02, 6.803736395115633e+03
916, -5.000000000025179e-05, 2.200000000001748e-03, 7.680034419608263e-05, 1.607936206591770e-06, 4.181955814500623e+01, 3.324876936261487e+03, 7.201529568925433e+02, 3.585100678264050e+03
917, -3.590132206278407e-16, 2.200000000000606e-03, 7.667075414356014e-05, -1.616053553311959e-06, 3.114895790536548e+01, 2.320870556370630e+01, 5.274879228985956e+02, 1.055005726440737e+03
918, 4.999999999968146e-05, 2.199999999999464e-03, 7.658812096881269e-05, -4.843097046279731e-06, 1.876604866098819e+01, -3.276260336504397e+03, 2.924130043142031e+02, 3.346523620012908e+03
919, 9.999999999975283e-05, 2.199999999998322e-03, 7.655245167832453e-05, -8.075270429867135e-06, 4.379616880536787e+00, -6.572959584091363e+03, 1.466256545980414e+01, 6.577404573838005e+03
920, 1.499999999998582e-04, 2.199999999997180e-03, 7.656374084511571e-05, -1.131465759458883e-05, -1.230893234330949e+01, -9.866307255112335e+03, -3.060303343704202e+02, 9.872988463851978e+03
921, 1.999999999999328e-04, 2.199999999996038e-03, 7.662197046057275e-05, -1.456335022062623e-05, -3.160552302931796e+01, -1.315571017966995e+04, -6.699338401710380e+02, 1.319232232926719e+04
922, -2.000000000000416e-04, 2.100000000004828e-03, 7.104779434929481e-05, 1.101864312505205e-05, 6.261752523131508e+01, 1.358137542612058e+04, 1.039363809203526e+03, 1.367764320686806e+04
923, -1.500000000001059e-04, 2.100000000003754e-03, 7.078063862782487e-05, 7.907387135029821e-06, 5.492150528145089e+01, 1.019165192450907e+04, 9.766362310379720e+02, 1.032320574740224e+04
924, -1.000000000001860e-04, 2.100000000002678e-03, 7.056152581251246e-05, 4.799373287185941e-06, 4.666322453717930e+01, 6.802187096081032e+03, 8.717555466852970e+02, 6.976885674260770e+03
925, -5.000000000026199e-05, 2.100000000001603e-03, 7.039051001335882e-05, 1.692522066181608e-06, 3.757518538890599e+01, 3.413516824376858e+03, 7.244466471815061e+02, 3.673727497828706e+03
926, -3.718339113174818e-16, 2.100000000000528e-03, 7.026763340703746e-05, -1.415253950804270e-06, 2.738254909265925e+01, 2.618806690588417e+01, 5.344326162548318e+02, 1.068865899940508e+03
927, 4.999999999967128e-05, 2.099999999999452e-03, 7.019292608889648e-05, -4.526050159574684e-06, 1.580307433378573e+01, -3.359240998543560e+03, 3.014348302364209e+02, 3.428465301178232e+03
928, 9.999999999974523e-05, 2.099999999998377e-03, 7.016640592362219e-05, -7.641969992450470e-06, 2.547035098295282e+00, -6.742200851823833e+03, 2.517306817797098e+01, 6.744935788544358e+03
929, 1.499999999998539e-04, 2.099999999997302e-03, 7.018807839469682e-05, -1.076512498072106e-05, -1.268284287120764e+01, -1.012211049492917e+04, -2.946343829497952e+02, 1.012658704256567e+04
930, 1.999999999999309e-04, 2.099999999996226e-03, 7.025793645288465e-05, -1.389763481598772e-05, -3.019152476508020e+01, -1.349837739979497e+04, -6.582705925534602e+02, 1.353238011055104e+04
931, -2.000000000000435e-04, 2.000000000004496e-03, 6.486005728345115e-05, 1.072829209212583e-05, 5.867075714636894e+01, 1.392976706982915e+04, 1.030249191529134e+03, 1.402330084189552e+04
932, -1.500000000001103e-04, 2.000000000003499e-03, 6.459589537597632e-05, 7.735946128586483e-06, 5.045856257016885e+01, 1.045420421315653e+04, 9.723413824653894e+02, 1.058393663143887e+04
933, -1.000000000001936e-04, 2.000000000002501e-03, 6.438097066370367e-05, 4.746963032837818e-06, 4.202130216621617e+01, 6.978589018621120e+03, 8.717513132934459e+02, 7.152326411307008e+03
934, -5.000000000027220e-05, 2.000000000001505e-03, 6.421534847371952e-05, 1.759237133092598e-06, 3.309380439503525e+01, 3.503455267539737e+03, 7.281895166153214e+02, 3.763568595537174e+03
935, -3.846512138753339e-16, 2.000000000000507e-03, 6.409908226788502e-05, -1.229345511430909e-06, 2.340333620651700e+01, 2.934805213452341e+01, 5.413645098691978e+02, 1.082745339325518e+03
936, 4.999999999966107e-05, 1.999999999999510e-03, 6.403221349143417e-05, -4.220907179950188e-06, 1.266957009345219e+01, -3.443176056194059e+03, 3.109829085211484e+02, 3.511368745987754e+03
937, 9.999999999973761e-05, 1.999999999998513e-03, 6.401477142023776e-05, -7.217578558928842e-06, 6.045075154361257e-01, -6.913548864225530e+03, 3.674952683205643e+01, 6.914544016697449e+03
938, 1.499999999998495e-04, 1.999999999997515e-03, 6.404677300671714e-05, -1.022149880965654e-05, -1.308760942262097e+01, -1.038119042550508e+04, -2.816325087674201e+02, 1.038339171392641e+04
939, 1.999999999999290e-04, 1.999999999996517e-03, 6.412822272443988e-05, -1.323481563388724e-05, -2.871036965920621e+01, -1.384550888439337e+04, -6.444616718754667e+02, 1.387678797787248e+04
940, -2.000000000000454e-04, 1.900000000004165e-03, 5.891347379128745e-05, 1.041121799164787e-05, 5.453003528333397e+01, 1.428270176914827e+04, 1.018873755090560e+03, 1.437335332494134e+04
941, -1.500000000001146e-04, 1.900000000003247e-03, 5.865213969045335e-05, 7.540776195882435e-06, 4.576844808260944e+01, 1.072023535038644e+04, 9.663438607075474e+02, 1.084801942646162e+04
942, -1.000000000002012e-04, 1.900000000002328e-03, 5.844125111707402e-05, 4.673825858149282e-06, 3.713698260936644e+01, 7.157389019929692e+03, 8.706049216465892e+02, 7.330061445400393e+03
943, -5.000000000028235e-05, 1.900000000001409e-03, 5.828088516476442e-05, 1.808235201664832e-06, 2.837286770229980e+01, 3.594694070337363e+03, 7.313527364902510e+02, 3.854627637146229e+03
944, -3.974685164331859e-16, 1.900000000000491e-03, 5.817110713570650e-05, -1.058136188094701e-06, 1.920570152988330e+01, 3.269343890708956e+01, 5.482809098376283e+02, 1.096644766289005e+03
945, 4.999999999965091e-05, 1.899999999999572e-03, 5.811197038608994e-05, -3.927437438956557e-06, 9.357323830247424e+00, -3.528058173744091e+03, 3.210809239683728e+02, 3.595230207013821e+03
946, 9.999999999973007e-05, 1.899999999998654e-03, 5.810351617001968e-05, -6.801826466176746e-06, -1.458285232410617e+00, -7.086994168911495e+03, 4.944224250704406e+01, 7.086225857272715e+03
947, 1.499999999998452e-04, 1.899999999997735e-03, 5.814577348191464e-05, -9.683470045575556e-06, -1.353510816320670e+01, -1.064353590946505e+04, -2.669475890212690e+02, 1.064339988428580e+04
948, 1.999999999999271e-04, 1.899999999996817e-03, 5.823875889725683e-05, -1.257454388593453e-05, -2.717515229776848e+01, -1.419709254180040e+04, -6.284028090319372e+02, 1.422554460071480e+04
949, -2.000000000000473e-04, 1.800000000003828e-03, 5.321420734696453e-05, 1.006750114172154e-05, 5.020471706250532e+01, 1.464016682092690e+04, 1.005129092930924e+03, 1.472780133509492e+04
950, -1.500000000001189e-04, 1.800000000002982e-03, 5.295551510781388e-05, 7.321994748260808e-06, 4.085654127608791e+01, 1.098973791514809e+04, 9.585612971117697e+02, 1.111545601315590e+04
951, -1.000000000002088e-04, 1.800000000002135e-03, 5.274849070815346e-05, 4.580116627383329e-06, 3.201163407449280e+01, 7.338584236311191e+03, 8.682602198826728e+02, 7.510093636532024e+03
952, -5.000000000029254e-05, 1.800000000001289e-03, 5.259322356998828e-05, 1.839708956269299e-06, 2.341005163206069e+01, 3.687234423340939e+03, 7.339066567955958e+02, 3.946908277409486e+03
953, -4.102858189910380e-16, 1.800000000000442e-03, 5.248979140418441e-05, -9.013951042541954e-07, 1.478405636490197e+01, 3.622904031923690e+01, 5.551789369488978e+02, 1.110564944279998e+03
954, 4.999999999964072e-05, 1.799999999999596e-03, 5.243826005272804e-05, -3.645371490283227e-06, 5.857972690781935e+00, -3.613879325988150e+03, 3.317530433600549e+02, 3.680045983212993e+03
955, 9.999999999972246e-05, 1.799999999998750e-03, 5.243868332948553e-05, -6.394405314887202e-06, -3.651911262026033e+00, -7.262525915834995e+03, 6.330270500080735e+01, 7.259978012646242e+03
956, 1.499999999998409e-04, 1.799999999997903e-03, 5.249110285936481e-05, -9.150690947386842e-06, -1.403743457958672e+01, -1.090913363132474e+04, -2.505005049248620e+02, 1.090660914987794e+04
957, 1.999999999999252e-04, 1.799999999997057e-03, 5.259554791593596e-05, -1.191643209149983e-05, -2.559874913749877e+01, -1.455311294105185e+04, -6.099870852497702e+02, 1.457864896253966e+04
958, -2.000000000000492e-04, 1.700000000003484e-03, 4.776850198077242e-05, 9.697262873220794e-06, 4.570842437092301e+01, 1.500214940444373e+04, 9.889042573937598e+02, 1.508664486595901e+04
959, -1.500000000001233e-04, 1.700000000002704e-03, 4.751224480803875e-05, 7.079760111472129e-06, 3.573084365436557e+01, 1.126270398396858e+04, 9.489091827021141e+02, 1.138624786492031e+04
960, -1.000000000002164e-04, 1.700000000001925e-03, 4.730889169512154e-05, 4.466031032780319e-06, 2.664818486604213e+01, 7.522171287657585e+03, 8.646595617705718e+02, 7.692425574259843e+03
961, -5.000000000030273e-05, 1.700000000001145e-03, 4.715854496856817e-05, 1.853891830813057e-06, 1.820372907400747e+01, 3.781077146429602e+03, 7.358207585595223e+02, 4.040413977546090e+03
962, -4.231031215488901e-16, 1.700000000000365e-03, 4.706129533014192e-05, -7.588507035603806e-07, 1.013267716605969e+01, 3.995947050564632e+01, 5.620554783075980e+02, 1.124506594192873e+03
963, 4.999999999963053e-05, 1.699999999999585e-03, 4.701722169613516e-05, -3.374399268903115e-06, 2.162126798112013e+00, -3.700631549203857e+03, 3.430238436757753e+02, 3.765812320915712e+03
964, 9.999999999971485e-05, 1.699999999998805e-03, 4.702639103527405e-05, -5.994966139087985e-06, -5.989039101395292e+00, -7.440133301095587e+03, 7.838347985257496e+01, 7.435796984035831e+03
965, 1.499999999998365e-04, 1.699999999998025e-03, 4.708885820507656e-05, -8.622773248914421e-06, -1.461027279895143e+01, -1.117797060244022e+04, -2.322104027064738e+02, 1.117301662640438e+04
966, 1.999999999999232e-04, 1.699999999997246e-03, 4.720466578633453e-05, -1.126005227931234e-05, -2.399938183639620e+01, -1.491355544328076e+04, -5.891049243057638e+02, 1.493609916123550e+04
967, -2.000000000000511e-04, 1.600000000003144e-03, 4.258268228605654e-05, 9.300667458393664e-06, 4.105560450550729e+01, 1.536863384631627e+04, 9.700852752924621e+02, 1.544988402947375e+04
968, -1.500000000001277e-04, 1.600000000002436e-03, 4.232863158181178e-05, 6.814273450007905e-06, 3.040003030180696e+01, 1.153912347351634e+04, 9.373008803784983e+02, 1.166039652215263e+04
969, -1.000000000002240e-04, 1.600000000001727e-03, 4.212873499448470e-05, 4.331807509954869e-06, 2.105026792655576e+01, 7.708145516742108e+03, 8.597438179377821e+02, 7.877059800096200e+03
970, -5.000000000031292e-05, 1.600000000001018e-03, 4.198310834504074e-05, 1.851059916815168e-06, 1.275288143124408e+01, 3.876222538926716e+03, 7.370636945814571e+02, 4.135148044975954e+03
971, -4.359339766338982e-16, 1.600000000000309e-03, 4.189185592213818e-05, -6.301888496479308e-07, 5.246345194451351e+00, 4.388957703816675e+01, 5.689072363054777e+02, 1.138470497400031e+03
972, 4.999999999962034e-05, 1.599999999999600e-03, 4.185507031860828e-05, -3.114168199624232e-06, -1.739102583252134e+00, -3.788305780198607e+03, 3.549183615369132e+02, 3.852525843839490e+03
973, 9.999999999970728e-05, 1.599999999998891e-03, 4.187283226710567e-05, -5.603117524799001e-06, -8.481596519789719e+00, -7.619803301788924e+03, 9.473824676664879e+01, 7.613679757036194e+03
974, 1.499999999998322e-04, 1.599999999998182e-03, 4.194521047447633e-05, -8.099286290366803e-06, -1.526778738707139e+01, -1.145002999818382e+04, -2.119946165637839e+02, 1.144262005343503e+04
975, 1.999999999999214e-04, 1.599999999997473e-03, 4.207226145453749e-05, -1.060493412756816e-05, -2.239300367601277e+01, -1.527839997106311e+04, -5.656443475957178e+02, 1.529789406097557e+04
976, -2.000000000000531e-04, 1.500000000002802e-03, 3.766315333739004e-05, 8.877924088006516e-06, 3.626264922532255e+01, 1.573960228082881e+04, 9.485555865650898e+02, 1.581751897070789e+04
977, -1.500000000001320e-04, 1.500000000002160e-03, 3.741105773344342e-05, 6.525780733146944e-06, 2.487466981427542e+01, 1.181898505323589e+04, 9.236477121571750e+02, 1.193790350610300e+04
978, -1.000000000002316e-04, 1.500000000001518e-03, 3.721438006350347e-05, 4.177729198323800e-06, 1.522270717950732e+01, 7.896501374546211e+03, 8.534524884457863e+02, 8.063998885963880e+03
979, -5.000000000032311e-05, 1.500000000000877e-03, 3.707325024764615e-05, 1.831533917997588e-06, 7.056981755944662e+00, 3.972670310317072e+03, 7.376034102714137e+02, 4.231113829127946e+03
980, -4.487512791917503e-16, 1.500000000000236e-03, 3.698778677177714e-05, -5.150508769611851e-07, 1.195620612688799e-01, 4.802382751669484e+01, 5.757308616902409e+02, 1.152457773221723e+03
981, 4.999999999961016e-05, 1.499999999999595e-03, 3.695809652086029e-05, -2.864281254592499e-06, -5.855782505814886e+00, -3.876893188395852e+03, 3.674622252007219e+02, 3.940183313704799e+03
982, 9.999999999969963e-05, 1.499999999998952e-03, 3.698427461232805e-05, -5.218423676752309e-06, -1.114378240015026e+01, -7.801523023171911e+03, 1.124219366610830e+02, 7.793623257665083e+03
983, 1.499999999998278e-04, 1.499999999998311e-03, 3.706640423040299e-05, -7.579755095980976e-06, -1.602789390671137e+01, -1.172529519526624e+04, -1.897685094165381e+02, 1.171541672683273e+04
984, 1.999999999999195e-04, 1.499999999997670e-03, 3.720455645922651e-05, -9.950563055599583e-06, -2.080052107159895e+01, -1.564762635456086e+04, -5.394905968840413e+02, 1.566403160258280e+04
985, -2.000000000000549e-04, 1.400000000002461e-03, 3.301640062708244e-05, 8.429288895635186e-06, 3.134861348703089e+01, 1.611503507816963e+04, 9.241957805505837e+02, 1.618954976697512e+04
986, -1.500000000001364e-04, 1.400000000001890e-03, 3.276598499144640e-05, 6.214574750292186e-06, 1.916700795628276e+01, 1.210227593600766e+04, 9.078587684558403e+02, 1.221877045946127e+04
987, -1.000000000002392e-04, 1.400000000001320e-03, 3.257226478405660e-05, 4.004125944668560e-06, 9.171441483398212e+00, 8.087232471055746e+03, 8.457235578703531e+02, 8.253245624773506e+03
988, -5.000000000033329e-05, 1.400000000000748e-03, 3.243538464508423e-05, 1.795681146569917e-06, 1.116151103885613e+00, 4.070419917899451e+03, 7.374070755790821e+02, 4.328314906163017e+03
989, -4.615719698813914e-16, 1.400000000000178e-03, 3.235547788509555e-05, -4.130315996815258e-07, -5.252896434560625e+00, 5.236701878129361e+01, 5.825229277192464e+02, 1.166469845261287e+03
990, 4.999999999959998e-05, 1.399999999999606e-03, 3.233266631091742e-05, -2.624294968844803e-06, -1.019806847268296e+01, -3.966384032328935e+03, 3.806816099646088e+02, 4.028781618960527e+03
991, 9.999999999969204e-05, 1.399999999999035e-03, 3.236706005711443e-05, -4.840402446141588e-06, -1.399027739519647e+01, -7.985278003922368e+03, 1.314905945621906e+02, 7.975624560178093e+03
992, 1.499999999998235e-04, 1.399999999998463e-03, 3.245875742197801e-05, -7.063658422271000e-06, -1.690927037299298e+01, -1.200374705307571e+04, -1.654457760148967e+02, 1.199140397318154e+04
993, 1.999999999999176e-04, 1.399999999997893e-03, 3.260784470735500e-05, -9.296378299770425e-06, -1.924386552234546e+01, -1.602121076199465e+04, -5.105264860197889e+02, 1.603450946326411e+04
994, -2.000000000000568e-04, 1.300000000002126e-03, 2.864899000364220e-05, 7.955067029591802e-06, 2.633379418305526e+01, 1.649490928457807e+04, 8.968835601665415e+02, 1.656597655331032e+04
995, -1.500000000001407e-04, 1.300000000001629e-03, 2.839995441901692e-05, 5.880997165346530e-06, 1.328949862199056e+01, 1.238898021529652e+04, 8.898408180848508e+02, 1.250299913784304e+04
996, -1.000000000002468e-04, 1.300000000001133e-03, 2.820890534435423e-05, 3.811376344577926e-06, 2.901937309349705e+00, 8.280329949642037e+03, 8.364932901001075e+02, 8.444803052580910e+03
997, -5.000000000034346e-05, 1.300000000000637e-03, 2.807600277762090e-05, 1.743917554389217e-06, -5.070073131947538e+00, 4.169469740709899e+03, 7.364408425209401e+02, 4.426755371090945e+03
998, -4.743892724392434e-16, 1.300000000000140e-03, 2.800139549673008e-05, -3.236772864454076e-07, -1.087649016604541e+01, 5.692474005483359e+01, 5.892798001829926e+02, 1.180508254284694e+03
999, 4.999999999958981e-05, 1.299999999999644e-03, 2.798522087758701e-05, -2.393717418036297e-06, -1.477610663897144e+01, -4.056766246534587e+03, 3.946033701183819e+02, 4.118316594173950e+03
1000, 9.999999999968445e-05, 1.299999999999148e-03, 2.802760471755372e-05, -4.468523312074951e-06, -1.703619276096742e+01, -8.171050964335600e+03, 1.520017766930026e+02, 8.159679837807892e+03
1001, 1.499999999998191e-04, 1.299999999998652e-03, 2.812866107797627e-05, -6.550426749034417e-06, -1.793223142822831e+01, -1.228536403339041e+04, -1.389378715651713e+02, 1.227057854970227e+04
1002, 1.999999999999157e-04, 1.299999999998155e-03, 2.828849213208696e-05, -8.641770921929353e-06, -1.774834643170857e+01, -1.639912754544063e+04, -4.786320564808605e+02, 1.640932475891944e+04
1003, -2.000000000000587e-04, 1.200000000001781e-03, 2.456756753859111e-05, 7.455614790343579e-06, 2.124188783079308e+01, 1.687919935694379e+04, 8.664941094279056e+02, 1.694679846452172e+04
1004, -1.500000000001450e-04, 1.200000000001350e-03, 2.431958628655297e-05, 5.525440651548155e-06, 7.254270407646345e+00, 1.267907553952949e+04, 8.694982300687057e+02, 1.279058884355756e+04
1005, -1.000000000002543e-04, 1.200000000000919e-03, 2.413089612788573e-05, 3.599909858628698e-06, -3.583312111574514e+00, 8.475777186213832e+03, 8.256952335721576e+02, 8.638671479778381e+03
1006, -5.000000000035367e-05, 1.200000000000488e-03, 2.400167304399401e-05, 1.676709809021836e-06, -1.150495641771454e+01, 4.269814143754595e+03, 7.346680680157498e+02, 4.526438104972628e+03
1007, -4.872353741173022e-16, 1.200000000000057e-03, 2.393208192025806e-05, -2.464836357067383e-07, -1.675741654748435e+01, 6.170544356242681e+01, 5.959959516545223e+02, 1.194571520659582e+03
1008, 4.999999999957962e-05, 1.199999999999626e-03, 2.392227635810308e-05, -2.172006229318757e-06, -1.959868055853713e+01, -4.148018929357216e+03, 4.092543504413563e+02, 4.208777761311667e+03
1009, 9.999999999967686e-05, 1.199999999999196e-03, 2.397239850846195e-05, -4.102205393035681e-06, -2.029511577206131e+01, -8.358814485358856e+03, 1.740153008463466e+02, 8.345779207281290e+03
1010, 1.499999999998148e-04, 1.199999999998765e-03, 2.408257888845366e-05, -6.039440265053704e-06, -1.911862027380948e+01, -1.257011901987634e+04, -1.101524383584825e+02, 1.255293373158355e+04
1011, 1.999999999999137e-04, 1.199999999998334e-03, 2.425293622774858e-05, -7.986081779581956e-06, -1.634520751317473e+01, -1.678135184938010e+04, -4.436831786618006e+02, 1.678847422352466e+04
1012, -2.000000000000607e-04, 1.100000000001707e-03, 2.077885934010673e-05, 6.931341857190356e-06, 1.610437552790927e+01, 1.726787995088955e+04, 8.329021634623267e+02, 1.733201270938390e+04
1013, -1.500000000001494e-04, 1.100000000001301e-03, 2.053157994726798e-05, 5.148351233821546e-06, 1.070250707151217e+00, 1.297252110119818e+04, 8.467337433904366e+02, 1.308152778904240e+04
1014, -1.000000000002619e-04, 1.100000000000895e-03, 2.034490971460466e-05, 3.370209173425873e-06, -1.029036530620556e+01, 8.673533061543261e+03, 8.132572296887373e+02, 8.834836647910564e+03
1015, -5.000000000036384e-05, 1.100000000000489e-03, 2.021904111224550e-05, 1.594577501887778e-06, -1.820000315998800e+01, 4.371432849739150e+03, 7.320430078002764e+02, 4.627356096555410e+03
1016, -5.000628410705213e-16, 1.100000000000083e-03, 2.015415562296658e-05, -1.808938206603891e-07, -2.290449479532026e+01, 6.672444022362106e+01, 6.026570376069502e+02, 1.208641951076236e+03
1017, 4.999999999956943e-05, 1.099999999999677e-03, 2.015042373437491e-05, -1.958566832949826e-06, -2.467103206345951e+01, -4.240094829034590e+03, 4.246577105220389e+02, 4.300131913382864e+03
1018, 9.999999999966927e-05, 1.099999999999272e-03, 2.020800475789152e-05, -3.740815726117302e-06, -2.377578087073925e+01, -8.548510643097810e+03, 1.975945727289682e+02, 8.533890023427615e+03
1019, 1.499999999998105e-04, 1.099999999998866e-03, 2.032704659466950e-05, -5.530026973690161e-06, -2.049044284498859e+01, -1.285796851652820e+04, -7.898813052219600e+01, 1.283845005408950e+04
1020, 1.999999999999118e-04, 1.099999999998460e-03, 2.050768535677797e-05, -7.328599394531033e-06, -1.507868473872622e+01, -1.716786942136087e+04, -4.055469608595839e+02, 1.717195688919001e+04
1021, -2.000000000000626e-04, 1.000000000002109e-03, 1.728967131350321e-05, 6.382713548541569e-06, 1.096710963773421e+01, 1.766093307094563e+04, 7.959887705968403e+02, 1.772161648741424e+04
1022, -1.500000000001537e-04, 1.000000000001674e-03, 1.704271374823272e-05, 4.750231172350155e-06, -5.253187658246816e+00, 1.326924044596453e+04, 8.214518974957591e+02, 1.337577340226311e+04
1023, -1.000000000002696e-04, 1.000000000001239e-03, 1.685769720998286e-05, 3.122813261897401e-06, -1.723516631024859e+01, 8.873503038112936e+03, 7.990954127569788e+02, 9.033240821230605e+03
1024, -5.000000000037402e-05, 1.000000000000804e-03, 1.673483056071735e-05, 1.498095773954658e-06, -2.517674053764017e+01, 4.474274504360981e+03, 7.284951986904456e+02, 4.729469581600021e+03
1025, -5.128852258260569e-16, 1.000000000000369e-03, 1.667431192056280e-05, -1.262967213487537e-07, -2.933337823808893e+01, 7.201007189711868e+01, 6.092223888859904e+02, 1.222652105615133e+03
1026, 4.999999999955924e-05, 9.999999999999337e-04, 1.667632911411006e-05, -1.752751447667406e-06, -3.000073954612230e+01, -4.332893395751519e+03, 4.408218559035992e+02, 4.392286516769540e+03
1027, 9.999999999966167e-05, 9.999999999994987e-04, 1.674105989746122e-05, -3.383668407154256e-06, -2.748607021605767e+01, -8.740016797466837e+03, 2.228082828540296e+02, 8.723919176432253e+03
1028, 1.499999999998061e-04, 9.999999999990637e-04, 1.686867112243083e-05, -5.021461272172170e-06, -2.207703008236740e+01, -1.314883863407420e+04, -4.532305533177981e+01, 1.312707457605893e+04
1029, 1.999999999999099e-04, 9.999999999986283e-04, 1.705931775882386e-05, -6.668557561955410e-06, -1.401622698290839e+01, -1.755869726276971e+04, -3.640699438225491e+02, 1.755978417701872e+04
1030, -2.000000000000644e-04, 9.000000000025380e-04, 1.410688949695428e-05, 5.810252941174997e-06, 5.892328720767864e+00, 1.805836307701563e+04, 7.556499213309676e+02, 1.811562108602605e+04
1031, -1.500000000001581e-04, 9.000000000020734e-04, 1.385984556887716e-05, 4.331642747861372e-06, -1.168255125131373e+01, 1.356912976880652e+04, 7.935633197537957e+02, 1.367323788436628e+04
1032, -1.000000000002772e-04, 9.000000000016087e-04, 1.367608915468733e-05, 2.858321783005269e-06, -2.438599302653347e+01, 9.075577019117678e+03, 7.831052667280553e+02, 9.233761002836363e+03
1033, -5.000000000038420e-05, 9.000000000011442e-04, 1.355584429268645e-05, 1.387898729647271e-06, -3.242808204861581e+01, 4.578287255040928e+03, 7.239116488847815e+02, 4.832689543229223e+03
1034, -5.256991402521199e-16, 9.000000000006796e-04, 1.349932426708080e-05, -8.202544800857804e-08, -3.607133131936939e+01, 7.761045179630287e+01, 6.156028409559183e+02, 1.236442873320215e+03
1035, 4.999999999954906e-05, 9.000000000002148e-04, 1.350673469235964e-05, -1.553859378910966e-06, -3.564526636009555e+01, -4.426280231738545e+03, 4.577268982664311e+02, 4.485056415786790e+03
1036, 9.999999999965402e-05, 8.999999999997502e-04, 1.357827357592673e-05, -3.030025380908929e-06, -3.149892217756565e+01, -8.933179390686399e+03, 2.497294827739969e+02, 8.915681377309191e+03
1037, 1.499999999998018e-04, 8.999999999992857e-04, 1.371413019466671e-05, -4.512963412660413e-06, -2.394362832305933e+01, -1.344263921394577e+04, -9.000555852618277e+00, 1.341870765981706e+04
1038, 1.999999999999080e-04, 8.999999999988212e-04, 1.391448109212594e-05, -6.005132362192961e-06, -1.325315692165691e+01, -1.795391887959257e+04, -3.190621959267145e+02, 1.795201073172856e+04
1039, -2.000000000000664e-04, 8.000000000027327e-04, 1.123748467293747e-05, 5.214542112348700e-06, 8.119925173014053e-01, 1.846008819349453e+04, 7.117635351274407e+02, 1.851408402227106e+04
1040, -1.500000000001624e-04, 8.000000000022627e-04, 1.098991618363560e-05, 3.893211896439150e-06, -1.801843277598095e+01, 1.387233267056965e+04, 7.629485954012789e+02, 1.397391197951076e+04
1041, -1.000000000002848e-04, 8.000000000017928e-04, 1.080699737193546e-05, 2.577398883002209e-06, -3.139972347835669e+01, 9.280091068283144e+03, 7.651679185696760e+02, 9.436407607744177e+03
1042, -5.000000000039436e-05, 8.000000000013229e-04, 1.068896384277177e-05, 1.264682350084671e-06, -3.968308348783421e+01, 4.683801574721114e+03, 7.181851861015923e+02, 4.937050451684530e+03
1043, -5.385198309417610e-16, 8.000000000008525e-04, 1.063604311963418e-05, -4.735605602425150e-08, -4.314869107893378e+01, 8.359589628406388e+01, 6.217348427036816e+02, 1.249912416512814e+03
1044, 4.999999999953886e-05, 8.000000000003829e-04, 1.064845790082956e-05, -1.361137146879662e-06, -4.194042954398719e+01, -4.520471437257731e+03, 4.753667597730377e+02, 4.578333125957737e+03
1045, 9.999999999964645e-05, 7.999999999999128e-04, 1.072643026281431e-05, -2.679096899277118e-06, -3.622144929002593e+01, -9.128284929381407e+03, 2.784349455799314e+02, 9.109101075391131e+03
1046, 1.499999999997974e-04, 7.999999999994429e-04, 1.087017547130216e-05, -4.003698780036524e-06, -2.634294510982727e+01, -1.373955102503073e+04, 3.013378515913786e+01, 1.371334051291807e+04
1047, 1.999999999999061e-04, 7.999999999989728e-04, 1.107989711846117e-05, -5.337437728226616e-06, -1.276136320522460e+01, -1.835359103639394e+04, -2.703238278927501e+02, 1.834879649973333e+04
1048, -2.000000000000683e-04, 7.000000000024487e-04, 8.688532691951558e-06, 4.596223388795770e-06, -4.957574274581702e+00, 1.886549574956057e+04, 6.639166544640273e+02, 1.891711262173326e+04
1049, -1.500000000001667e-04, 7.000000000020254e-04, 8.439964484055326e-06, 3.435620987524156e-06, -2.374216134214362e+01, 1.418019870224594e+04, 7.292280369182934e+02, 1.427862143820677e+04
1050, -1.000000000002923e-04, 7.000000000016023e-04, 8.257413648109901e-06, 2.280760588504524e-06, -3.675176274562455e+01, 9.489957566646124e+03, 7.452071325847137e+02, 9.642589140295273e+03
1051, -5.000000000040459e-05, 7.000000000011791e-04, 8.141134157955706e-06, 1.129194759226964e-06, -4.564758601340964e+01, 4.793211968644942e+03, 7.116653109207746e+02, 5.043850894780719e+03
1052, -5.513337453678241e-16, 7.000000000007558e-04, 8.091372383851696e-06, -2.150567413667511e-08, -5.054318541488465e+01, 9.004400946745045e+01, 6.281558776542930e+02, 1.264153466115338e+03
1053, 4.999999999952868e-05, 7.000000000003326e-04, 8.108377552183796e-06, -1.173765019721471e-06, -5.017564302879191e+01, -4.617755960576850e+03, 4.941579532373297e+02, 4.673281319184974e+03
1054, 9.999999999963887e-05, 6.999999999999092e-04, 8.192390358861330e-06, -2.330024852485584e-06, -4.326032728916880e+01, -9.328252477288952e+03, 3.090002895998971e+02, 9.305536198492213e+03
1055, 1.499999999997930e-04, 6.999999999994860e-04, 8.343650832997011e-06, -3.492766054617144e-06, -2.989273248927589e+01, -1.404102019753855e+04, 7.195389330830756e+01, 1.401186648141164e+04
1056, 1.999999999999042e-04, 6.999999999990628e-04, 8.562385243131816e-06, -4.664520491921548e-06, -1.189603565890047e+01, -1.875728605977527e+04, -2.179270370237172e+02, 1.875045641924764e+04
1057, -2.000000000000702e-04, 6.000000000020976e-04, 6.467275648765572e-06, 3.956004665347591e-06, -1.480349005236462e+01, 1.927105639772602e+04, 6.103357253225688e+02, 1.932445161968224e+04
1058, -1.500000000001711e-04, 6.000000000017323e-04, 6.217163382209998e-06, 2.959555373448192e-06, -2.732248616538641e+01, 1.449879331683679e+04, 6.907745107717051e+02, 1.459166604679387e+04
1059, -1.000000000003000e-04, 6.000000000013669e-04, 6.034395691418127e-06, 1.969080085617622e-06, -3.623015346295961e+01, 9.716667112774812e+03, 7.234928350371697e+02, 9.859653777653080e+03
1060, -5.000000000041474e-05, 6.000000000010013e-04, 5.919280740654320e-06, 9.821646419965839e-07, -4.673936714549268e+01, 4.915513205361690e+03, 7.067990179335492e+02, 5.159671501206396e+03
1061, -5.641662945187267e-16, 6.000000000006360e-04, 5.872169346163871e-06, -3.628327656956556e-09, -5.801518981799632e+01, 9.698060328687052e+01, 6.383441120085215e+02, 1.286062407981820e+03
1062, 4.999999999951849e-05, 6.000000000002706e-04, 5.893356520237763e-06, -9.907768702517232e-07, -6.362495376390780e+01, -4.727175322281357e+03, 5.164749505734865e+02, 4.776576968706647e+03
1063, 9.999999999963128e-05, 5.999999999999052e-04, 5.983086031308893e-06, -1.981780310109146e-06, -5.682115580426057e+01, -9.544769796585864e+03, 3.416316493740063e+02, 9.512519022084820e+03
1064, 1.499999999997888e-04, 5.999999999995398e-04, 6.141540069821534e-06, -2.979136823715425e-06, -3.633206936962142e+01, -1.435337703534224e+04, 1.149036338858870e+02, 1.431888920056311e+04
1065, 1.999999999999023e-04, 5.999999999991742e-04, 6.368935302365687e-06, -3.985358982085140e-06, -7.315298912218623e+00, -1.916164593354935e+04, -1.633515354717809e+02, 1.915711661387387e+04
1066, -2.000000000000721e-04, 5.000000000017480e-04, 4.581221099626676e-06, 3.294712227577482e-06, -3.440093606206892e+01, 1.966983067631515e+04, 5.450195532004385e+02, 1.973435908986377e+04
1067, -1.500000000001754e-04, 5.000000000014432e-04, 4.328889938475470e-06, 2.465495061225083e-06, -2.616541094694389e+01, 1.484606710761261e+04, 6.427958581492375e+02, 1.492769393265804e+04
1068, -1.000000000003076e-04, 5.000000000011384e-04, 4.144961926857200e-06, 1.642644000788178e-06, -2.581988931441856e+01, 9.987143400053208e+03, 7.014652236729886e+02, 1.011076889629637e+04
1069, -5.000000000042491e-05, 5.000000000008338e-04, 4.030084568707973e-06, 8.240445324806152e-07, -3.971469789614775e+01, 5.070310215563245e+03, 7.125675354693715e+02, 5.305032006180099e+03
1070, -5.769852911424733e-16, 5.000000000005289e-04, 3.984934151759217e-06, 7.194761066354526e-09, -6.502976667600069e+01, 1.040316884549304e+02, 6.640996115942999e+02, 1.338915588112181e+03
1071, 4.999999999950832e-05, 5.000000000002242e-04, 4.010030436194658e-06, -8.107846830920192e-07, -8.443146159247635e+01, -4.868824278646810e+03, 5.509694211154981e+02, 4.909652109864658e+03
1072, 9.999999999962365e-05, 4.999999999999196e-04, 4.105440224506884e-06, -1.632800755217535e-06, -8.034576010927663e+01, -9.805181689201665e+03, 3.772571924211443e+02, 9.754062015627140e+03
1073, 1.499999999997844e-04, 4.999999999996149e-04, 4.271066851034965e-06, -2.461432408756954e-06, -4.837052423533737e+01, -1.469509457807491e+04, 1.537492902737445e+02, 1.464995156600736e+04
1074, 1.999999999999003e-04, 4.999999999993100e-04, 4.506835038345899e-06, -3.298904890295599e-06, 6.496626422030658e+00, -1.955993334250009e+04, -1.126069539399707e+02, 1.956772605677615e+04
1075, -2.000000000000740e-04, 4.000000000013997e-04, 3.038110388109730e-06, 2.613365344400992e-06, -7.254594366161086e+01, 2.004863126165122e+04, 4.533110286939270e+02, 2.014159218340354e+04
1076, -1.500000000001797e-04, 4.000000000011572e-04, 2.782464328899048e-06, 1.953174762888004e-06, -9.692756756924155e+00, 1.526991799254743e+04, 5.759223426683296e+02, 1.532296481851328e+04
1077, -1.000000000003152e-04, 4.000000000009148e-04, 2.595782097686069e-06, 1.300617548166498e-06, -1.609613925935628e+01, 1.033409655811149e+04, 6.868916357266867e+02, 1.044096592033678e+04
1078, -5.000000000043512e-05, 4.000000000006724e-04, 2.479491381266472e-06, 6.545031628911323e-07, -6.741027844093105e+01, 5.235219646975402e+03, 7.481791873567265e+02, 5.509716191556143e+03
1079, -5.898025937003254e-16, 4.000000000004300e-04, 2.435416730159171e-06, 1.197529774425258e-08, -7.122514360784407e+01, 1.094468402134021e+02, 7.292791021236069e+02, 1.469705549052177e+03
1080, 4.999999999949812e-05, 4.000000000001875e-04, 2.464342491586685e-06, -6.314323516981786e-07, -6.841102252903283e+01, -5.022692497450760e+03, 6.165169097532782e+02, 5.105416470063880e+03
1081, 9.999999999961606e-05, 3.999999999999452e-04, 2.566099117296746e-06, -1.280220051570180e-06, -1.004886252117703e+02, -1.014215050075555e+04, 4.227160394546941e+02, 1.007718852769950e+04
1082, 1.499999999997800e-04, 3.999999999997027e-04, 2.739487089701716e-06, -1.937343158214343e-06, -7.530784199134064e+01, -1.511426029446158e+04, 1.777946433724603e+02, 1.504315573968802e+04
1083, 1.999999999998984e-04, 3.999999999994603e-04, 2.983697741463911e-06, -2.604130437210936e-06, 3.794199617926711e+01, -1.993961410408174e+04, -8.133360393007831e+01, 1.997821834798061e+04
1084, -2.000000000000760e-04, 3.000000000010516e-04, 1.844262187521852e-06, 1.913402945026540e-06, -2.867906436024805e+01, 2.051209016834928e+04, 3.209622559110156e+02, 2.055079725339882e+04
1085, -1.500000000001842e-04, 3.000000000008717e-04, 1.583967102505881e-06, 1.420515398849162e-06, -1.113180873362944e+01, 1.577338247386497e+04, 5.065929696475277e+02, 1.581699835256817e+04
1086, -1.000000000003227e-04, 3.000000000006917e-04, 1.391813677286634e-06, 9.405497880418344e-07, -2.513163316124787e+02, 1.047604455766458e+04, 7.044180764985209e+02, 1.081947738824675e+04
1087, -5.000000000044532e-05, 3.000000000005118e-04, 1.273026162099737e-06, 4.732182197527098e-07, -2.040432888341736e+02, 5.286494321419183e+03, 8.257277491972910e+02, 5.733524963997658e+03
1088, -6.026207432911247e-16, 3.000000000003319e-04, 1.229472246729985e-06, 1.186472115973633e-08, -7.740077926240883e+01, 1.092105078145455e+02, 8.314166678546216e+02, 1.673271787490139e+03
1089, 4.999999999948792e-05, 3.000000000001520e-04, 1.261876361656025e-06, -4.501069034230432e-07, 5.742463107623666e+01, -5.073332965426818e+03, 7.253564863469333e+02, 5.331907880225996e+03
1090, 9.999999999960845e-05, 2.999999999999720e-04, 1.370134882966150e-06, -9.193173563859531e-07, 1.290217894886771e+02, -1.027865377466219e+04, 5.024145363246172e+02, 1.045606963030871e+04
1091, 1.499999999997756e-04, 2.999999999997920e-04, 1.552995098694740e-06, -1.402512689369874e-06, -7.495268623892548e+01, -1.560924901002830e+04, 2.012257041922202e+02, 1.553950866055316e+04
1092, 1.999999999998966e-04, 2.999999999996122e-04, 1.805894045882731e-06, -1.900171586896264e-06, -1.186844636124829e+01, -2.040528104520479e+04, -8.761295519568421e+01, 2.039416537998903e+04
1093, -2.000000000000778e-04, 2.000000000007014e-04, 9.965558174856661e-07, 1.194509714877648e-06, 2.475310244524758e+02, 2.114894906660770e+04, 2.507693326048441e+02, 2.090743449602634e+04
1094, -1.500000000001885e-04, 2.000000000005817e-04, 7.288476874620118e-07, 8.653173319570807e-07, -1.051224117998780e+03, 1.486121873078608e+04, 5.447895819214525e+02, 1.594970282388123e+04
1095, -1.000000000003304e-04, 2.000000000004620e-04, 5.368689784980014e-07, 5.673921642065803e-07, -7.726490056026842e+02, 9.849798345059857e+03, 7.483137786769558e+02, 1.072736136069951e+04
1096, -5.000000000045550e-05, 2.000000000003424e-04, 4.206450641924823e-07, 2.843628807624601e-07, -4.232977379714589e+02, 4.958955347142311e+03, 7.937969228622279e+02, 5.611515168936005e+03
1097, -6.154388928819240e-16, 2.000000000002227e-04, 3.793402169951327e-07, 8.274179956876856e-09, -8.540219708276413e+01, 9.489945676410184e+01, 7.816332721837443e+02, 1.573629872339294e+03
1098, 4.999999999947777e-05, 2.000000000001030e-04, 4.127663022884748e-07, -2.681816245514626e-07, 2.620167312897297e+02, -4.773131602523582e+03, 7.251680202859177e+02, 5.239865778250865e+03
1099, 9.999999999960084e-05, 1.999999999999833e-04, 5.216792569199354e-07, -5.523359312144560e-07, 6.405059867762475e+02, -9.675316742146502e+03, 6.094384468649878e+02, 1.038758198314834e+04
1100, 1.499999999997714e-04, 1.999999999998636e-04, 7.075038619254162e-07, -8.521796343607274e-07, 9.705123486696532e+02, -1.470006131462790e+04, 3.322154521547063e+02, 1.568465324332790e+04
1101, 1.999999999998946e-04, 1.999999999997439e-04, 9.707706980965307e-07, -1.184127326833493e-06, -2.769833503330640e+02, -2.103160090475171e+04, -3.874162496636438e+01, 2.075476218809078e+04
1102, -2.000000000000798e-04, 1.000000000003506e-04, 4.384761555679657e-07, 4.607232009792938e-07, -6.617999769684305e+03, 1.178308843454202e+04, 1.195232516254469e+03, 1.855570990750193e+04
1103, -1.500000000001928e-04, 1.000000000002906e-04, 2.054980984130122e-07, 3.314545201924710e-07, -3.078211643666318e+03, 9.941436850070708e+03, 9.660405849015470e+02, 1.316222566844895e+04
1104, -1.000000000003380e-04, 1.000000000002307e-04, 4.953272270169979e-08, 2.156282520890464e-07, -1.271937724970822e+03, 7.134221501521632e+03, 3.658734338916969e+02, 8.437947998160158e+03
1105, -5.000000000046567e-05, 1.000000000001708e-04, -4.128507283097317e-08, 1.078570673768049e-07, -4.757342228151308e+02, 3.710514646892855e+03, -1.226178274191136e+01, 4.186320700136986e+03
1106, -6.282434899455673e-16, 1.000000000001108e-04, -7.258682333512620e-08, 3.202561966941104e-09, -8.285161428564697e+01, 5.282708450669952e+01, -1.569461697793581e+02, 3.419606850788972e+02
1107, 4.999999999946757e-05, 1.000000000000509e-04, -4.604092429577945e-08, -1.016179503032781e-07, 3.139457213191481e+02, -3.610801572790968e+03, -5.749945974876573e+01, 3.926431722838216e+03
1108, 9.999999999959325e-05, 9.999999999999091e-05, 4.037749960813797e-08, -2.099098622530696e-07, 1.125515072815723e+03, -7.050183054702157e+03, 2.737693223994037e+02, 8.194012352922560e+03
1109, 1.499999999997670e-04, 9.999999999993101e-05, 1.927125026002497e-07, -3.266925189118697e-07, 2.974334368304859e+03, -9.872104610788634e+03, 8.242841002025195e+02, 1.295178642330699e+04
1110, 1.999999999998927e-04, 9.999999999987105e-05, 4.234092031729604e-07, -4.573194257907446e-07, 6.600293926682438e+03, -1.170131353400405e+04, 9.926361610326649e+02, 1.840896905961368e+04
