"PointID","x","y","Displacement_x","Displacement_y","Sxx","Syy","Sxy","Von_Mises_Stress"
0, -2.500000000000000e-04, 0.000000000000000e+00, 0.000000000000000e+00, 0.000000000000000e+00, 2.467378095438091e+04, 3.015447037517368e+04, 3.078496301658474e+03, 8.242967575120580e+03
1, 2.500000000000000e-04, 0.000000000000000e+00, 0.000000000000000e+00, 0.000000000000000e+00, -2.475268051773599e+04, -3.025532427038810e+04, 3.032531245015052e+03, 8.189265612774522e+03
2, 2.500000000000000e-04, 1.000000000000000e-02, 4.824321997624090e-04, -2.956169058554868e-05, 1.229580382764565e+01, 9.295697152905181e+00, 2.369588578508639e+00, 5.608960704570560e+00
3, -2.500000000000000e-04, 1.000000000000000e-02, 4.834953480604166e-04, 2.996756839289967e-06, 3.253005876790273e+00, 2.215865783872583e+01, 1.964801059514085e+00, 1.930972420620524e+01
4, -2.000000000000817e-04, 0.000000000000000e+00, 0.000000000000000e+00, 0.000000000000000e+00, 1.664151470451393e+04, 2.033853443737360e+04, 1.746652173924851e+03, 5.086367089766477e+03
5, -1.500000000001972e-04, 0.000000000000000e+00, 0.000000000000000e+00, 0.000000000000000e+00, 1.196666318885337e+04, 1.462697997836284e+04, 8.097893781729865e+02, 3.114533796341459e+03
6, -1.000000000003456e-04, 0.000000000000000e+00, 0.000000000000000e+00, 0.000000000000000e+00, 7.775186582747061e+03, 9.503720269943275e+03, 1.841798804397975e+02, 1.767347623193416e+03
7, -5.000000000047588e-05, 0.000000000000000e+00, 0.000000000000000e+00, 0.000000000000000e+00, 3.873024439848187e+03, 4.733642468972636e+03, -1.783505359995878e+02, 9.316109954371574e+02
8, -6.410887445906788e-16, 0.000000000000000e+00, 0.000000000000000e+00, 0.000000000000000e+00, 8.165410843775675e+01, 9.939120447841609e+01, -3.008197388504700e+02, 6.019008769757820e+02
9, 4.999999999945738e-05, 0.000000000000000e+00, 0.000000000000000e+00, 0.000000000000000e+00, -3.717223861117600e+03, -4.543353999664405e+03, -1.903081611151314e+02, 9.095932005921420e+02
10, 9.999999999958566e-05, 0.000000000000000e+00, 0.000000000000000e+00, 0.000000000000000e+00, -7.642198490605177e+03, -9.339773082286323e+03, 1.609006914420524e+02, 1.727806593443704e+03
11, 1.499999999997626e-04, 0.000000000000000e+00, 0.000000000000000e+00, 0.000000000000000e+00, -1.187293056629960e+04, -1.451026523710672e+04, 7.765554226582997e+02, 3.060667813350753e+03
12, 1.999999999998909e-04, 0.000000000000000e+00, 0.000000000000000e+00, 0.000000000000000e+00, -1.660051280178539e+04, -2.029045181770726e+04, 1.705828967031797e+03, 5.025441254286187e+03
13, 2.500000000000000e-04, 9.999999999981111e-05, 3.823636787823546e-07, -3.454717414100556e-07, 1.320976997970238e+03, -1.018459640673899e+04, 7.892717114674791e+02, 1.161335518742294e+04
14, 2.500000000000000e-04, 1.999999999996242e-04, 6.566840485500280e-07, -7.804435571416725e-07, -2.643880030829705e+03, -1.479003547307474e+04, -9.519606597465901e+01, 1.214764755790547e+04
15, 2.500000000000000e-04, 2.999999999994322e-04, 1.080933614412483e-06, -1.220635751895490e-06, -2.820686535498062e+03, -1.502857801819814e+04, -4.768010228959281e+01, 1.220826392334301e+04
16, 2.500000000000000e-04, 3.999999999992179e-04, 1.676930648971261e-06, -1.663422572556836e-06, -3.077880113621523e+03, -1.517744906693815e+04, -4.822203876700820e+01, 1.209995331875933e+04
17, 2.500000000000000e-04, 4.999999999990053e-04, 2.448241981410012e-06, -2.101423209389094e-06, -3.088052274854433e+03, -1.498236257345670e+04, -5.801871606481643e+01, 1.189487629885621e+04
18, 2.500000000000000e-04, 5.999999999988090e-04, 3.392112501756433e-06, -2.532854874673332e-06, -3.045995007922369e+03, -1.470611679056108e+04, -7.434578035506883e+01, 1.166106981225102e+04
19, 2.500000000000000e-04, 6.999999999986395e-04, 4.505018897741166e-06, -2.957407964630192e-06, -2.985784713951951e+03, -1.440655217217263e+04, -9.121643152037842e+01, 1.142222443678418e+04
20, 2.500000000000000e-04, 7.999999999985029e-04, 5.783409043475450e-06, -3.375316448794093e-06, -2.923336467801434e+03, -1.410640430094022e+04, -1.073259114982295e+02, 1.118512769554730e+04
21, 2.500000000000000e-04, 8.999999999983563e-04, 7.223836782072692e-06, -3.786903135187832e-06, -2.861490740644183e+03, -1.380965387560311e+04, -1.223047176411105e+02, 1.095089538830058e+04
22, 2.500000000000000e-04, 9.999999999981935e-04, 8.822929397153441e-06, -4.192482591438546e-06, -2.800691354446308e+03, -1.351664860915002e+04, -1.361686744196966e+02, 1.071941731234538e+04
23, 2.500000000000000e-04, 1.099999999998054e-03, 1.057736272730116e-05, -4.592344742855600e-06, -2.740760899967718e+03, -1.322703847639555e+04, -1.489755294382959e+02, 1.049050962743846e+04
24, 2.500000000000000e-04, 1.199999999997903e-03, 1.248384984621619e-05, -4.986759220483427e-06, -2.681574674257838e+03, -1.294062281836803e+04, -1.607782811092510e+02, 1.026408629376607e+04
25, 2.500000000000000e-04, 1.299999999997659e-03, 1.453913805331775e-05, -5.375979333986303e-06, -2.623078177602394e+03, -1.265733062716403e+04, -1.716194667346693e+02, 1.004012127351970e+04
26, 2.500000000000000e-04, 1.399999999997322e-03, 1.674000851165223e-05, -5.760244127497631e-06, -2.565254250729468e+03, -1.237714912986247e+04, -1.815368581687991e+02, 9.818610066738142e+03
27, 2.500000000000000e-04, 1.499999999997028e-03, 1.908327643572958e-05, -6.139779313759469e-06, -2.508096360649810e+03, -1.210008032922824e+04, -1.905662497798259e+02, 9.599553033120146e+03
28, 2.500000000000000e-04, 1.599999999996764e-03, 2.156579124629907e-05, -6.514797833814149e-06, -2.451601301414334e+03, -1.182612905387589e+04, -1.987422782533039e+02, 9.382950738138470e+03
29, 2.500000000000000e-04, 1.699999999996466e-03, 2.418443670345282e-05, -6.885500357328206e-06, -2.395765505740387e+03, -1.155529876164473e+04, -2.060989441289909e+02, 9.168803442385593e+03
30, 2.500000000000000e-04, 1.799999999996210e-03, 2.693613096708436e-05, -7.252075738355670e-06, -2.340584780786865e+03, -1.128759130151861e+04, -2.126695455010994e+02, 8.957111086971678e+03
31, 2.500000000000000e-04, 1.899999999995898e-03, 2.981782660379948e-05, -7.614701487069783e-06, -2.286058118157968e+03, -1.102301074610955e+04, -2.184864242001842e+02, 8.747873255443819e+03
32, 2.500000000000000e-04, 1.999999999995521e-03, 3.282651075206333e-05, -7.973544252347953e-06, -2.232179851408165e+03, -1.076155650719459e+04, -2.235815120999688e+02, 8.541090147427669e+03
33, 2.500000000000000e-04, 2.099999999995151e-03, 3.595920502371563e-05, -8.328760239227638e-06, -2.178948705066065e+03, -1.050323105214995e+04, -2.279857638234206e+02, 8.336761159347017e+03
34, 2.500000000000000e-04, 2.199999999994897e-03, 3.921296563842957e-05, -8.680495684723954e-06, -2.126361260509497e+03, -1.024803477226601e+04, -2.317294843627188e+02, 8.134886283609584e+03
35, 2.500000000000000e-04, 2.299999999994653e-03, 4.258488342216964e-05, -9.028887272812489e-06, -2.074413508185175e+03, -9.995966933843736e+03, -2.348424190634211e+02, 7.935465488723969e+03
36, 2.500000000000000e-04, 2.399999999994409e-03, 4.607208375398355e-05, -9.374062560538070e-06, -2.023106042406046e+03, -9.747030325771238e+03, -2.373534484920316e+02, 7.738498108367201e+03
37, 2.500000000000000e-04, 2.499999999994080e-03, 4.967172673607533e-05, -9.716140401117376e-06, -1.972437420340568e+03, -9.501226050294918e+03, -2.392904070650135e+02, 7.543984214603265e+03
38, 2.500000000000000e-04, 2.599999999993751e-03, 5.338100724126873e-05, -1.005523136587208e-05, -1.922403005699216e+03, -9.258551980635268e+03, -2.406810242862706e+02, 7.351924319813232e+03
39, 2.500000000000000e-04, 2.699999999993507e-03, 5.719715478785714e-05, -1.039143810274543e-05, -1.873002870366109e+03, -9.019009471277510e+03, -2.415521606588250e+02, 7.162318069280721e+03
40, 2.500000000000000e-04, 2.799999999993264e-03, 6.111743365819672e-05, -1.072485574925012e-05, -1.824236673929269e+03, -8.782599377139210e+03, -2.419298544178696e+02, 6.975165354832655e+03
41, 2.500000000000000e-04, 2.899999999993009e-03, 6.513914297513484e-05, -1.105557229237623e-05, -1.776101505517830e+03, -8.549320210368754e+03, -2.418395072476444e+02, 6.790466627029808e+03
42, 2.500000000000000e-04, 2.999999999992623e-03, 6.925961661076242e-05, -1.138366894940644e-05, -1.728600673810255e+03, -8.319175529293410e+03, -2.413057564327029e+02, 6.608221454981441e+03
43, 2.500000000000000e-04, 3.099999999992220e-03, 7.347622343543087e-05, -1.170922052667334e-05, -1.681729339202268e+03, -8.092161952252237e+03, -2.403526104134264e+02, 6.428430896866268e+03
44, 2.500000000000000e-04, 3.199999999991949e-03, 7.778636712655129e-05, -1.203229576184223e-05, -1.635487747893601e+03, -7.868279968162155e+03, -2.390037989514358e+02, 6.251095114033466e+03
45, 2.500000000000000e-04, 3.299999999991705e-03, 8.218748625005142e-05, -1.235295765837500e-05, -1.589876092194103e+03, -7.647529814941808e+03, -2.372821493924623e+02, 6.076214273575311e+03
46, 2.500000000000000e-04, 3.399999999991461e-03, 8.667705431913225e-05, -1.267126381791411e-05, -1.544894933608730e+03, -7.429912159562766e+03, -2.352096035488514e+02, 5.903788781806322e+03
47, 2.500000000000000e-04, 3.499999999991149e-03, 9.125257987381418e-05, -1.298726677881817e-05, -1.500540723724071e+03, -7.215423927591606e+03, -2.328079698995764e+02, 5.733819689983486e+03
48, 2.500000000000000e-04, 3.599999999990803e-03, 9.591160632961195e-05, -1.330101429376269e-05, -1.456815228666749e+03, -7.004066313545456e+03, -2.300983962592748e+02, 5.566307185785954e+03
49, 2.500000000000000e-04, 3.699999999990560e-03, 1.006517120756101e-04, -1.361254966517674e-05, -1.413723564841911e+03, -6.795843244874872e+03, -2.271009962106147e+02, 5.401250938450971e+03
50, 2.500000000000000e-04, 3.799999999990315e-03, 1.054705107521922e-04, -1.392191202499874e-05, -1.371260719020186e+03, -6.590750051740248e+03, -2.238352452098376e+02, 5.238652284927021e+03
51, 2.500000000000000e-04, 3.899999999990071e-03, 1.103656510051450e-04, -1.422913661991084e-05, -1.329427005599469e+03, -6.388786405747517e+03, -2.203205462270628e+02, 5.078511800933969e+03
52, 2.500000000000000e-04, 3.999999999989709e-03, 1.153348165393952e-04, -1.453425508969353e-05, -1.288223387775924e+03, -6.189952413898251e+03, -2.165755118961278e+02, 4.920829935584283e+03
53, 2.500000000000000e-04, 4.099999999989249e-03, 1.203757261878269e-04, -1.483729573582157e-05, -1.247649652654139e+03, -5.994247125851137e+03, -2.126181767123267e+02, 4.765607362008963e+03
54, 2.500000000000000e-04, 4.199999999988788e-03, 1.254861338915123e-04, -1.513828378165719e-05, -1.207706620260364e+03, -5.801670642276131e+03, -2.084660490742069e+02, 4.612844871664526e+03
55, 2.500000000000000e-04, 4.299999999988333e-03, 1.306638287350679e-04, -1.543724164392906e-05, -1.168396290479214e+03, -5.612224267721082e+03, -2.041359744620144e+02, 4.462543341592974e+03
56, 2.500000000000000e-04, 4.399999999988144e-03, 1.359066350572507e-04, -1.573418918347395e-05, -1.129715682961551e+03, -5.425904943425897e+03, -1.996446297213668e+02, 4.314704401744749e+03
57, 2.500000000000000e-04, 4.499999999988117e-03, 1.412124122784093e-04, -1.602914391958903e-05, -1.091669592936007e+03, -5.242716011580595e+03, -1.950078833809324e+02, 4.169328323371152e+03
58, 2.500000000000000e-04, 4.599999999988090e-03, 1.465790551536523e-04, -1.632212128678159e-05, -1.054258254663989e+03, -5.062656798945443e+03, -1.902408050984769e+02, 4.026415918095862e+03
59, 2.500000000000000e-04, 4.699999999988035e-03, 1.520044937820425e-04, -1.661313482038112e-05, -1.017478967021285e+03, -4.885724744682125e+03, -1.853580652301166e+02, 3.885969099951044e+03
60, 2.500000000000000e-04, 4.799999999987717e-03, 1.574866934133075e-04, -1.690219643441225e-05, -9.813373811015758e+02, -4.711924120737969e+03, -1.803744560786264e+02, 3.747988420416148e+03
61, 2.500000000000000e-04, 4.899999999987257e-03, 1.630236547332059e-04, -1.718931657882743e-05, -9.458308121492257e+02, -4.541251840651532e+03, -1.753036057656722e+02, 3.612475299427577e+03
62, 2.500000000000000e-04, 4.999999999986965e-03, 1.686134137405751e-04, -1.747450445098401e-05, -9.109607665966655e+02, -4.373708627726068e+03, -1.701587875852905e+02, 3.479430815769475e+03
63, 2.500000000000000e-04, 5.099999999987202e-03, 1.742540418196683e-04, -1.775776820151947e-05, -8.767281124550727e+02, -4.209294632545764e+03, -1.649528805930443e+02, 3.348856136368530e+03
64, 2.500000000000000e-04, 5.199999999987608e-03, 1.799436457490598e-04, -1.803911510813887e-05, -8.431344582671410e+02, -4.048010539736573e+03, -1.596981711769593e+02, 3.220752198025164e+03
65, 2.500000000000000e-04, 5.299999999988015e-03, 1.856803677740765e-04, -1.831855176322158e-05, -8.101790150003998e+02, -3.889855107039822e+03, -1.544066007692733e+02, 3.095120421780660e+03
66, 2.500000000000000e-04, 5.399999999988211e-03, 1.914623855499176e-04, -1.859608424069861e-05, -7.778628435729161e+02, -3.734828659056954e+03, -1.490897659845863e+02, 2.971961955884788e+03
67, 2.500000000000000e-04, 5.499999999988184e-03, 1.972879121767459e-04, -1.887171826935302e-05, -7.461879387778537e+02, -3.582932354533019e+03, -1.437586773809846e+02, 2.851277802952114e+03
68, 2.500000000000000e-04, 5.599999999988157e-03, 2.031551962908915e-04, -1.914545939249844e-05, -7.151545307975261e+02, -3.434165973905727e+03, -1.384237429917953e+02, 2.733069292617509e+03
69, 2.500000000000000e-04, 5.699999999988293e-03, 2.090625220703003e-04, -1.941731312580063e-05, -6.847630729977473e+02, -3.288529368275656e+03, -1.330950866619900e+02, 2.617337603137871e+03
70, 2.500000000000000e-04, 5.799999999988694e-03, 2.150082092390881e-04, -1.968728509163365e-05, -6.550146033813937e+02, -3.146022721932102e+03, -1.277824831442424e+02, 2.504083644505426e+03
71, 2.500000000000000e-04, 5.899999999989099e-03, 2.209906130703322e-04, -1.995538116096072e-05, -6.259096936854976e+02, -3.006646107926551e+03, -1.224954257631430e+02, 2.393308670319172e+03
72, 2.500000000000000e-04, 5.999999999989505e-03, 2.270081243833443e-04, -2.022160760450587e-05, -5.974499140189112e+02, -2.870400920385496e+03, -1.172429064930496e+02, 2.285014195543350e+03
73, 2.500000000000000e-04, 6.099999999989911e-03, 2.330591696389879e-04, -2.048597124108742e-05, -5.696349749544713e+02, -2.737287174061513e+03, -1.120334500115787e+02, 2.179202154913485e+03
74, 2.500000000000000e-04, 6.199999999990317e-03, 2.391422109440679e-04, -2.074847955282991e-05, -5.424678090436551e+02, -2.607307360613225e+03, -1.068748464138349e+02, 2.075873624503656e+03
75, 2.500000000000000e-04, 6.299999999990723e-03, 2.452557462041488e-04, -2.100914080106943e-05, -5.159435854806060e+02, -2.480457492538072e+03, -1.017751129741478e+02, 1.975031034061438e+03
76, 2.500000000000000e-04, 6.399999999990975e-03, 2.513983087982036e-04, -2.126796412635921e-05, -4.900700834929254e+02, -2.356743440502337e+03, -9.674194598448187e+01, 1.876674036219461e+03
77, 2.500000000000000e-04, 6.499999999990961e-03, 2.575684679988971e-04, -2.152495963995778e-05, -4.648455814187992e+02, -2.236162393843686e+03, -9.178178304294617e+01, 1.780802861850023e+03
78, 2.500000000000000e-04, 6.599999999990934e-03, 2.637648289049238e-04, -2.178013848196928e-05, -4.402649983172347e+02, -2.118709840927351e+03, -8.690103632090228e+01, 1.687419405524034e+03
79, 2.500000000000000e-04, 6.699999999991035e-03, 2.699860321064514e-04, -2.203351301009012e-05, -4.163373941832035e+02, -2.004392602929208e+03, -8.210684769804638e+01, 1.596522935563707e+03
80, 2.500000000000000e-04, 6.799999999991401e-03, 2.762307540993451e-04, -2.228509680195320e-05, -3.930584144702325e+02, -1.893206091059675e+03, -7.740485035436126e+01, 1.508114417081883e+03
81, 2.500000000000000e-04, 6.899999999991809e-03, 2.824977070902630e-04, -2.253490479195108e-05, -3.704307128656916e+02, -1.785152283511633e+03, -7.280032579361034e+01, 1.422194315905370e+03
82, 2.500000000000000e-04, 6.999999999992214e-03, 2.887856392161188e-04, -2.278295335892133e-05, -3.484466300878074e+02, -1.680225469039560e+03, -6.829865490484069e+01, 1.338765737882069e+03
83, 2.500000000000000e-04, 7.099999999992620e-03, 2.950933340808738e-04, -2.302926043653730e-05, -3.271133697755673e+02, -1.578432388497519e+03, -6.390591083827408e+01, 1.257829538679843e+03
84, 2.500000000000000e-04, 7.199999999993026e-03, 3.014196110882554e-04, -2.327384557893154e-05, -3.064395092058352e+02, -1.479779191664132e+03, -5.962628925560166e+01, 1.179384240997355e+03
85, 2.500000000000000e-04, 7.299999999993359e-03, 3.077633259458721e-04, -2.351672994325102e-05, -2.864070285119149e+02, -1.384251192887255e+03, -5.546349455822597e+01, 1.103434006258385e+03
86, 2.500000000000000e-04, 7.399999999993427e-03, 3.141233697147021e-04, -2.375793646720672e-05, -2.670304583708616e+02, -1.291860468012730e+03, -5.142274728422515e+01, 1.029977545588049e+03
87, 2.500000000000000e-04, 7.499999999993399e-03, 3.204986695466133e-04, -2.399748984019188e-05, -2.483054713836864e+02, -1.202600972097536e+03, -4.750768003395028e+01, 9.590139839082276e+02
88, 2.500000000000000e-04, 7.599999999993372e-03, 3.268881884586750e-04, -2.423541647040328e-05, -2.302344823158115e+02, -1.116471273131149e+03, -4.372062233869399e+01, 8.905400724646806e+02
89, 2.500000000000000e-04, 7.699999999993440e-03, 3.332909255843455e-04, -2.447174454720608e-05, -2.128074858365434e+02, -1.033460885243764e+03, -4.006382092619948e+01, 8.245559052892978e+02
90, 2.500000000000000e-04, 7.799999999993771e-03, 3.397059155825672e-04, -2.470650413381315e-05, -1.960217509784885e+02, -9.535686057075826e+02, -3.654126508905655e+01, 7.610639219718526e+02
91, 2.500000000000000e-04, 7.899999999994177e-03, 3.461322284002148e-04, -2.493972737536206e-05, -1.798929694137479e+02, -8.768069768540263e+02, -3.315762458906265e+01, 7.000620301373481e+02
92, 2.500000000000000e-04, 7.999999999994584e-03, 3.525689700925145e-04, -2.517144833795487e-05, -1.644120441640148e+02, -8.031669052667343e+02, -2.991468705976008e+01, 6.415507202005840e+02
93, 2.500000000000000e-04, 8.099999999994990e-03, 3.590152823807712e-04, -2.540170313363973e-05, -1.495777795528226e+02, -7.326479472089172e+02, -2.681468267594568e+01, 5.855313221669298e+02
94, 2.500000000000000e-04, 8.199999999995398e-03, 3.654703427360388e-04, -2.563053000628293e-05, -1.353923281033381e+02, -6.652516894062450e+02, -2.385992512174076e+01, 5.320038786208092e+02
95, 2.500000000000000e-04, 8.299999999995804e-03, 3.719333644167799e-04, -2.585796927554165e-05, -1.218567580886050e+02, -6.009768683236457e+02, -2.105219986510945e+01, 4.809665898046138e+02
96, 2.500000000000000e-04, 8.399999999996209e-03, 3.784035965257748e-04, -2.608406331832642e-05, -1.089692333936331e+02, -5.398180832703096e+02, -1.839239724342998e+01, 4.324162954208541e+02
97, 2.500000000000000e-04, 8.499999999996616e-03, 3.848803240665137e-04, -2.630885651603747e-05, -9.671897539690474e+01, -4.817626771376391e+02, -1.588093994838965e+01, 3.863514840980749e+02
98, 2.500000000000000e-04, 8.599999999997021e-03, 3.913628674056868e-04, -2.653239532406901e-05, -8.510547468430940e+01, -4.268087601866587e+02, -1.351934429429452e+01, 3.427713902934298e+02
99, 2.500000000000000e-04, 8.699999999997429e-03, 3.978505821936762e-04, -2.675472839113466e-05, -7.413517774801058e+01, -3.749591727162792e+02, -1.130988026446981e+01, 3.016732164363543e+02
100, 2.500000000000000e-04, 8.799999999997834e-03, 4.043428596434299e-04, -2.697590644178023e-05, -6.380484724055173e+01, -3.262085707466431e+02, -9.252762892046970e+00, 2.630554477565653e+02
101, 2.500000000000000e-04, 8.899999999997930e-03, 4.108391264454726e-04, -2.719598239151831e-05, -5.410544027328959e+01, -2.805514461382089e+02, -7.348280035593026e+00, 2.269224150455416e+02
102, 2.500000000000000e-04, 8.999999999997496e-03, 4.173388444288196e-04, -2.741501155420948e-05, -4.503298959234765e+01, -2.379889022487540e+02, -5.598533347439020e+00, 1.932805177239451e+02
103, 2.500000000000000e-04, 9.099999999997034e-03, 4.238415105109321e-04, -2.763305163824023e-05, -3.659195766200358e+01, -1.985267330025433e+02, -4.004546950616146e+00, 1.621327143105605e+02
104, 2.500000000000000e-04, 9.199999999996832e-03, 4.303466572147408e-04, -2.785016263712106e-05, -2.877128994351396e+01, -1.621506951354325e+02, -2.565128577567635e+00, 1.334780329036498e+02
105, 2.500000000000000e-04, 9.299999999997156e-03, 4.368538526427642e-04, -2.806640644869690e-05, -2.154094675125896e+01, -1.288237538754840e+02, -1.276584887768024e+00, 1.073131836279047e+02
106, 2.500000000000000e-04, 9.399999999997563e-03, 4.433626994440589e-04, -2.828184666199859e-05, -1.489043642129876e+01, -9.852138454601771e+01, -1.348619408937406e-01, 8.363138307604292e+01
107, 2.500000000000000e-04, 9.499999999997968e-03, 4.498728342199656e-04, -2.849654843539668e-05, -8.779827476888865e+00, -7.119313675779225e+01, 8.594015097722130e-01, 6.243697189337175e+01
108, 2.500000000000000e-04, 9.599999999998375e-03, 4.563839251458684e-04, -2.871057838449164e-05, -3.228221350046582e+00, -4.684758688461946e+01, 1.698871336841513e+00, 4.375149945904998e+01
109, 2.500000000000000e-04, 9.699999999998783e-03, 4.628956703471550e-04, -2.892400529854337e-05, 1.688177526223038e+00, -2.575395647760873e+01, 2.370033530244279e+00, 2.784850003900010e+01
110, 2.500000000000000e-04, 9.799999999999188e-03, 4.694077911131693e-04, -2.913691374231279e-05, 5.600831264425368e+00, -8.780257302950560e+00, 2.707197174456267e+00, 1.536656677817939e+01
111, 2.500000000000000e-04, 9.899999999999593e-03, 4.759200337264701e-04, -2.934941746261419e-05, 8.193207272256625e+00, 2.643343401856821e+00, 2.495524794406153e+00, 7.464018018329845e+00
112, 2.000000000000817e-04, 1.000000000000000e-02, 4.825382516840641e-04, -2.630576279603958e-05, 1.077407429973635e+01, 7.690239450830185e+00, 3.337955142563612e+00, 7.353761997127427e+00
113, 1.500000000001972e-04, 1.000000000000000e-02, 4.826443122771288e-04, -2.304993515373862e-05, 9.979980318551881e+00, 8.904575621712402e+00, 5.022099739745994e+00, 1.010160573601106e+01
114, 1.000000000003456e-04, 1.000000000000000e-02, 4.827504271177580e-04, -1.979419871185305e-05, 6.368326047714611e+00, 9.353782026568297e+00, 6.475618968706603e+00, 1.329088076513984e+01
115, 5.000000000047588e-05, 1.000000000000000e-02, 4.828566271913665e-04, -1.653851868307449e-05, 1.103649372551954e+00, 9.432478638540085e+00, 7.433937360247874e+00, 1.704180435418553e+01
116, 6.410887445906788e-16, 1.000000000000000e-02, 4.829629295731495e-04, -1.328284457670489e-05, -4.426595325727400e+00, 9.848501909884304e+00, 7.710113480080463e+00, 2.101337194714458e+01
117, -4.999999999945738e-05, 1.000000000000000e-02, 4.830693373909881e-04, -1.002711735833477e-05, -8.535542682110712e+00, 1.164766981024315e+01, 7.200487021342135e+00, 2.479415495413335e+01
118, -9.999999999958566e-05, 1.000000000000000e-02, 4.831758384136131e-04, -6.771282630797115e-06, -9.198846288802708e+00, 1.609308253762916e+01, 5.990308410786918e+00, 2.798601156268384e+01
119, -1.499999999997626e-04, 1.000000000000000e-02, 4.832824001258110e-04, -3.515313778662938e-06, -3.940501374876382e+00, 2.436151299630372e+01, 4.525972104153283e+00, 2.971433511651876e+01
120, -1.999999999998909e-04, 1.000000000000000e-02, 4.833889555864108e-04, -2.592505448616214e-07, 1.215770986691573e+01, 3.820810514963192e+01, 3.717432740945473e+00, 2.709059466160858e+01
121, -2.500000000000000e-04, 9.899999999999590e-03, 4.769831636982235e-04, 3.208336305017565e-06, -1.214107661368791e+01, 2.053298858527652e+01, -1.714251129092255e+00, 3.285344980912286e+01
122, -2.500000000000000e-04, 9.799999999999181e-03, 4.704708146759559e-04, 3.419231977930780e-06, 2.387316268430227e+00, 4.918633967386409e+01, 6.115339747000169e-01, 4.681500279729988e+01
123, -2.500000000000000e-04, 9.699999999999055e-03, 4.639586113061214e-04, 3.629616851761612e-06, 8.272647496452599e+00, 6.895645582876227e+01, 2.828075265311295e+00, 6.094683447511903e+01
124, -2.500000000000000e-04, 9.599999999999458e-03, 4.574467634047837e-04, 3.839411550233456e-06, 1.269011846763651e+01, 9.009294927893471e+01, 4.943499087606279e+00, 7.803173040833524e+01
125, -2.500000000000000e-04, 9.499999999999916e-03, 4.509355005640963e-04, 4.048491530570842e-06, 1.758206283190792e+01, 1.146440311798023e+02, 7.120472613467022e+00, 9.810112242234636e+01
126, -2.500000000000000e-04, 9.400000000000373e-03, 4.444250937163127e-04, 4.256738918091183e-06, 2.312990466457410e+01, 1.425504117085060e+02, 9.377693799734022e+00, 1.208843334209858e+02
127, -2.500000000000000e-04, 9.300000000000832e-03, 4.379158519662323e-04, 4.464037992604662e-06, 2.954567651448559e+01, 1.738355728583193e+02, 1.173837027105140e+01, 1.461873165955087e+02
128, -2.500000000000000e-04, 9.200000000001289e-03, 4.314081302123941e-04, 4.670275361718749e-06, 3.651512446910183e+01, 2.081334612991993e+02, 1.421399634056070e+01, 1.739569035830619e+02
129, -2.500000000000000e-04, 9.100000000001746e-03, 4.249023117743240e-04, 4.875337846449250e-06, 4.422849256711005e+01, 2.455531481492632e+02, 1.681934764707475e+01, 2.041156014771170e+02
130, -2.500000000000000e-04, 9.000000000002204e-03, 4.183988192094571e-04, 5.079110632843228e-06, 5.262296496160661e+01, 2.860322165626076e+02, 1.954902055226485e+01, 2.366612252802535e+02
131, -2.500000000000000e-04, 8.900000000002661e-03, 4.118981109191685e-04, 5.281476555523353e-06, 6.167108642130226e+01, 3.295507053649096e+02, 2.240897218588827e+01, 2.716029056970560e+02
132, -2.500000000000000e-04, 8.800000000003118e-03, 4.054006800806992e-04, 5.482316001170145e-06, 7.137201403540780e+01, 3.761100848706118e+02, 2.540510937043341e+01, 3.089449306022944e+02
133, -2.500000000000000e-04, 8.700000000003576e-03, 3.989070552653045e-04, 5.681507078116977e-06, 8.170039726706629e+01, 4.256909732983074e+02, 2.854041924559580e+01, 3.486943339389996e+02
134, -2.500000000000000e-04, 8.600000000004033e-03, 3.924177995655426e-04, 5.878925594195419e-06, 9.265676636160350e+01, 4.782983749094356e+02, 3.181766705568111e+01, 3.908566309925215e+02
135, -2.500000000000000e-04, 8.500000000004490e-03, 3.859335108252635e-04, 6.074444929449268e-06, 1.042503509650879e+02, 5.339442235399180e+02, 3.523893961176218e+01, 4.354353632724381e+02
136, -2.500000000000000e-04, 8.400000000004949e-03, 3.794548220870051e-04, 6.267936175675007e-06, 1.165032366926234e+02, 5.926547538138635e+02, 3.880087814062889e+01, 4.824337258471825e+02
137, -2.500000000000000e-04, 8.300000000005149e-03, 3.729824026531365e-04, 6.459267763144402e-06, 1.293893164689274e+02, 6.544144427417111e+02, 4.250562338109940e+01, 5.318630418574088e+02
138, -2.500000000000000e-04, 8.200000000005172e-03, 3.665169565624155e-04, 6.648305981365210e-06, 1.429525904924512e+02, 7.192681310066023e+02, 4.634844070076681e+01, 5.837228058416838e+02
139, -2.500000000000000e-04, 8.100000000005195e-03, 3.600592250219020e-04, 6.834914344458340e-06, 1.571536574912584e+02, 7.871921479784755e+02, 5.032994310957909e+01, 6.380289273920620e+02
140, -2.500000000000000e-04, 8.000000000005220e-03, 3.536099842536606e-04, 7.018954199678470e-06, 1.719939044169596e+02, 8.581880453140359e+02, 5.445297604392457e+01, 6.947826317645236e+02
141, -2.500000000000000e-04, 7.900000000005243e-03, 3.471700456017870e-04, 7.200284830616899e-06, 1.875354812900677e+02, 9.323140454246486e+02, 5.870912993390144e+01, 7.539775575869292e+02
142, -2.500000000000000e-04, 7.800000000005240e-03, 3.407402590111554e-04, 7.378762882538058e-06, 2.036878836410366e+02, 1.009498528153829e+03, 6.309927128522403e+01, 8.156328015455404e+02
143, -2.500000000000000e-04, 7.700000000005121e-03, 3.343215082779437e-04, 7.554243293646383e-06, 2.204922214159305e+02, 1.089777673676797e+03, 6.762197662526175e+01, 8.797432150367571e+02
144, -2.500000000000000e-04, 7.600000000005145e-03, 3.279147135401480e-04, 7.726578600629535e-06, 2.379430138091754e+02, 1.173148592008320e+03, 7.227614486685434e+01, 9.463111739602646e+02
145, -2.500000000000000e-04, 7.500000000005337e-03, 3.215208311115252e-04, 7.895619629879993e-06, 2.560014414574140e+02, 1.259575848816420e+03, 7.706087631098217e+01, 1.015339896653946e+03
146, -2.500000000000000e-04, 7.400000000005796e-03, 3.151408513941540e-04, 8.061215402451655e-06, 2.747433992269601e+02, 1.349128620530086e+03, 8.196924989227954e+01, 1.086820792709718e+03
147, -2.500000000000000e-04, 7.300000000006254e-03, 3.087758028494353e-04, 8.223212546759461e-06, 2.941307317653500e+02, 1.441783635533775e+03, 8.699636546462989e+01, 1.160767271223788e+03
148, -2.500000000000000e-04, 7.200000000006711e-03, 3.024267497430159e-04, 8.381455797281154e-06, 3.141570853221311e+02, 1.537536478553749e+03, 9.214179791419677e+01, 1.237181305821910e+03
149, -2.500000000000000e-04, 7.100000000007169e-03, 2.960947919517603e-04, 8.535788181256276e-06, 3.348459158135375e+02, 1.636407467932243e+03, 9.740008140761900e+01, 1.316058348777325e+03
150, -2.500000000000000e-04, 7.000000000007627e-03, 2.897810664073715e-04, 8.686050923818621e-06, 3.561682826161613e+02, 1.738375451597878e+03, 1.027663792572099e+02, 1.397404870753998e+03
151, -2.500000000000000e-04, 6.900000000008085e-03, 2.834867456003222e-04, 8.832083569986198e-06, 3.781372667328937e+02, 1.843452235056405e+03, 1.082373029574784e+02, 1.481218826304530e+03
152, -2.500000000000000e-04, 6.800000000008542e-03, 2.772130384314261e-04, 8.973724107976974e-06, 4.007383593116741e+02, 1.951625129873339e+03, 1.138085675860221e+02, 1.567500984155072e+03
153, -2.500000000000000e-04, 6.700000000009001e-03, 2.709611894706314e-04, 9.110809130163367e-06, 4.239915723259908e+02, 2.062913407594418e+03, 1.194732569732705e+02, 1.656248839591090e+03
154, -2.500000000000000e-04, 6.600000000009459e-03, 2.647324800691299e-04, 9.243173580957711e-06, 4.478871700285093e+02, 2.177310887154475e+03, 1.252256737320651e+02, 1.747464526336483e+03
155, -2.500000000000000e-04, 6.500000000009916e-03, 2.585282279987318e-04, 9.370651181916493e-06, 4.723968713062311e+02, 2.294793807551489e+03, 1.310612887942964e+02, 1.841151498089657e+03
156, -2.500000000000000e-04, 6.400000000010177e-03, 2.523497860665941e-04, 9.493074433840988e-06, 4.975506644008642e+02, 2.415388129256477e+03, 1.369750251108932e+02, 1.937304615082595e+03
157, -2.500000000000000e-04, 6.300000000010201e-03, 2.461985437207296e-04, 9.610274640110458e-06, 5.233479078833047e+02, 2.539095168673989e+03, 1.429585792246324e+02, 2.035923780714997e+03
158, -2.500000000000000e-04, 6.200000000010225e-03, 2.400759269704716e-04, 9.722082000875965e-06, 5.497827190214489e+02, 2.665911457923577e+03, 1.490043149354047e+02, 2.137009588908059e+03
159, -2.500000000000000e-04, 6.100000000010248e-03, 2.339833981984190e-04, 9.828325757580102e-06, 5.768401092301037e+02, 2.795824923795891e+03, 1.551061418550472e+02, 2.240563605041864e+03
160, -2.500000000000000e-04, 6.000000000010509e-03, 2.279224554563056e-04, 9.928834367698803e-06, 6.045346494522106e+02, 2.928848190564237e+03, 1.612566811219149e+02, 2.346582260698003e+03
161, -2.500000000000000e-04, 5.900000000010967e-03, 2.218946332914032e-04, 1.002343552196173e-05, 6.328698214395537e+02, 3.064985400299529e+03, 1.674463892596073e+02, 2.455064024020089e+03
162, -2.500000000000000e-04, 5.800000000011424e-03, 2.159015030037032e-04, 1.011195628341826e-05, 6.618316925947447e+02, 3.204226196431287e+03, 1.736659263744994e+02, 2.566010371972863e+03
163, -2.500000000000000e-04, 5.700000000011876e-03, 2.099446720908688e-04, 1.019422322212759e-05, 6.914090968100497e+02, 3.346562150901110e+03, 1.799077486676818e+02, 2.679422499862942e+03
164, -2.500000000000000e-04, 5.600000000012062e-03, 2.040257838244329e-04, 1.027006258557495e-05, 7.216051619750098e+02, 3.491996057140914e+03, 1.861642233746247e+02, 2.795298585889680e+03
165, -2.500000000000000e-04, 5.500000000012085e-03, 1.981465174562559e-04, 1.033930043548811e-05, 7.524333606661223e+02, 3.640539355741372e+03, 1.924251653208571e+02, 2.913634502779069e+03
166, -2.500000000000000e-04, 5.400000000012110e-03, 1.923085889518652e-04, 1.040176275301301e-05, 7.838870002092981e+02, 3.792187325038600e+03, 1.986791641403681e+02, 3.034429845196977e+03
167, -2.500000000000000e-04, 5.300000000012160e-03, 1.865137507071722e-04, 1.045727558932208e-05, 8.159584086527824e+02, 3.946934561035368e+03, 2.049156391839658e+02, 3.157684807500134e+03
168, -2.500000000000000e-04, 5.200000000012475e-03, 1.807637912814492e-04, 1.050566522439086e-05, 8.486460567027027e+02, 4.104780799196780e+03, 2.111240352762963e+02, 3.283398680386279e+03
169, -2.500000000000000e-04, 5.100000000012934e-03, 1.750605354358132e-04, 1.054675832220806e-05, 8.819508702612769e+02, 4.265727762034796e+03, 2.172930263990417e+02, 3.411570179636801e+03
170, -2.500000000000000e-04, 5.000000000013221e-03, 1.694058442798072e-04, 1.058038209931819e-05, 9.158710983998628e+02, 4.429775122694060e+03, 2.234104584717499e+02, 3.542198529694402e+03
171, -2.500000000000000e-04, 4.900000000012981e-03, 1.638016152816530e-04, 1.060636448454459e-05, 9.504001480852580e+02, 4.596918283431633e+03, 2.294646302318306e+02, 3.675283741089894e+03
172, -2.500000000000000e-04, 4.800000000012570e-03, 1.582497819874145e-04, 1.062453433768698e-05, 9.855439594847869e+02, 4.767162663050640e+03, 2.354429445078714e+02, 3.810823210230728e+03
173, -2.500000000000000e-04, 4.700000000012160e-03, 1.527523144198628e-04, 1.063472161307807e-05, 1.021304681486082e+03, 4.940510877820314e+03, 2.413308311202775e+02, 3.948814947497724e+03
174, -2.500000000000000e-04, 4.600000000011960e-03, 1.473112193411871e-04, 1.063675754105268e-05, 1.057664864279003e+03, 5.116949691013886e+03, 2.471144222927528e+02, 4.089260991350439e+03
175, -2.500000000000000e-04, 4.500000000011985e-03, 1.419285394639987e-04, 1.063047484307146e-05, 1.094626718994029e+03, 5.296482055067696e+03, 2.527807355008171e+02, 4.232160283620185e+03
176, -2.500000000000000e-04, 4.400000000012010e-03, 1.366063536574225e-04, 1.061570792891497e-05, 1.132198059622527e+03, 5.479115068954602e+03, 2.583150051023972e+02, 4.377510028939365e+03
177, -2.500000000000000e-04, 4.300000000011870e-03, 1.313467774328066e-04, 1.059229313190898e-05, 1.170372951163659e+03, 5.664844269265536e+03, 2.637012568830369e+02, 4.525309474584827e+03
178, -2.500000000000000e-04, 4.200000000011467e-03, 1.261519627167481e-04, 1.056006892950729e-05, 1.209147419664545e+03, 5.853666898887092e+03, 2.689237366406355e+02, 4.675557838097259e+03
179, -2.500000000000000e-04, 4.100000000011056e-03, 1.210240977605520e-04, 1.051887617429992e-05, 1.248521925736046e+03, 6.045584073684899e+03, 2.739658855507203e+02, 4.828253770988640e+03
180, -2.500000000000000e-04, 4.000000000010646e-03, 1.159654073023813e-04, 1.046855831202402e-05, 1.288491241443138e+03, 6.240592535665615e+03, 2.788107374418688e+02, 4.983397328880315e+03
181, -2.500000000000000e-04, 3.900000000010236e-03, 1.109781523904610e-04, 1.040896162508019e-05, 1.329053663490014e+03, 6.438692007851756e+03, 2.834414039555562e+02, 5.140988244304493e+03
182, -2.500000000000000e-04, 3.800000000009824e-03, 1.060646303631372e-04, 1.033993548050125e-05, 1.370213564148901e+03, 6.639886768376817e+03, 2.878400397518399e+02, 5.301024734265545e+03
183, -2.500000000000000e-04, 3.700000000009415e-03, 1.012271751685357e-04, 1.026133261241497e-05, 1.411966362503279e+03, 6.844173601469052e+03, 2.919876697233913e+02, 5.463506445878337e+03
184, -2.500000000000000e-04, 3.600000000009160e-03, 9.646815721928624e-05, 1.017300937841602e-05, 1.454309686865650e+03, 7.051551293378382e+03, 2.958651743781830e+02, 5.628433033031180e+03
185, -2.500000000000000e-04, 3.500000000009170e-03, 9.178998338053917e-05, 1.007482603569613e-05, 1.497241841128517e+03, 7.262019352772697e+03, 2.994529108435449e+02, 5.795804339520888e+03
186, -2.500000000000000e-04, 3.400000000009196e-03, 8.719509696318520e-05, 9.966647012953706e-06, 1.540763661437780e+03, 7.475579021361812e+03, 3.027307975673016e+02, 5.965619590585135e+03
187, -2.500000000000000e-04, 3.300000000009092e-03, 8.268597782625693e-05, 9.848341231511788e-06, 1.584874635506442e+03, 7.692229763208493e+03, 3.056777960274992e+02, 6.137877671948623e+03
188, -2.500000000000000e-04, 3.200000000008720e-03, 7.826514243255308e-05, 9.719782420699976e-06, 1.629571561688713e+03, 7.911968969256617e+03, 3.082721231423615e+02, 6.312578236682910e+03
189, -2.500000000000000e-04, 3.100000000008311e-03, 7.393514377049515e-05, 9.580849405875585e-06, 1.674853201569791e+03, 8.134795899434050e+03, 3.104917353454076e+02, 6.489721113465583e+03
190, -2.500000000000000e-04, 3.000000000007901e-03, 6.969857135854909e-05, 9.431426427494276e-06, 1.720719789345397e+03, 8.360710697734548e+03, 3.123139647551440e+02, 6.669305759508622e+03
191, -2.500000000000000e-04, 2.900000000007490e-03, 6.555805132312748e-05, 9.271403483907287e-06, 1.767170614669024e+03, 8.589712419551255e+03, 3.137152157678815e+02, 6.851331668061535e+03
192, -2.500000000000000e-04, 2.800000000007079e-03, 6.151624643449832e-05, 9.100676669619461e-06, 1.814202918160659e+03, 8.821798663425641e+03, 3.146713527481057e+02, 7.035799199097226e+03
193, -2.500000000000000e-04, 2.700000000006744e-03, 5.757585600795106e-05, 8.919148501692446e-06, 1.861818014129070e+03, 9.056970225213157e+03, 3.151580039017495e+02, 7.222708190863144e+03
194, -2.500000000000000e-04, 2.600000000006672e-03, 5.373961599254565e-05, 8.726728294521335e-06, 1.910017697105675e+03, 9.295227326059034e+03, 3.151497866274418e+02, 7.412057664078894e+03
195, -2.500000000000000e-04, 2.500000000006697e-03, 5.001029911025242e-05, 8.523332560827239e-06, 1.958798542398963e+03, 9.536565743984358e+03, 3.146203334351478e+02, 7.603847682474098e+03
196, -2.500000000000000e-04, 2.400000000006722e-03, 4.639071470688410e-05, 8.308885358857719e-06, 2.008161405292084e+03, 9.780985088516907e+03, 3.135430149455576e+02, 7.798078282460705e+03
197, -2.500000000000000e-04, 2.300000000006651e-03, 4.288370881339928e-05, 8.083318671801887e-06, 2.058107079856984e+03, 1.002848427545860e+04, 3.118905297757362e+02, 7.994749242497947e+03
198, -2.500000000000000e-04, 2.200000000006315e-03, 3.949216420040446e-05, 7.846572837823264e-06, 2.108635190525818e+03, 1.027906110743178e+04, 3.096345742996788e+02, 8.193860747050539e+03
199, -2.500000000000000e-04, 2.100000000005904e-03, 3.621900034509843e-05, 7.598596920856024e-06, 2.159747630562626e+03, 1.053271492884578e+04, 3.067465106486004e+02, 8.395412739424990e+03
200, -2.500000000000000e-04, 2.000000000005494e-03, 3.306717350751321e-05, 7.339349163734870e-06, 2.211444463039677e+03, 1.078944297407707e+04, 3.031967053731414e+02, 8.599405294783832e+03
201, -2.500000000000000e-04, 1.900000000005083e-03, 3.003967670836123e-05, 7.068797404525893e-06, 2.263727019385256e+03, 1.104924323365859e+04, 2.989549084809317e+02, 8.805838477991689e+03
202, -2.500000000000000e-04, 1.800000000004675e-03, 2.713953976163852e-05, 6.786919524024963e-06, 2.316596670803804e+03, 1.131211357291259e+04, 2.939900109087972e+02, 9.014712687722298e+03
203, -2.500000000000000e-04, 1.700000000004264e-03, 2.436982928003493e-05, 6.493703874108309e-06, 2.370055358512195e+03, 1.157805158811527e+04, 2.882704842934380e+02, 9.226028075658751e+03
204, -2.500000000000000e-04, 1.600000000003854e-03, 2.173364870769383e-05, 6.189149781943684e-06, 2.424104321983748e+03, 1.184705353649766e+04, 2.817637527390959e+02, 9.439784698219488e+03
205, -2.500000000000000e-04, 1.500000000003443e-03, 1.923413829859081e-05, 5.873268005801418e-06, 2.478746216928252e+03, 1.211911666416972e+04, 2.744365645933198e+02, 9.655982812328835e+03
206, -2.500000000000000e-04, 1.400000000003032e-03, 1.687447514657181e-05, 5.546081215161011e-06, 2.533983821547749e+03, 1.239423773171819e+04, 2.662549034303717e+02, 9.874622720257943e+03
207, -2.500000000000000e-04, 1.300000000002622e-03, 1.465787320534162e-05, 5.207624495454258e-06, 2.589819623801186e+03, 1.267241255464530e+04, 2.571839670367210e+02, 1.009570475899086e+04
208, -2.500000000000000e-04, 1.200000000002211e-03, 1.258758326606492e-05, 4.857945858666291e-06, 2.646258559959091e+03, 1.295363899943922e+04, 2.471883318027571e+02, 1.031922961318796e+04
209, -2.500000000000000e-04, 1.100000000002113e-03, 1.066689293251536e-05, 4.497106716073309e-06, 2.703314862768834e+03, 1.323792672146251e+04, 2.362327267590341e+02, 1.054520130761369e+04
210, -2.500000000000000e-04, 1.000000000002544e-03, 8.899126642889452e-06, 4.125182117313284e-06, 2.761033823474997e+03, 1.352533046786112e+04, 2.242841515531687e+02, 1.077363892892712e+04
211, -2.500000000000000e-04, 9.000000000030026e-04, 7.287646231748300e-06, 3.742260147798166e-06, 2.819514597316965e+03, 1.381600010245526e+04, 2.113164530839374e+02, 1.100460412909490e+04
212, -2.500000000000000e-04, 8.000000000032027e-04, 5.835853826795963e-06, 3.348439953824736e-06, 2.878879227121399e+03, 1.411016817733870e+04, 1.973016952130796e+02, 1.123821886773029e+04
213, -2.500000000000000e-04, 7.000000000028719e-04, 4.547202112309406e-06, 2.943830201559309e-06, 2.938591169357902e+03, 1.440727280337346e+04, 1.821570935556281e+02, 1.147446657798680e+04
214, -2.500000000000000e-04, 6.000000000024631e-04, 3.425216090128195e-06, 2.528569428144455e-06, 2.995700201093165e+03, 1.470305075162974e+04, 1.653939896686670e+02, 1.171202278005055e+04
215, -2.500000000000000e-04, 5.000000000020526e-04, 2.473517551121614e-06, 2.102927909590857e-06, 3.034363566730431e+03, 1.497466453361874e+04, 1.455848061980003e+02, 1.194385059028523e+04
216, -2.500000000000000e-04, 4.000000000016421e-04, 1.695675169997685e-06, 1.667769213219799e-06, 3.021148310132953e+03, 1.516506021801444e+04, 1.167907553435965e+02, 1.214615810651750e+04
217, -2.500000000000000e-04, 3.000000000012316e-04, 1.094428888503192e-06, 1.225482539079423e-06, 2.763590291188527e+03, 1.501397932423363e+04, 7.719650731340039e+01, 1.225136191057620e+04
218, -2.500000000000000e-04, 2.000000000008210e-04, 6.660826468007962e-07, 7.841576590594619e-07, 2.591626796861090e+03, 1.478133974425519e+04, -8.078439094022940e+00, 1.218972365497185e+04
219, -2.500000000000000e-04, 1.000000000004105e-04, 3.881592889673537e-07, 3.469753543663610e-07, -1.326885980391950e+03, 1.021048722650129e+04, 8.598839300027471e+02, 1.166484384839531e+04
220, -1.999999999998928e-04, 9.899999999999593e-03, 4.768765241940667e-04, -4.797195848618922e-08, -2.908746489552821e+00, 3.029685226763995e+01, 2.015532927349464e+00, 3.344938386201757e+01
221, -1.499999999997670e-04, 9.899999999999591e-03, 4.767699147802856e-04, -3.304014240179966e-06, -1.447393912092227e+00, 2.807280772948212e+01, 6.094792439820811e+00, 3.193788165325303e+01
222, -9.999999999959327e-05, 9.899999999999591e-03, 4.766633849725660e-04, -6.559860188987671e-06, 4.605503871115810e-01, 2.417433553387593e+01, 8.849180497328920e+00, 2.959012652700437e+01
223, -4.999999999946756e-05, 9.899999999999593e-03, 4.765569523441642e-04, -9.815537358521043e-06, 2.438253862109875e+00, 1.981977126176782e+01, 1.071961942938536e+01, 2.759996576008811e+01
224, 6.282680539010377e-16, 9.899999999999593e-03, 4.764506167703882e-04, -1.307109572359120e-05, 4.115681391919908e+00, 1.535958517798187e+01, 1.155694727539444e+01, 2.570364747764811e+01
225, 5.000000000046569e-05, 9.899999999999590e-03, 4.763443719148063e-04, -1.632660122841067e-05, 5.476418520230791e+00, 1.108563905237641e+01, 1.128277205243234e+01, 2.325225012180191e+01
226, 1.000000000003380e-04, 9.899999999999590e-03, 4.762382081446350e-04, -1.958212478017657e-05, 6.536025240092778e+00, 7.261397651848871e+00, 9.930706846163464e+00, 1.987465519181373e+01
227, 1.500000000001929e-04, 9.899999999999593e-03, 4.761321119003790e-04, -2.283773330124320e-05, 7.261656101713042e+00, 4.198127974193337e+00, 7.616841783908184e+00, 1.553867174608122e+01
228, 2.000000000000797e-04, 9.899999999999593e-03, 4.760260636123932e-04, -2.609348368524847e-05, 7.446382906223176e+00, 2.217030661532963e+00, 4.520411255329251e+00, 1.044426141803604e+01
229, -1.999999999998947e-04, 9.799999999999184e-03, 4.703640199707865e-04, 1.630362822991959e-07, -1.224679313693176e+00, 4.063039329946827e+01, 4.206971283404116e+00, 4.269240603398413e+01
230, -1.499999999997712e-04, 9.799999999999181e-03, 4.702573323701463e-04, -3.092849639269734e-06, 9.498334121479890e-01, 3.522423378080354e+01, 9.231336865790997e+00, 3.893076986073797e+01
231, -9.999999999960086e-05, 9.799999999999184e-03, 4.701507600889824e-04, -6.348486731327695e-06, 2.302036448519062e+00, 2.831798390076606e+01, 1.288787742894046e+01, 3.662265774533095e+01
232, -4.999999999947776e-05, 9.799999999999184e-03, 4.700443115620762e-04, -9.603943916214774e-06, 3.909393871706712e+00, 2.153081380539815e+01, 1.519917841815381e+01, 3.513651290078439e+01
233, 6.154473632113966e-16, 9.799999999999184e-03, 4.699379859742902e-04, -1.285928819624629e-05, 5.556207862652226e+00, 1.515446555408872e+01, 1.615299225991627e+01, 3.370167928318825e+01
234, 5.000000000045551e-05, 9.799999999999184e-03, 4.698317759486181e-04, -1.611459245385703e-05, 6.978094501839063e+00, 9.241634153613374e+00, 1.568651515313863e+01, 3.145458062593978e+01
235, 1.000000000003303e-04, 9.799999999999184e-03, 4.697256699763910e-04, -1.936993302085094e-05, 7.998599601599444e+00, 3.857628333229957e+00, 1.379302421253744e+01, 2.789511983763535e+01
236, 1.500000000001885e-04, 9.799999999999188e-03, 4.696196526207926e-04, -2.262538571558180e-05, 8.456118569205517e+00, -8.661261985688249e-01, 1.052816234012981e+01, 2.302765851211987e+01
237, 2.000000000000778e-04, 9.799999999999188e-03, 4.695137029137227e-04, -2.588102272628081e-05, 8.121822363206377e+00, -4.709432486387671e+00, 5.966793339045170e+00, 1.752288766210427e+01
238, -1.999999999998966e-04, 9.699999999999027e-03, 4.638516459985735e-04, 3.736573828333389e-07, 2.030498632151234e-01, 5.350494303869151e+01, 6.824286098972203e+00, 5.502158975468083e+01
239, -1.499999999997756e-04, 9.699999999998999e-03, 4.637448272103051e-04, -2.881958457037392e-06, 1.703849337404903e+00, 4.427458591334562e+01, 1.251882184061419e+01, 4.938776380568665e+01
240, -9.999999999960846e-05, 9.699999999998973e-03, 4.636381669334479e-04, -6.137303519664308e-06, 3.366077238925136e+00, 3.477570639707806e+01, 1.663864254906593e+01, 4.575961655603157e+01
241, -4.999999999948794e-05, 9.699999999998947e-03, 4.635316693891172e-04, -9.392455830289256e-06, 4.925839823017785e+00, 2.513241346937315e+01, 1.913480124167654e+01, 4.327664604332742e+01
242, 6.026266725217555e-16, 9.699999999998920e-03, 4.634253337790350e-04, -1.264749738722805e-05, 6.407710765124410e+00, 1.575503460646034e+01, 1.997680217674333e+01, 4.103246231741101e+01
243, 5.000000000044535e-05, 9.699999999998892e-03, 4.633191535132427e-04, -1.590251161243377e-05, 7.654002919307103e+00, 6.839991477831023e+00, 1.914761027587387e+01, 3.830387097584076e+01
244, 1.000000000003228e-04, 9.699999999998864e-03, 4.632131167620397e-04, -1.915758360165908e-05, 8.484561732297717e+00, -1.471773112839353e+00, 1.664050112066276e+01, 3.473836083835283e+01
245, 1.500000000001842e-04, 9.699999999998836e-03, 4.631072066555187e-04, -2.241279913966809e-05, 8.734258097986432e+00, -9.010163211936828e+00, 1.246666881020347e+01, 3.060287261871439e+01
246, 2.000000000000759e-04, 9.699999999998809e-03, 4.630014007292572e-04, -2.566824423268037e-05, 8.290909912376465e+00, -1.550030032250265e+01, 6.640329337738075e+00, 2.724697376397453e+01
247, -1.999999999998985e-04, 9.599999999999352e-03, 4.573395897392024e-04, 5.837859898651733e-07, 8.775488800927063e-01, 6.832387176580767e+01, 9.472290836114729e+00, 7.005643186417568e+01
248, -1.499999999997800e-04, 9.599999999999241e-03, 4.572326098612284e-04, -2.671453307737932e-06, 2.278197592609992e+00, 5.556718383996382e+01, 1.580578081780213e+01, 6.195971985340373e+01
249, -9.999999999961608e-05, 9.599999999999132e-03, 4.571258362873443e-04, -5.926396244673997e-06, 3.852394131844965e+00, 4.250411573694628e+01, 2.026685226892195e+01, 5.600836354152371e+01
250, -4.999999999949810e-05, 9.599999999999024e-03, 4.570192746599783e-04, -9.181134181251021e-06, 5.427945370749944e+00, 2.939344806721400e+01, 2.283489058812215e+01, 5.157590747801016e+01
251, 5.898059818321144e-16, 9.599999999998917e-03, 4.569129242088965e-04, -1.243576053519785e-05, 6.834015535055808e+00, 1.644976256877609e+01, 2.349101316851910e+01, 4.795595259976233e+01
252, 5.000000000043517e-05, 9.599999999998809e-03, 4.568067785532986e-04, -1.569037040148940e-05, 7.951522823078948e+00, 3.919603004882783e+00, 2.222501525854222e+01, 4.463251718635306e+01
253, 1.000000000003152e-04, 9.599999999998698e-03, 4.567008257845508e-04, -1.894505984165473e-05, 8.642033158722136e+00, -7.981427009074822e+00, 1.903454559659466e+01, 4.154028324681594e+01
254, 1.500000000001798e-04, 9.599999999998591e-03, 4.565950485778223e-04, -2.219992576426749e-05, 8.779706123540414e+00, -1.903045045587877e+01, 1.392111108825453e+01, 3.935218093953504e+01
255, 2.000000000000740e-04, 9.599999999998483e-03, 4.564894242977133e-04, -2.545506575464946e-05, 8.265878946463193e+00, -2.897990055506668e+01, 6.883796361378796e+00, 3.970887432371146e+01
256, -1.999999999999004e-04, 9.499999999999719e-03, 4.508280864112705e-04, 7.933228619327007e-07, 1.153808810711560e+00, 8.516724937395668e+01, 1.212985110793185e+01, 8.744593384987265e+01
257, -1.499999999997843e-04, 9.499999999999528e-03, 4.507209228676299e-04, -2.461415873810676e-06, 2.613564870157036e+00, 6.843570317082761e+01, 1.907037672936322e+01, 7.607411494635976e+01
258, -9.999999999962368e-05, 9.499999999999330e-03, 4.506140225577792e-04, -5.715829018880864e-06, 4.185551073580131e+00, 5.133003846122276e+01, 2.384146108318500e+01, 6.705418523379204e+01
259, -4.999999999950831e-05, 9.499999999999136e-03, 4.505073913935628e-04, -8.970021916822411e-06, 5.725238701820632e+00, 3.413019110523717e+01, 2.644243922624990e+01, 6.003042303679057e+01
260, 5.769988436696294e-16, 9.499999999998942e-03, 4.504010290189837e-04, -1.222410070593105e-05, 7.087312890078941e+00, 1.708887117727019e+01, 2.687193557082698e+01, 5.466657894420310e+01
261, 5.000000000042495e-05, 9.499999999998747e-03, 4.502949291216919e-04, -1.547817236807266e-05, 8.131424941767616e+00, 4.428080473395988e-01, 2.512965641614659e+01, 5.084401003189652e+01
262, 1.000000000003075e-04, 9.499999999998551e-03, 4.501890797387307e-04, -1.873234461647520e-05, 8.733645929255129e+00, -1.556836375284128e+01, 2.121833365780725e+01, 4.890253988746241e+01
263, 1.500000000001755e-04, 9.499999999998359e-03, 4.500834634324446e-04, -2.198672567971546e-05, 8.776870487076589e+00, -3.070973438671578e+01, 1.514376088835310e+01, 4.976470576456226e+01
264, 2.000000000000721e-04, 9.499999999998164e-03, 4.499780574819453e-04, -2.524142415927579e-05, 8.160573071959050e+00, -4.474479262481358e+01, 6.917474771016495e+00, 5.468439949693006e+01
265, -1.999999999999023e-04, 9.400000000000087e-03, 4.443174122365684e-04, 1.002171681310006e-06, 1.283610896751847e+00, 1.040677128394362e+02, 1.482404204123955e+01, 1.069746722450033e+02
266, -1.499999999997887e-04, 9.399999999999811e-03, 4.442100475423419e-04, -2.251920408577158e-06, 2.830617810650008e+00, 8.277021244194918e+01, 2.233913543955572e+01, 9.157776301353779e+01
267, -9.999999999963125e-05, 9.399999999999530e-03, 4.441030117243485e-04, -5.505656399674858e-06, 4.444329329063786e+00, 6.108847315466931e+01, 2.739577209540357e+01, 7.880781905717895e+01
268, -4.999999999951849e-05, 9.399999999999249e-03, 4.439963104790150e-04, -8.759155092783956e-06, 5.982417705009542e+00, 3.928845851573580e+01, 3.000998074677939e+01, 6.864173753755102e+01
269, 5.641646004528322e-16, 9.399999999998968e-03, 4.438899433667012e-04, -1.201253551807648e-05, 7.311967335751595e+00, 1.763156626978528e+01, 3.019201929259900e+01, 6.125949916558239e+01
270, 5.000000000041476e-05, 9.399999999998687e-03, 4.437839040196717e-04, -1.526591699709789e-05, 8.302903806973887e+00, -3.631043481454812e+00, 2.795111989015643e+01, 5.716187112349094e+01
271, 1.000000000003000e-04, 9.399999999998406e-03, 4.436781803266322e-04, -1.851941912783628e-05, 8.829240415064504e+00, -2.425613791567831e+01, 2.329755503551535e+01, 5.714671068241682e+01
272, 1.500000000001711e-04, 9.399999999998125e-03, 4.435727546122627e-04, -2.177316168462935e-05, 8.771218569108314e+00, -4.400498894287261e+01, 1.624469583898656e+01, 6.197490339607172e+01
273, 2.000000000000702e-04, 9.399999999997844e-03, 4.434676037967336e-04, -2.502726438218350e-05, 8.004848152289783e+00, -6.265166976747363e+01, 6.810427603399037e+00, 7.195742644863284e+01
274, -1.999999999999042e-04, 9.300000000000464e-03, 4.378078810353457e-04, 1.210239577317187e-06, 1.488078221378256e+00, 1.250921719412130e+02, 1.757587222067065e+01, 1.285053194290846e+02
275, -1.499999999997930e-04, 9.300000000000100e-03, 4.377003013605912e-04, -2.043039525374645e-06, 3.106778023080951e+00, 9.864187513464992e+01, 2.562563212484290e+01, 1.084142373828642e+02
276, -9.999999999963886e-05, 9.299999999999729e-03, 4.375931241924161e-04, -5.295931518291338e-06, 4.744225161849402e+00, 7.181215854113758e+01, 3.094601590509886e+01, 9.126188300360212e+01
277, -4.999999999952863e-05, 9.299999999999361e-03, 4.374863547880554e-04, -8.548568326579418e-06, 6.277710487416158e+00, 4.487381790414318e+01, 3.355749977111640e+01, 7.742146130936459e+01
278, 5.513303572360351e-16, 9.299999999998993e-03, 4.373799923963446e-04, -1.180108174586114e-05, 7.576617609758898e+00, 1.808502046938960e+01, 3.347752405408799e+01, 6.777466339148027e+01
279, 5.000000000040461e-05, 9.299999999998625e-03, 4.372740303662201e-04, -1.505360353463359e-05, 8.512272428206186e+00, -8.301575504999786e+00, 3.072226500395361e+01, 6.370349872819847e+01
280, 1.000000000002923e-04, 9.299999999998258e-03, 4.371684562658535e-04, -1.830626541294743e-05, 8.958158751135731e+00, -3.403879098903669e+01, 2.530843213075499e+01, 6.641388886842149e+01
281, 1.500000000001668e-04, 9.299999999997890e-03, 4.370632519936753e-04, -2.155919899143392e-05, 8.788676201844224e+00, -5.888522629825379e+01, 1.725465620497541e+01, 7.596479265159851e+01
282, 2.000000000000683e-04, 9.299999999997520e-03, 4.369583938588149e-04, -2.481253566189342e-05, 7.880731913307464e+00, -8.260171171456662e+01, 6.582632237785681e+00, 9.143520543851342e+01
283, -1.999999999999061e-04, 9.200000000000841e-03, 4.312998486537740e-04, 1.417432554110870e-06, 1.600863404223327e+00, 1.480643965319383e+02, 2.040827476106186e+01, 1.520445896806106e+02
284, -1.499999999997973e-04, 9.200000000000397e-03, 4.311920407979674e-04, -1.834847493917792e-06, 3.316216494097869e+00, 1.159306102440272e+02, 2.895634020039596e+01, 1.266328560479799e+02
285, -9.999999999964642e-05, 9.199999999999951e-03, 4.310847171509034e-04, -5.086709569840759e-06, 5.013582591869337e+00, 8.344045037166043e+01, 3.451421103881472e+01, 1.044782113374659e+02
286, -4.999999999953884e-05, 9.199999999999505e-03, 4.309778822886401e-04, -8.338298327779679e-06, 6.567298932318613e+00, 5.085451083285619e+01, 3.710273779575854e+01, 8.641649001021943e+01
287, 5.385367716007061e-16, 9.199999999999058e-03, 4.308715348946010e-04, -1.158975818997162e-05, 7.851943797882210e+00, 1.843120327885190e+01, 3.674277942033177e+01, 7.424316863719054e+01
288, 5.000000000039439e-05, 9.199999999998614e-03, 4.307656677987206e-04, -1.484123336299516e-05, 8.741134757691141e+00, -1.357553058361844e+01, 3.345472477685668e+01, 7.053302766461199e+01
289, 1.000000000002848e-04, 9.199999999998171e-03, 4.306602680354150e-04, -1.809286783399664e-05, 9.108658575542478e+00, -4.491548356744825e+01, 2.725926298580411e+01, 7.675205279601964e+01
290, 1.500000000001625e-04, 9.199999999997726e-03, 4.305553168980747e-04, -2.134480533454308e-05, 8.828954653024446e+00, -7.534119575507717e+01, 1.817826943235507e+01, 9.168648830631275e+01
291, 2.000000000000664e-04, 9.199999999997280e-03, 4.304507899829490e-04, -2.459718927097916e-05, 7.777184085262691e+00, -1.046069292565385e+02, 6.235508093715316e+00, 1.130739367686912e+02
292, -1.999999999999080e-04, 9.100000000001274e-03, 4.247937012602060e-04, 1.623655459675889e-06, 1.791449571407774e+00, 1.730888744258247e+02, 2.334173793121288e+01, 1.775447962637945e+02
293, -1.499999999998017e-04, 9.100000000000802e-03, 4.246856542823970e-04, -1.627420762181598e-06, 3.578962748742786e+00, 1.347240217683605e+02, 3.235563907215963e+01, 1.462414989814125e+02
294, -9.999999999965405e-05, 9.100000000000334e-03, 4.245781806520742e-04, -4.878048406728932e-06, 5.321677518421577e+00, 9.603540842825063e+01, 3.812082595200692e+01, 1.184979766098717e+02
295, -4.999999999954905e-05, 9.099999999999862e-03, 4.244712842639947e-04, -8.128384706592660e-06, 6.890270312285240e+00, 5.727770322681906e+01, 4.066041294803720e+01, 9.566592977720067e+01
296, 5.257025283839090e-16, 9.099999999999390e-03, 4.243649631463105e-04, -1.137858660799332e-05, 8.158096266021900e+00, 1.870610343675674e+01, 3.999681106245239e+01, 8.068605849795819e+01
297, 5.000000000038422e-05, 9.099999999998916e-03, 4.242592094917804e-04, -1.462881076016264e-05, 8.998988698196387e+00, -1.942558309746290e+01, 3.615242869496871e+01, 7.769136814309411e+01
298, 1.000000000002772e-04, 9.099999999998446e-03, 4.241540096849312e-04, -1.787921350776206e-05, 9.286807044659136e+00, -5.686530570553811e+01, 2.914993942076297e+01, 8.817583509245270e+01
299, 1.500000000001581e-04, 9.099999999997978e-03, 4.240493443265411e-04, -2.112995086965367e-05, 8.895325980361040e+00, -9.336251230960960e+01, 1.901269831974435e+01, 1.090990205333129e+02
300, 2.000000000000645e-04, 9.099999999997506e-03, 4.239451882480972e-04, -2.438117850359054e-05, 7.697925937180614e+00, -1.286676843008320e+02, 5.765308682813646e+00, 1.368522370749491e+02
301, -1.999999999999099e-04, 9.000000000001736e-03, 4.182898624193179e-04, 1.828811929188792e-06, 2.009487194302210e+00, 2.001140955373136e+02, 2.637500152251532e+01, 2.050073136938989e+02
302, -1.499999999998060e-04, 9.000000000001264e-03, 4.181815664465382e-04, -1.420837678424746e-06, 3.872879115914522e+00, 1.550039095070993e+02, 3.582472209459178e+01, 1.672549885645273e+02
303, -9.999999999966160e-05, 9.000000000000792e-03, 4.180739403227812e-04, -4.670008350997464e-06, 5.657781672557268e+00, 1.095984958701613e+02, 4.176961134475063e+01, 1.333509422369189e+02
304, -4.999999999955923e-05, 9.000000000000320e-03, 4.179669872201348e-04, -7.918869883174882e-06, 7.237792708793474e+00, 6.415339659607670e+01, 4.423368865188586e+01, 1.051944048553060e+02
305, 5.128818376942679e-16, 8.999999999999852e-03, 4.178607044606969e-04, -1.116759171195171e-05, 8.485922668081148e+00, 1.892257686881443e+01, 4.324056930998756e+01, 8.710861661117707e+01
306, 5.000000000037403e-05, 8.999999999999380e-03, 4.177550835345363e-04, -1.441634293465425e-05, 9.275709134483852e+00, -2.584037749727496e+01, 3.881368299148016e+01, 8.520063080624260e+01
307, 1.000000000002695e-04, 8.999999999998908e-03, 4.176501101128943e-04, -1.766529230673902e-05, 9.480775434313177e+00, -6.988250144011408e+01, 3.097658944030284e+01, 1.006813095348850e+02
308, 1.500000000001538e-04, 8.999999999998436e-03, 4.175457640568408e-04, -2.091460823358764e-05, 8.974552946445705e+00, -1.129514169241807e+02, 1.975317196406719e+01, 1.281666623559377e+02
309, 2.000000000000626e-04, 8.999999999997964e-03, 4.174420194191103e-04, -2.416445875698126e-05, 7.629566200626344e+00, -1.547953820771812e+02, 5.167664028402453e+00, 1.627534418348511e+02
310, -1.999999999999118e-04, 8.900000000002187e-03, 4.117887914733696e-04, 2.032802834422059e-06, 2.238089020501700e+00, 2.291361483764887e+02, 2.951406264788884e+01, 2.344505255175322e+02
311, -1.499999999998104e-04, 8.900000000001712e-03, 4.116802374868439e-04, -1.215179319127458e-06, 4.178579919028195e+00, 1.767669147535451e+02, 3.936893460217805e+01, 1.897007785113008e+02
312, -9.999999999966923e-05, 8.900000000001240e-03, 4.115724571947360e-04, -4.462652584265826e-06, 6.007464372623929e+00, 1.241337376837095e+02, 4.546436990674755e+01, 1.490699573033936e+02
313, -4.999999999956943e-05, 8.900000000000770e-03, 4.114654530020596e-04, -7.709799240174697e-06, 7.598438474455458e+00, 7.149038031397157e+01, 4.782481265959181e+01, 1.150262189925598e+02
314, 5.000475944774707e-16, 8.900000000000293e-03, 4.113592214866392e-04, -1.095680119690309e-05, 8.825506353175989e+00, 1.909101091301962e+01, 4.647425463963818e+01, 9.351366724232290e+01
315, 5.000000000036387e-05, 8.899999999999823e-03, 4.112537533984833e-04, -1.420384000606542e-05, 9.562343475993920e+00, -3.281058347599885e+01, 4.143654583185727e+01, 9.307746376208017e+01
316, 1.000000000002620e-04, 8.899999999999349e-03, 4.111490336620929e-04, -1.745109686500499e-05, 9.682538267711150e+00, -8.396079874234920e+01, 3.273556001675973e+01, 1.142608512344594e+02
317, 1.500000000001494e-04, 8.899999999998874e-03, 4.110450413780204e-04, -2.069875261524596e-05, 9.059567241932521e+00, -1.341061502525568e+02, 2.039526364468686e+01, 1.488633258470906e+02
318, 2.000000000000606e-04, 8.899999999998404e-03, 4.109417498221792e-04, -2.394698774355307e-05, 7.567057859734134e+00, -1.829928841930491e+02, 4.439635487168959e+00, 1.907666977441183e+02
319, -1.999999999999137e-04, 8.800000000002590e-03, 4.052909826856092e-04, 2.235526497874594e-06, 2.481194601070133e+00, 2.601656759735833e+02, 3.276440006123603e+01, 2.658859070836813e+02
320, -1.499999999998147e-04, 8.800000000002060e-03, 4.051821626579169e-04, -1.010529503632329e-06, 4.496445918885318e+00, 2.000253463058865e+02, 4.299299307435130e+01, 2.136004229876775e+02
321, -9.999999999967683e-05, 8.800000000001532e-03, 4.050742274383040e-04, -4.256047095943416e-06, 6.366830785796523e+00, 1.396518550403815e+02, 4.920902934979577e+01, 1.656834692078288e+02
322, -4.999999999957961e-05, 8.800000000001001e-03, 4.049671786694807e-04, -7.501220997625773e-06, 7.967501864759701e+00, 7.929933576247967e+01, 5.143650952053811e+01, 1.251842185494543e+02
323, 4.872540088421418e-16, 8.800000000000474e-03, 4.048610121749448e-04, -1.074624557128624e-05, 9.172543710287048e+00, 1.922171635205289e+01, 4.969926917056375e+01, 9.990523157040680e+01
324, 5.000000000035368e-05, 8.799999999999947e-03, 4.047557179515622e-04, -1.399131482658386e-05, 9.855733925516123e+00, -4.032697933390374e+01, 4.402115011534141e+01, 1.013397816259086e+02
325, 1.000000000002544e-04, 8.799999999999419e-03, 4.046512801658660e-04, -1.723662241972252e-05, 9.890661550405015e+00, -9.909271659256193e+01, 3.442606297266530e+01, 1.289107906990124e+02
326, 1.500000000001451e-04, 8.799999999998892e-03, 4.045476771529237e-04, -2.048236165149026e-05, 9.150994135109457e+00, -1.568213138287952e+02, 2.093801747547161e+01, 1.711736233012489e+02
327, 2.000000000000587e-04, 8.799999999998365e-03, 4.044448814179232e-04, -2.372872546448076e-05, 7.510847682047068e+00, -2.132582848749602e+02, 3.581110041265800e+00, 2.208852808280444e+02
328, -1.999999999999156e-04, 8.700000000002964e-03, 3.987969655736842e-04, 2.436878712827368e-06, 2.724214950528218e+00, 2.931980434381699e+02, 3.612994930440356e+01, 2.993268079929075e+02
329, -1.499999999998191e-04, 8.700000000002345e-03, 3.986878723764344e-04, -8.069746875770077e-07, 4.812940723349314e+00, 2.247774954811513e+02, 4.670155914942288e+01, 2.389739480733125e+02
330, -9.999999999968445e-05, 8.700000000001731e-03, 3.985797823704343e-04, -4.050260565799818e-06, 6.725442548474849e+00, 1.561547043589694e+02, 5.300812876022454e+01, 1.832172239279689e+02
331, -4.999999999958977e-05, 8.700000000001117e-03, 3.984726964471733e-04, -7.293186063476722e-06, 8.336488325898443e+00, 8.758369573133929e+01, 5.507271979347045e+01, 1.356913326022020e+02
332, 4.743926605710325e-16, 8.700000000000502e-03, 3.983666096765448e-04, -1.053595799276543e-05, 9.520193290970301e+00, 1.931868113846596e+01, 5.291878829546449e+01, 1.062901829085747e+02
333, 5.000000000034347e-05, 8.699999999999888e-03, 3.982615112972426e-04, -1.377878282714691e-05, 1.015028591117822e+01, -4.838602615370056e+01, 4.656999894510547e+01, 1.100070863042257e+02
334, 1.000000000002468e-04, 8.699999999999274e-03, 3.981573847122562e-04, -1.702186669363275e-05, 1.010035784904130e+01, -1.152759777380658e+02, 3.605020093700838e+01, 1.446295041671844e+02
335, 1.500000000001407e-04, 8.699999999998657e-03, 3.980542074869936e-04, -2.026541536582518e-05, 9.243937288671379e+00, -1.810966641627361e+02, 2.138343764547289e+01, 1.950860071430928e+02
336, 2.000000000000568e-04, 8.699999999998044e-03, 3.979519513493958e-04, -2.350963425492227e-05, 7.454707801557241e+00, -2.455934483748049e+02, 2.594048556621570e+00, 2.531013348362924e+02
337, -1.999999999999175e-04, 8.600000000003331e-03, 3.923073042620743e-04, 2.636752804712652e-06, 2.967639740768995e+00, 3.282383868684324e+02, 3.961451088202978e+01, 3.347809684355999e+02
338, -1.499999999998235e-04, 8.600000000002632e-03, 3.921979317978792e-04, -6.046038389230239e-07, 5.128055870227158e+00, 2.510286121568377e+02, 5.049964308920838e+01, 2.658344210041548e+02
339, -9.999999999969208e-05, 8.600000000001931e-03, 3.920896881639122e-04, -3.845364203907799e-06, 7.082106286108584e+00, 1.736469851351267e+02, 5.686653697578424e+01, 2.016905326892193e+02
340, -4.999999999959999e-05, 8.600000000001230e-03, 3.919825735191592e-04, -7.085747873416865e-06, 8.703465251239624e+00, 9.634769738944652e+01, 5.873781039099147e+01, 1.465675028961337e+02
341, 4.615584173542353e-16, 8.600000000000526e-03, 3.918765821853438e-04, -1.032597412499895e-05, 9.865734399536965e+00, 1.938524678169622e+01, 5.613655645649931e+01, 1.126759646027893e+02
342, 5.000000000033329e-05, 8.599999999999825e-03, 3.917717026429849e-04, -1.356626190998199e-05, 1.044244695567300e+01, -5.698562049976279e+01, 4.908624106293002e+01, 1.190981969952825e+02
343, 1.000000000002392e-04, 8.599999999999124e-03, 3.916679175281333e-04, -1.680682984075706e-05, 1.030702126273417e+01, -1.325100452349042e+02, 3.761061228434516e+01, 1.614154487916327e+02
344, 1.500000000001364e-04, 8.599999999998423e-03, 3.915652036307525e-04, -2.004789617975836e-05, 9.332759217732317e+00, -2.069331310408519e+02, 2.173366671857979e+01, 2.205908981927296e+02
345, 2.000000000000548e-04, 8.599999999997722e-03, 3.914635318935764e-04, -2.328967883046435e-05, 7.392371152538940e+00, -2.800003566612858e+02, 1.479674445238047e+00, 2.874079639573801e+02
346, -1.999999999999195e-04, 8.500000000003703e-03, 3.858225976822105e-04, 2.835039805975520e-06, 3.216210815899089e+00, 3.652924913768862e+02, 4.322013517402251e+01, 3.722514651183012e+02
347, -1.499999999998278e-04, 8.500000000002915e-03, 3.857129409626557e-04, -4.035082376681923e-07, 5.447031251269195e+00, 2.787845377249839e+02, 5.438970866799801e+01, 2.941876171446154e+02
348, -9.999999999969967e-05, 8.500000000002127e-03, 3.856045459646597e-04, -3.641431550021838e-06, 7.441164284866950e+00, 1.921340634483677e+02, 6.078702402007385e+01, 2.211147126680792e+02
349, -4.999999999961013e-05, 8.500000000001340e-03, 3.854974121250467e-04, -6.878962206466724e-06, 9.071363123512313e+00, 1.055957868488290e+02, 6.243449940101128e+01, 1.578265859648621e+02
350, 4.487512791917503e-16, 8.500000000000552e-03, 3.853915330259674e-04, -1.011633197864667e-05, 1.021085656199097e+01, 1.942489366279711e+01, 5.935506031801008e+01, 1.190671710469073e+02
351, 5.000000000032310e-05, 8.499999999999765e-03, 3.852868963937524e-04, -1.335377231985870e-05, 1.073280355776468e+01, -6.612336282054557e+01, 5.157199917825587e+01, 1.286295250218184e+02
352, 1.000000000002316e-04, 8.499999999998977e-03, 3.851834840981043e-04, -1.659151434928924e-05, 1.051032811365129e+01, -1.507936280536788e+02, 3.910894534059631e+01, 1.792679689678191e+02
353, 1.500000000001320e-04, 8.499999999998190e-03, 3.850812721513114e-04, -1.982978883949571e-05, 9.416518748344313e+00, -2.343304720594775e+02, 2.198981624628627e+01, 2.476828690120697e+02
354, 2.000000000000531e-04, 8.499999999997402e-03, 3.849802307082019e-04, -2.306882620611712e-05, 7.324477052245282e+00, -3.164783686505294e+02, 2.386469827083157e-01, 3.238031974745529e+02
355, -1.999999999999213e-04, 8.400000000004074e-03, 3.793434799996997e-04, 3.031628497260696e-06, 3.484192680080263e+00, 4.043764588266446e+02, 4.694467668791471e+01, 4.117399904471985e+02
356, -1.499999999998322e-04, 8.400000000003200e-03, 3.792335351679023e-04, -2.037813794118667e-07, 5.780618156473281e+00, 3.080568415033928e+02, 5.837079220074546e+01, 3.240362830447344e+02
357, -9.999999999970726e-05, 8.400000000002326e-03, 3.791249921926191e-04, -3.438538367023163e-06, 7.810274507413229e+00, 2.116240591525092e+02, 6.476945171872741e+01, 2.414961414083790e+02
358, -4.999999999962035e-05, 8.400000000001451e-03, 3.790178498021005e-04, -6.672887070553622e-06, 9.445985963316975e+00, 1.153340347938079e+02, 6.616330848655743e+01, 1.694774688407810e+02
359, 4.359305885021092e-16, 8.400000000000581e-03, 3.789121008491096e-04, -9.907071794908892e-06, 1.056017595959895e+01, 1.944226459021314e+01, 6.257522008520409e+01, 1.254652309338687e+02
360, 5.000000000031294e-05, 8.399999999999703e-03, 3.788077323147087e-04, -1.314133652561622e-05, 1.102547480969866e+01, -7.579556604063183e+01, 5.402840407592581e+01, 1.386151756565666e+02
361, 1.000000000002240e-04, 8.399999999998832e-03, 3.787047253091610e-04, -1.637592491625249e-05, 1.071457464766912e+01, -1.701236387610799e+02, 4.054639229257968e+01, 1.981880398526695e+02
362, 1.500000000001277e-04, 8.399999999997958e-03, 3.786030550722923e-04, -1.961108027499940e-05, 9.500246977029022e+00, -2.632859855259072e+02, 2.215303471534078e+01, 2.763609169755056e+02
363, 2.000000000000511e-04, 8.399999999997083e-03, 3.785026909745229e-04, -2.284704555176148e-05, 7.255885929101115e+00, -3.550261262190810e+02, -1.127449615847065e+00, 3.622890295008679e+02
364, -1.999999999999233e-04, 8.300000000004210e-03, 3.728706213785667e-04, 3.226405220086217e-06, 3.750128206741984e+00, 4.454782242060608e+02, 5.078908665228153e+01, 4.532569206168564e+02
365, -1.499999999998365e-04, 8.300000000003279e-03, 3.727603855052748e-04, -5.519121233138804e-09, 6.114957822994882e+00, 3.388380926772407e+02, 6.244288203374221e+01, 3.553887146969582e+02
366, -9.999999999971485e-05, 8.300000000002344e-03, 3.726516989334057e-04, -3.236762709556262e-06, 8.182018716657097e+00, 2.321137243818393e+02, 6.881386892223040e+01, 2.628436855362925e+02
367, -4.999999999963053e-05, 8.300000000001409e-03, 3.725445596668725e-04, -6.467582726533790e-06, 9.823383154825081e+00, 1.255612238418106e+02, 6.992447578399400e+01, 1.815295486182662e+02
368, 4.231098978124681e-16, 8.300000000000474e-03, 3.724389598257474e-04, -9.698236038265564e-06, 1.091172000115063e+01, 1.943707545363578e+01, 6.579762039557197e+01, 1.318711078457688e+02
369, 5.000000000030276e-05, 8.299999999999542e-03, 3.723348856472888e-04, -1.292897919165694e-05, 1.131962133887982e+01, -8.600226811236502e+01, 5.645644302273627e+01, 1.490666629447315e+02
370, 1.000000000002164e-04, 8.299999999998609e-03, 3.722323174865209e-04, -1.616006840220875e-05, 1.091960821075798e+01, -1.905003352742497e+02, 4.192437741889526e+01, 2.181756341147003e+02
371, 1.500000000001233e-04, 8.299999999997672e-03, 3.721312298160088e-04, -1.939175954182085e-05, 9.584166693546127e+00, -2.938005491165403e+02, 2.222518301270597e+01, 3.066237447213767e+02
372, 2.000000000000492e-04, 8.299999999996739e-03, 3.720315912251807e-04, -2.262430812370044e-05, 7.185493686999955e+00, -3.956464269949862e+02, -2.616914610446437e+00, 4.028659197408630e+02
373, -1.999999999999252e-04, 8.200000000004194e-03, 3.664047270824211e-04, 3.419253995049622e-06, 4.046311610448122e+00, 4.886299866271937e+02, 5.475018102140515e+01, 4.968014365722399e+02
374, -1.499999999998408e-04, 8.200000000003217e-03, 3.662941984113247e-04, 1.911804097763720e-07, 6.471038569421950e+00, 3.711503624388902e+02, 6.660408164506012e+01, 3.882466020778802e+02
375, -9.999999999972244e-05, 8.200000000002240e-03, 3.661853737386006e-04, -3.036184893109869e-06, 8.568128486220893e+00, 2.536166834662362e+02, 7.291864202659873e+01, 2.851618973807801e+02
376, -4.999999999964069e-05, 8.200000000001265e-03, 3.660782503579024e-04, -6.263111677684089e-06, 1.020976374543120e+01, 1.362856259323898e+02, 7.371686597027804e+01, 1.939892480012868e+02
377, 4.102892071228270e-16, 8.200000000000287e-03, 3.659728196657660e-04, -9.489869400107114e-06, 1.126809930684643e+01, 1.941395842269261e+01, 6.902159353522069e+01, 1.382833197363300e+02
378, 5.000000000029257e-05, 8.199999999999309e-03, 3.658690671631750e-04, -1.271672719425863e-05, 1.161518826600729e+01, -9.674164073255389e+01, 5.885592024743173e+01, 1.599914990970196e+02
379, 1.000000000002088e-04, 8.199999999998328e-03, 3.657669724569667e-04, -1.594395386354922e-05, 1.112308344062874e+01, -2.119243822244952e+02, 4.324316244368937e+01, 2.392280425287969e+02
380, 1.500000000001190e-04, 8.199999999997352e-03, 3.656665092591716e-04, -1.917181787186909e-05, 9.663674165697010e+00, -3.258773927582915e+02, 2.220688672012511e+01, 3.384677102231325e+02
381, 2.000000000000473e-04, 8.199999999996377e-03, 3.655676453834552e-04, -2.240058733328776e-05, 7.108434983116268e+00, -4.383437302600588e+02, -4.229091226605525e+00, 4.455324593901602e+02
382, -1.999999999999271e-04, 8.100000000004175e-03, 3.599465390599039e-04, 3.610056448896303e-06, 4.340341044799985e+00, 5.338136485892579e+02, 5.882736357434812e+01, 5.423878853943019e+02
383, -1.499999999998452e-04, 8.100000000003150e-03, 3.598357166544457e-04, 3.862166968622280e-07, 6.827004004599146e+00, 4.049826603283316e+02, 7.085251915790145e+01, 4.226206863685985e+02
384, -9.999999999973005e-05, 8.100000000002133e-03, 3.597267602764078e-04, -2.836887563673316e-06, 8.954673569153904e+00, 2.761267977244465e+02, 7.708227210279827e+01, 3.084601280810381e+02
385, -4.999999999965090e-05, 8.100000000001112e-03, 3.596196664965182e-04, -6.059538718025198e-06, 1.059629643207712e+01, 1.475041213187869e+02, 7.753909902723069e+01, 2.068646901407506e+02
386, 3.974685164331859e-16, 8.100000000000092e-03, 3.595144259783437e-04, -9.282018831921676e-06, 1.162352488826998e+01, 1.937134155368428e+01, 7.224594598769555e+01, 1.446994661693987e+02
387, 5.000000000028236e-05, 8.099999999999071e-03, 3.594110234836241e-04, -1.250460964652975e-05, 1.190827378637863e+01, -1.080145473109330e+02, 6.122586318741288e+01, 1.713940148083153e+02
388, 1.000000000002012e-04, 8.099999999998051e-03, 3.593094378727703e-04, -1.572759257380590e-05, 1.132240797087569e+01, -2.343964159245456e+02, 4.450202032990902e+01, 2.613416531483713e+02
389, 1.500000000001146e-04, 8.099999999997031e-03, 3.592096421034504e-04, -1.895124869207269e-05, 9.737666137286787e+00, -3.595169429647839e+02, 2.209770456343529e+01, 3.718900382250303e+02
390, 2.000000000000454e-04, 8.099999999996011e-03, 3.591116032267282e-04, -2.217585874379444e-05, 7.025567089541788e+00, -4.831185579506208e+02, -5.963692452026189e+00, 4.902892267040302e+02
391, -1.999999999999291e-04, 8.000000000004158e-03, 3.534968345775956e-04, 3.798691707935529e-06, 4.634768540061408e+00, 5.810332529376221e+02, 6.302303425932408e+01, 5.900193422293992e+02
392, -1.499999999998495e-04, 8.000000000003093e-03, 3.533857185338075e-04, 5.794868602845218e-07, 7.182972568211362e+00, 4.403367594389885e+02, 7.519019474698379e+01, 4.585155009646370e+02
393, -9.999999999973761e-05, 8.000000000002028e-03, 3.532766378834766e-04, -2.638955672926820e-06, 9.342568655670561e+00, 2.996469921409330e+02, 8.130519354935473e+01, 3.327443407294897e+02
394, -4.999999999966106e-05, 8.000000000000966e-03, 3.531695884534415e-04, -5.856930903073862e-06, 1.098356833419064e+01, 1.592194072516459e+02, 8.139086343928629e+01, 2.201630181141509e+02
395, 3.846478257435448e-16, 7.999999999999901e-03, 3.530645601696200e-04, -9.074733512242121e-06, 1.197845037565459e+01, 1.931154053505955e+01, 7.547007188094987e+01, 1.511181696889852e+02
396, 5.000000000027218e-05, 7.999999999998840e-03, 3.529615370556964e-04, -1.229265785773586e-05, 1.219937146594638e+01, -1.198191911107794e+02, 6.356567857105863e+01, 1.832792482350946e+02
397, 1.000000000001936e-04, 7.999999999997775e-03, 3.528604972319575e-04, -1.551099797126592e-05, 1.151833189678765e+01, -2.579152352685713e+02, 4.570059628487778e+01, 2.845147186326632e+02
398, 1.500000000001103e-04, 7.999999999996709e-03, 3.527614129123863e-04, -1.873004755797406e-05, 9.807208746897551e+00, -3.947188011501710e+02, 2.189780603190091e+01, 4.068898478941030e+02
399, 2.000000000000435e-04, 7.999999999995648e-03, 3.526642504016598e-04, -2.195009999521076e-05, 6.937825812437069e+00, -5.299717841647658e+02, -7.819689605599864e+00, 5.371373376223104e+02
400, -1.999999999999309e-04, 7.900000000004136e-03, 3.470564263166508e-04, 3.985037037894015e-06, 4.973397035839923e+00, 6.303261237297667e+02, 6.733011904703366e+01, 6.396869644654955e+02
401, -1.499999999998538e-04, 7.900000000003030e-03, 3.469450180054778e-04, 7.708860270504982e-07, 7.572073037813198e+00, 4.772426952608843e+02, 7.961118474794748e+01, 4.959256560486602e+02
402, -9.999999999974523e-05, 7.900000000001926e-03, 3.468358216724217e-04, -2.442476242898550e-06, 9.750865568002091e+00, 3.241960032297687e+02, 8.558302658086656e+01, 3.580133549940458e+02
403, -4.999999999967128e-05, 7.900000000000816e-03, 3.467288324362196e-04, -5.655357399080400e-06, 1.138283289665522e+01, 1.714437164469335e+02, 8.526903061133264e+01, 2.338861192300245e+02
404, 3.718271350539037e-16, 7.899999999999709e-03, 3.466240395086252e-04, -8.868064744704449e-06, 1.233947534555879e+01, 1.924251958414740e+01, 7.869185852002309e+01, 1.575350323232938e+02
405, 5.000000000026201e-05, 7.899999999998603e-03, 3.465214261960200e-04, -1.208090525866176e-05, 1.249250828896708e+01, -1.321504124136688e+02, 6.587414957576287e+01, 1.956506806497461e+02
406, 1.000000000001860e-04, 7.899999999997496e-03, 3.464209698972684e-04, -1.529418559986971e-05, 1.171358962246353e+01, -2.824775996642902e+02, 4.683853256789793e+01, 3.087456046430632e+02
407, 1.500000000001060e-04, 7.899999999996389e-03, 3.463226421009674e-04, -1.850821210825856e-05, 9.874229231641600e+00, -4.314813145001411e+02, 2.160768359828622e+01, 4.434662151108155e+02
408, 2.000000000000416e-04, 7.899999999995286e-03, 3.462264083817191e-04, -2.172329080308084e-05, 6.846130627439415e+00, -5.789032651715052e+02, -9.795598655397114e+00, 5.860769315464472e+02
409, -1.999999999999328e-04, 7.800000000004094e-03, 3.406261647151489e-04, 4.168967292329314e-06, 5.289538658052329e+00, 6.816468850273145e+02, 7.174801314279691e+01, 6.914118667967928e+02
410, -1.499999999998583e-04, 7.800000000002947e-03, 3.405144660764872e-04, 9.603069659604594e-07, 7.944845491577937e+00, 5.156678700522900e+02, 8.411332199322739e+01, 5.348671549235594e+02
411, -9.999999999975283e-05, 7.800000000001799e-03, 3.404051633715174e-04, -2.247538588919445e-06, 1.014890949456066e+01, 3.497553870878058e+02, 8.991414155218672e+01, 3.842795480214345e+02
412, -4.999999999968147e-05, 7.800000000000654e-03, 3.402982509868073e-04, -5.454889618301871e-06, 1.177448955408351e+01, 1.841664202302925e+02, 8.917245791130678e+01, 2.480441226113733e+02
413, 3.590064443642627e-16, 7.799999999999507e-03, 3.401937174150001e-04, -8.662066037352039e-06, 1.269399705203315e+01, 1.915820386788143e+01, 8.191074513197510e+01, 1.639489757273878e+02
414, 5.000000000025183e-05, 7.799999999998360e-03, 3.400915452467510e-04, -1.186938744761437e-05, 1.277950930101239e+01, -1.450117431487718e+02, 6.815133938952742e+01, 2.085101906191103e+02
415, 1.000000000001784e-04, 7.799999999997211e-03, 3.399917111655917e-04, -1.507717313869831e-05, 1.190286498944601e+01, -3.080856490027575e+02, 4.791658533256960e+01, 3.340309052867299e+02
416, 1.500000000001016e-04, 7.799999999996065e-03, 3.398941859438991e-04, -1.828574208935668e-05, 9.935687618817624e+00, -4.698055086237231e+02, 2.122883876929940e+01, 4.816163096845825e+02
417, 2.000000000000397e-04, 7.799999999994919e-03, 3.397989344390572e-04, -2.149541297000010e-05, 6.748760971921108e+00, -6.299136050766576e+02, -1.188945037859308e+01, 6.371062740734819e+02
418, -1.999999999999347e-04, 7.700000000003952e-03, 3.342069347617545e-04, 4.350354963796828e-06, 5.616499963667366e+00, 7.350254494411237e+02, 7.627722700858446e+01, 7.451914364901698e+02
419, -1.499999999998626e-04, 7.700000000002785e-03, 3.340949488488147e-04, 1.147640164741151e-06, 8.321881756015422e+00, 5.556328961882405e+02, 8.869905757267617e+01, 5.753428871342331e+02
420, -9.999999999976044e-05, 7.700000000001617e-03, 3.339855501080289e-04, -2.054234282910120e-06, 1.054679619768766e+01, 3.763374829122831e+02, 9.430002767922267e+01, 4.115492769624847e+02
421, -4.999999999969162e-05, 7.700000000000449e-03, 3.338787322213933e-04, -5.255601190305579e-06, 1.216305679745082e+01, 1.973949057838123e+02, 9.310238312361552e+01, 2.626462504055449e+02
422, 3.461857536746216e-16, 7.699999999999279e-03, 3.337744829795296e-04, -8.456793079425942e-06, 1.304330991462383e+01, 1.906268284880350e+01, 8.512789004587712e+01, 1.703621539696317e+02
423, 5.000000000024164e-05, 7.699999999998113e-03, 3.336727842699440e-04, -1.165814217325915e-05, 1.305957438841083e+01, -1.584015535621444e+02, 7.039845880037723e+01, 2.218618723529356e+02
424, 1.000000000001708e-04, 7.699999999996944e-03, 3.335736120704003e-04, -1.485998039464048e-05, 1.208356944797400e+01, -3.347399188787473e+02, 4.893607741865820e+01, 3.603685484994703e+02
425, 1.500000000000973e-04, 7.699999999995776e-03, 3.334769364446190e-04, -1.806263936453254e-05, 9.986812112333276e+00, -5.096942988903841e+02, 2.076280789826655e+01, 5.213375431525145e+02
426, 2.000000000000377e-04, 7.699999999994609e-03, 3.333827215396793e-04, -2.126645040099678e-05, 6.640747046224519e+00, -6.830062810272879e+02, -1.409945784989018e+01, 6.902232987789322e+02
427, -1.999999999999367e-04, 7.600000000003967e-03, 3.277996575503459e-04, 4.529070736833117e-06, 5.949759336981643e+00, 7.904597359129407e+02, 8.091571366409991e+01, 8.010276613315513e+02
428, -1.499999999998669e-04, 7.600000000002791e-03, 3.276873883680745e-04, 1.332774101587453e-06, 8.702247528866906e+00, 5.971399307687282e+02, 9.336598247873306e+01, 6.173554355422584e+02
429, -9.999999999976803e-05, 7.600000000001615e-03, 3.275779048750904e-04, -1.862656943740126e-06, 1.094356185396128e+01, 4.039440862619055e+02, 9.874025055626174e+01, 4.398271939120779e+02
430, -4.999999999970180e-05, 7.600000000000435e-03, 3.274712000869171e-04, -5.057567804333360e-06, 1.254837012611258e+01, 2.111311489907486e+02, 9.705931517448369e+01, 2.776997708140213e+02
431, 3.333650629849805e-16, 7.599999999999259e-03, 3.273672611145005e-04, -8.252303612996933e-06, 1.338839918370939e+01, 1.895825321750471e+01, 8.834445522052181e+01, 1.767766793069745e+02
432, 5.000000000023146e-05, 7.599999999998081e-03, 3.272660691588148e-04, -1.144720922202875e-05, 1.333529596658005e+01, -1.723169520324462e+02, 7.261714641451346e+01, 2.357111728379448e+02
433, 1.000000000001632e-04, 7.599999999996904e-03, 3.271675995059564e-04, -1.464262919489923e-05, 1.226054098258788e+01, -3.624364840676203e+02, 4.989903356113635e+01, 3.877596095299484e+02
434, 1.500000000000929e-04, 7.599999999995727e-03, 3.270718215239558e-04, -1.783890780025427e-05, 1.003558338442713e+01, -5.511419975347361e+02, 2.021189409807075e+01, 5.626316379109963e+02
435, 2.000000000000358e-04, 7.599999999994550e-03, 3.269786986617273e-04, -2.103638900814797e-05, 6.532509993765707e+00, -7.381744174947987e+02, -1.642225700457612e+01, 7.454308619516336e+02
436, -1.999999999999386e-04, 7.500000000004145e-03, 3.214052901761603e-04, 4.704983040425280e-06, 6.264820372535254e+00, 8.479315830002182e+02, 8.566426853049624e+01, 8.589274747751548e+02
437, -1.499999999998712e-04, 7.500000000002950e-03, 3.212927425271068e-04, 1.515595146347726e-06, 9.065014734779382e+00, 6.401721461660132e+02, 9.811662314294178e+01, 6.609112635530256e+02
438, -9.999999999977570e-05, 7.500000000001755e-03, 3.211831864408428e-04, -1.672902253171786e-06, 1.132779087548480e+01, 4.325660856366450e+02, 1.032370177858198e+02, 4.691196311587577e+02
439, -4.999999999971198e-05, 7.500000000000564e-03, 3.210766142643102e-04, -4.860867173247853e-06, 1.292390428698050e+01, 2.253700200612999e+02, 1.010455137666650e+02, 2.932134640787709e+02
440, 3.205443722953394e-16, 7.499999999999370e-03, 3.209730124341553e-04, -8.048657374268073e-06, 1.372551105346467e+01, 1.884201172636043e+01, 9.156292211017075e+01, 1.831973072961186e+02
441, 5.000000000022125e-05, 7.499999999998177e-03, 3.208723614724935e-04, -1.123663034722998e-05, 1.360440995357473e+01, -1.867597752610898e+02, 7.481031203496089e+01, 2.500642674670039e+02
442, 1.000000000001556e-04, 7.499999999996980e-03, 3.207746359834364e-04, -1.442514330470602e-05, 1.243219436761044e+01, -3.911769029778499e+02, 5.080895146906184e+01, 4.162048794254571e+02
443, 1.500000000000885e-04, 7.499999999995787e-03, 3.206798046493007e-04, -1.761455317294693e-05, 1.008028905491653e+01, -5.941506390915234e+02, 1.958033479785313e+01, 6.054986148389543e+02
444, 2.000000000000339e-04, 7.499999999994593e-03, 3.205878302277847e-04, -2.080521658018831e-05, 6.419694214747729e+00, -7.954222216196936e+02, -1.885372174146638e+01, 8.027280419189715e+02
445, -1.999999999999404e-04, 7.400000000004559e-03, 3.150248243354395e-04, 4.877958618395165e-06, 6.612999011128437e+00, 9.074806432977824e+02, 9.051781966830073e+01, 9.188778021220216e+02
446, -1.499999999998756e-04, 7.400000000003323e-03, 3.149120042952495e-04, 1.695987907152896e-06, 9.450392195871501e+00, 6.847604080279503e+02, 1.029480660798012e+02, 7.060005911622221e+02
447, -9.999999999978329e-05, 7.400000000002085e-03, 3.148023889278114e-04, -1.485067697094469e-06, 1.172415685430653e+01, 4.622222054152379e+02, 1.077886201247153e+02, 4.994217038443243e+02
448, -4.999999999972218e-05, 7.400000000000849e-03, 3.146959699499247e-04, -4.665578856420977e-06, 1.330463650786584e+01, 2.401230196051195e+02, 1.050602428323280e+02, 3.091879645244999e+02
449, 3.077507866600104e-16, 7.399999999999613e-03, 3.145927331519358e-04, -7.845915978094570e-06, 1.406296995985979e+01, 1.872059873601157e+01, 9.478344281673276e+01, 1.896240956065126e+02
450, 5.000000000021107e-05, 7.399999999998373e-03, 3.144926584007682e-04, -1.102644920552138e-05, 1.387046864690515e+01, -2.017268476813762e+02, 7.697891285850666e+01, 2.649249231527062e+02
451, 1.000000000001480e-04, 7.399999999997137e-03, 3.143957196379411e-04, -1.420754841241190e-05, 1.259830923069860e+01, -4.209607875927276e+02, 5.166751355136924e+01, 4.457035093699272e+02
452, 1.500000000000842e-04, 7.399999999995899e-03, 3.143018848758637e-04, -1.738958319658015e-05, 1.011733498810264e+01, -6.387224496225015e+02, 1.887028885999775e+01, 6.499364717417958e+02
453, 2.000000000000320e-04, 7.399999999994663e-03, 3.142111161912749e-04, -2.057292287353156e-05, 6.297856530797823e+00, -8.547528301045116e+02, -2.139148632371306e+01, 8.621129089067675e+02
454, -1.999999999999424e-04, 7.300000000004963e-03, 3.086592891187193e-04, 5.047862342844445e-06, 6.959992886028914e+00, 9.690842627007382e+02, 9.547072183562341e+01, 9.808882431132242e+02
455, -1.499999999998800e-04, 7.300000000003675e-03, 3.085462034926038e-04, 1.873835157719825e-06, 9.836930787976826e+00, 7.308906305527739e+02, 1.078540622003152e+02, 7.526276854308110e+02
456, -9.999999999979085e-05, 7.300000000002383e-03, 3.084365429703615e-04, -1.299252598919351e-06, 1.212069692194407e+01, 4.929050559230253e+02, 1.123905241193480e+02, 5.307354515268106e+02
457, -4.999999999973237e-05, 7.300000000001096e-03, 3.083302986333727e-04, -4.471784263622193e-06, 1.368357986682784e+01, 2.553862333859445e+02, 1.091004441219035e+02, 3.256252452568266e+02
458, 2.949029909160572e-16, 7.299999999999806e-03, 3.082274556353645e-04, -7.644142906146332e-06, 1.439674423791988e+01, 1.859217994741444e+01, 9.800420109715279e+01, 1.960532973748648e+02
459, 5.000000000020089e-05, 7.299999999998517e-03, 3.081279932017786e-04, -1.081671133622211e-05, 1.413128136066965e+01, -2.172187536310104e+02, 7.912216281186963e+01, 2.802928919590427e+02
460, 1.000000000001404e-04, 7.299999999997227e-03, 3.080318846274473e-04, -1.398987210205606e-05, 1.275813450659904e+01, -4.517878490159231e+02, 5.247477767907758e+01, 4.762534829025210e+02
461, 1.500000000000799e-04, 7.299999999995936e-03, 3.079390972722728e-04, -1.716400748808542e-05, 1.014805933426155e+01, -6.848559539537093e+02, 1.808258131616748e+01, 6.959443206712800e+02
462, 2.000000000000302e-04, 7.299999999994650e-03, 3.078495925555601e-04, -2.033949951466346e-05, 6.171324075906128e+00, -9.161636439722009e+02, -2.403385430397959e+01, 9.235866488289673e+02
463, -1.999999999999443e-04, 7.200000000005343e-03, 3.023097496389183e-04, 5.214556895516007e-06, 7.304719938212855e+00, 1.032746279730509e+03, 1.005222758067935e+02, 1.044963781325824e+03
464, -1.499999999998843e-04, 7.200000000003976e-03, 3.021964060381884e-04, 2.049017628054561e-06, 1.021924831783767e+01, 7.785624968775168e+02, 1.128337075765304e+02, 8.007978083568315e+02
465, -9.999999999979844e-05, 7.200000000002606e-03, 3.020867153075565e-04, -1.115558248287536e-06, 1.251301996567054e+01, 5.246143953211515e+02, 1.170412096460652e+02, 5.630651806519668e+02
466, -4.999999999974257e-05, 7.200000000001237e-03, 3.019806678916662e-04, -4.279566720996825e-06, 1.405756900883735e+01, 2.711597078927794e+02, 1.131647596385814e+02, 3.425296499792819e+02
467, 2.821094052807283e-16, 7.199999999999870e-03, 3.018782483132978e-04, -7.443403524511234e-06, 1.472453917576210e+01, 1.845683868481258e+01, 1.012243053677849e+02, 2.024830117525603e+02
468, 5.000000000019069e-05, 7.199999999998501e-03, 3.017794351679232e-04, -1.060746414027144e-05, 1.438513957614747e+01, -2.332356312376202e+02, 8.123979329269835e+01, 2.961683004566253e+02
469, 1.000000000001328e-04, 7.199999999997132e-03, 3.016842011188971e-04, -1.377214379870986e-05, 1.291027647704887e+01, -4.836587856072290e+02, 5.323118397966223e+01, 5.078533934225171e+02
470, 1.500000000000756e-04, 7.199999999995762e-03, 3.015925128919464e-04, -1.693783747984669e-05, 1.017055964434127e+01, -7.325533256423294e+02, 1.721849149500709e+01, 7.435218057143866e+02
471, 2.000000000000282e-04, 7.199999999994395e-03, 3.015043312691686e-04, -2.010493991187781e-05, 6.036821827281770e+00, -9.796591026504917e+02, -2.677826818890004e+01, 9.871498154388111e+02
472, -1.999999999999461e-04, 7.100000000005715e-03, 2.959773067773059e-04, 5.377903265165897e-06, 7.666040941372074e+00, 1.098482949839313e+03, 1.056680332075163e+02, 1.111100563272937e+03
473, -1.499999999998886e-04, 7.100000000004259e-03, 2.958637137654975e-04, 2.221414253506081e-06, 1.061074247376820e+01, 8.277891521328190e+02, 1.178835413367047e+02, 8.505096533756838e+02
474, -9.999999999980600e-05, 7.100000000002804e-03, 2.957540086692455e-04, -9.340877432265386e-07, 1.290857309485118e+01, 5.573587701843891e+02, 1.217381844672476e+02, 5.964115687512802e+02
475, -4.999999999975274e-05, 7.100000000001348e-03, 2.956481813248997e-04, -4.089011362085190e-06, 1.443111882182050e+01, 2.874494395258264e+02, 1.172515170247565e+02, 3.599037043689083e+02
476, 2.692616095367750e-16, 7.099999999999895e-03, 2.955462156468693e-04, -7.243764996480800e-06, 1.504972483088828e+01, 1.831922560443787e+01, 1.044429953099535e+02, 2.089115763009991e+02
477, 5.000000000018050e-05, 7.099999999998441e-03, 2.954480896230704e-04, -1.039875679966945e-05, 1.463557630079202e+01, -2.497732711069478e+02, 8.333204909552120e+01, 3.125523319595022e+02
478, 1.000000000001252e-04, 7.099999999996985e-03, 2.953537753092299e-04, -1.355439468675474e-05, 1.305957621869113e+01, -5.165690311909490e+02, 5.393811089240177e+01, 5.405032294198055e+02
479, 1.500000000000712e-04, 7.099999999995530e-03, 2.952632388233124e-04, -1.671108633587725e-05, 1.019236215383300e+01, -7.818085852791958e+02, 1.628062598981089e+01, 7.926700043935657e+02
480, 2.000000000000263e-04, 7.099999999994075e-03, 2.951764403394729e-04, -1.986923919009259e-05, 5.904154952905643e+00, -1.045232143375433e+03, -2.962076384733564e+01, 1.052804386515843e+03
481, -1.999999999999481e-04, 7.000000000006086e-03, 2.896630981173444e-04, 5.537760651884985e-06, 8.020826877355461e+00, 1.166278396680001e+03, 1.109039053088402e+02, 1.179304584429374e+03
482, -1.499999999998929e-04, 7.000000000004546e-03, 2.895492649555130e-04, 2.390902192235260e-06, 1.099597338675406e+01, 8.785609605485530e+02, 1.230003063642573e+02, 9.017678794522775e+02
483, -9.999999999981362e-05, 7.000000000003004e-03, 2.894395620703369e-04, -7.549459646053490e-07, 1.329730190927773e+01, 5.911329425587282e+02, 1.264791430244245e+02, 6.307788218429120e+02
484, -4.999999999976293e-05, 7.000000000001462e-03, 2.893339787009560e-04, -3.900205095824387e-06, 1.479679858990040e+01, 3.042520787950579e+02, 1.213593560085023e+02, 3.777522103202572e+02
485, 2.564544713742900e-16, 6.999999999999921e-03, 2.892324981692628e-04, -7.045296249541016e-06, 1.536610886996367e+01, 1.817664935481906e+01, 1.076598452583356e+02, 2.153380325488557e+02
486, 5.000000000017032e-05, 6.999999999998381e-03, 2.891350978717833e-04, -1.019064024850026e-05, 1.487641135226652e+01, -2.668347432592223e+02, 8.539949210262515e+01, 3.294441798515849e+02
487, 1.000000000001176e-04, 6.999999999996837e-03, 2.890417492735918e-04, -1.333665769126080e-05, 1.319857161246263e+01, -5.505230564689786e+02, 5.459718056195629e+01, 5.741998628248271e+02
488, 1.500000000000668e-04, 6.999999999995296e-03, 2.889524179021332e-04, -1.648376895414743e-05, 1.020312697718391e+01, -8.326288169639901e+02, 1.527180720427459e+01, 8.433852014997635e+02
489, 2.000000000000244e-04, 6.999999999993755e-03, 2.888670633408259e-04, -1.963239419232141e-05, 5.759838531862904e+00, -1.112892431224500e+03, -3.255784390135057e+01, 1.120545828348435e+03
490, -1.999999999999499e-04, 6.900000000006458e-03, 2.833682970194176e-04, 5.693986532729055e-06, 8.380482525088240e+00, 1.236144063686717e+03, 1.162269158662718e+02, 1.249575205865565e+03
491, -1.499999999998973e-04, 6.900000000004828e-03, 2.832542337902772e-04, 2.557356878048969e-06, 1.138078744733870e+01, 9.308851018685123e+02, 1.281817701395565e+02, 9.545734382558489e+02
492, -9.999999999982122e-05, 6.900000000003202e-03, 2.831445504879081e-04, -5.782395116461481e-07, 1.368188256955662e+01, 6.259413536439613e+02, 1.312625302524699e+02, 6.661689480255232e+02
493, -4.999999999977310e-05, 6.900000000001573e-03, 2.830392357827434e-04, -3.713236543435817e-06, 1.515612041843579e+01, 3.215709443740485e+02, 1.254874294906967e+02, 3.960788105673913e+02
494, 2.436337806846489e-16, 6.899999999999946e-03, 2.829382724259296e-04, -6.848067917928424e-06, 1.567481096987433e+01, 1.803184775840278e+01, 1.108747241593020e+02, 2.217619747658010e+02
495, 5.000000000016015e-05, 6.899999999998319e-03, 2.828416372440190e-04, -9.983167124785491e-06, 1.510901902636212e+01, -2.844174350460710e+02, 8.744270611974393e+01, 3.468443514076322e+02
496, 1.000000000001100e-04, 6.899999999996692e-03, 2.827493011326744e-04, -1.311896744447059e-05, 1.332951492793833e+01, -5.855179054658151e+02, 5.520966499073378e+01, 6.089422479560842e+02
497, 1.500000000000625e-04, 6.899999999995065e-03, 2.826612290504386e-04, -1.625590194974905e-05, 1.020675681394479e+01, -8.850100902582294e+02, 1.419388129541728e+01, 8.956668288748658e+02
498, 2.000000000000225e-04, 6.899999999993437e-03, 2.825773800124235e-04, -1.939440350942095e-05, 5.611392317879094e+00, -1.182633645378722e+03, -3.558639081324078e+01, 1.190374661379789e+03
499, -1.999999999999519e-04, 6.800000000006828e-03, 2.770941130896974e-04, 5.846436802297430e-06, 8.734776668239292e+00, 1.308071976100425e+03, 1.216336644609258e+02, 1.321913821377569e+03
500, -1.499999999999017e-04, 6.800000000005111e-03, 2.769798305922002e-04, 2.720652144369451e-06, 1.175813820331672e+01, 9.847563040952116e+02, 1.334255655412964e+02, 1.008927627230541e+03
501, -9.999999999982880e-05, 6.800000000003401e-03, 2.768701849796476e-04, -4.040765811220816e-07, 1.405868549940172e+01, 6.617818722685396e+02, 1.360869128555655e+02, 7.025837445319959e+02
502, -4.999999999978328e-05, 6.800000000001686e-03, 2.767651643691200e-04, -3.528195922507456e-06, 1.550727748866373e+01, 3.394055754970537e+02, 1.296351797440229e+02, 4.148870048119033e+02
503, 2.308130899950078e-16, 6.799999999999972e-03, 2.766647509616868e-04, -6.652152227532191e-06, 1.597537259440624e+01, 1.788542932074469e+01, 1.140880460222444e+02, 2.281840864245201e+02
504, 5.000000000014997e-05, 6.799999999998255e-03, 2.765689210365167e-04, -9.776391649227766e-06, 1.533417851403817e+01, -3.025199639003535e+02, 8.946315007066845e+01, 3.647545431276438e+02
505, 1.000000000001024e-04, 6.799999999996542e-03, 2.764776449439892e-04, -1.290136014714176e-05, 1.345457203754178e+01, -6.215514825136975e+02, 5.577813897764530e+01, 6.447305580379834e+02
506, 1.500000000000582e-04, 6.799999999994830e-03, 2.763908870988525e-04, -1.602750348856188e-05, 1.020717673268139e+01, -9.389494427964812e+02, 1.305068859969262e+01, 9.495154397310937e+02
507, 2.000000000000206e-04, 6.799999999993115e-03, 2.763086059747569e-04, -1.915526724844916e-05, 5.462298159385412e+00, -1.254453747925138e+03, -3.870141817974644e+01, 1.262291425249239e+03
508, -1.999999999999538e-04, 6.700000000007203e-03, 2.708417917172612e-04, 5.994965901201746e-06, 9.096340375322953e+00, 1.382072265510738e+03, 1.271186745762821e+02, 1.396316411385891e+03
509, -1.499999999999060e-04, 6.700000000005407e-03, 2.707273015684406e-04, 2.880660378713315e-06, 1.213865199760814e+01, 1.040183644557796e+03, 1.387279466791839e+02, 1.064827816826442e+03
510, -9.999999999983645e-05, 6.700000000003612e-03, 2.706177125249602e-04, -2.325668462953828e-07, 1.443383290065125e+01, 6.986604896886550e+02, 1.409497193907798e+02, 7.400225749560934e+02
511, -4.999999999979346e-05, 6.700000000001816e-03, 2.705130121812676e-04, -3.345174945745609e-06, 1.585337359648939e+01, 3.577597940148770e+02, 1.338013946683229e+02, 4.341788262733091e+02
512, 2.179923993053667e-16, 6.700000000000018e-03, 2.704131822193328e-04, -6.457622910830015e-06, 1.626882748435580e+01, 1.773961323324221e+01, 1.172999188467113e+02, 2.346044480748379e+02
513, 5.000000000013978e-05, 6.699999999998221e-03, 2.703181984001564e-04, -9.570369554488139e-06, 1.555133322252277e+01, -3.211414640816531e+02, 9.146223402480591e+01, 3.831754177498138e+02
514, 1.000000000000948e-04, 6.699999999996424e-03, 2.702280305559222e-04, -1.268387351363910e-05, 1.357165476531897e+01, -6.586243108958714e+02, 5.630530523996364e+01, 6.815633248964047e+02
515, 1.500000000000538e-04, 6.699999999994629e-03, 2.701426425826671e-04, -1.579859324953531e-05, 1.020013952500844e+01, -9.944493245684384e+02, 1.184616092979607e+01, 1.004928789426569e+03
516, 2.000000000000187e-04, 6.699999999992831e-03, 2.700619924327162e-04, -1.891498704600656e-05, 5.306704661557546e+00, -1.328356414848327e+03, -4.189809235489727e+01, 1.336293050536729e+03
517, -1.999999999999557e-04, 6.600000000007607e-03, 2.646126148894680e-04, 6.139426888291523e-06, 9.458711596543509e+00, 1.458143175215064e+03, 1.326762674449046e+02, 1.472786013955228e+03
518, -1.499999999999103e-04, 6.600000000005753e-03, 2.644979293180104e-04, 3.037252531610504e-06, 1.251622455351618e+01, 1.097165878619982e+03, 1.440836289734213e+02, 1.122276811049353e+03
519, -9.999999999984406e-05, 6.600000000003900e-03, 2.643884163427429e-04, -6.382142892666297e-08, 1.480249733530208e+01, 7.365764867388923e+02, 1.458476375899636e+02, 7.784881664751671e+02
520, -4.999999999980367e-05, 6.600000000002050e-03, 2.642840630677425e-04, -3.164266784159814e-06, 1.619082280230953e+01, 3.766334335547070e+02, 1.379844012843105e+02, 4.539577685613090e+02
521, 2.051717086157256e-16, 6.600000000000198e-03, 2.641848506851662e-04, -6.264555164517583e-06, 1.655259804314993e+01, 1.759466686329715e+01, 1.205101337046438e+02, 2.410225201292826e+02
522, 5.000000000012958e-05, 6.599999999998345e-03, 2.640907544652465e-04, -9.365158043038660e-06, 1.575876784790447e+01, -3.402812917502915e+02, 9.344106348762978e+01, 4.021062713033508e+02
523, 1.000000000000872e-04, 6.599999999996491e-03, 2.640017437482227e-04, -1.246654673505370e-05, 1.367990434758752e+01, -6.967353362551065e+02, 5.679346658956254e+01, 7.194385348795424e+02
524, 1.500000000000495e-04, 6.599999999994639e-03, 2.639177819367490e-04, -1.556919239800041e-05, 1.018622825875143e+01, -1.051507765225274e+03, 1.058366137023255e+01, 1.061904982261623e+03
525, 2.000000000000168e-04, 6.599999999992787e-03, 2.638388264881944e-04, -1.867356603307758e-05, 5.147424407106087e+00, -1.404338433373182e+03, -4.517195710306090e+01, 1.412378280106543e+03
526, -1.999999999999576e-04, 6.500000000008018e-03, 2.584079008727186e-04, 6.279671244568813e-06, 9.803878330474106e+00, 1.536273472685452e+03, 1.383035747381468e+02, 1.551328765166059e+03
527, -1.499999999999147e-04, 6.500000000006126e-03, 2.582930326039868e-04, 3.190298044002155e-06, 1.287521746400870e+01, 1.155693142536893e+03, 1.494914721069117e+02, 1.181280496240693e+03
528, -9.999999999985163e-05, 6.500000000004228e-03, 2.581836157341552e-04, 1.020470810142358e-07, 1.515429221609713e+01, 7.755238722393843e+02, 1.507800224105770e+02, 8.179855492961514e+02
529, -4.999999999981387e-05, 6.500000000002332e-03, 2.580796368967149e-04, -2.985566043433834e-06, 1.651270751746584e+01, 3.960229440769808e+02, 1.421842674454900e+02, 4.742293572623921e+02
530, 1.923510179260846e-16, 6.500000000000438e-03, 2.579810768130484e-04, -6.073025598694571e-06, 1.682197148704915e+01, 1.744849711482888e+01, 1.237195839509394e+02, 2.474399610942751e+02
531, 5.000000000011942e-05, 6.499999999998543e-03, 2.578879102833264e-04, -9.160815717161190e-06, 1.595307996454549e+01, -3.599408214764734e+02, 9.540144877951866e+01, 4.215471158215591e+02
532, 1.000000000000796e-04, 6.499999999996646e-03, 2.578001061781048e-04, -1.224942039315985e-05, 1.377660149983456e+01, -7.358857795115982e+02, 5.724538973781898e+01, 7.583546822487943e+02
533, 1.500000000000451e-04, 6.499999999994751e-03, 2.577176274299520e-04, -1.533932348273140e-05, 1.016270195984008e+01, -1.110126546239223e+03, 9.266997374862619e+00, 1.120442550330808e+03
534, 2.000000000000149e-04, 6.499999999992855e-03, 2.576404310254650e-04, -1.843100870233303e-05, 4.981320241551515e+00, -1.482402549387962e+03, -4.851815516120170e+01, 1.490545813168804e+03
535, -1.999999999999595e-04, 6.400000000008258e-03, 2.522290032333415e-04, 6.415549278059795e-06, 1.015244651591956e+01, 1.616478086469638e+03, 1.439965627270618e+02, 1.631938142786532e+03
536, -1.499999999999190e-04, 6.400000000006336e-03, 2.521139657387972e-04, 3.339665134172211e-06, 1.323220687618772e+01, 1.215777752975785e+03, 1.549490082068509e+02, 1.241834357320301e+03
537, -9.999999999985919e-05, 6.400000000004416e-03, 2.520046657031239e-04, 2.649248570864909e-07, 1.549981344837381e+01, 8.155107856993261e+02, 1.557454777627691e+02, 8.585127669965817e+02
538, -4.999999999982406e-05, 6.400000000002495e-03, 2.519010893258869e-04, -2.809168577743994e-06, 1.682596517920994e+01, 4.159340016417959e+02, 1.464005854994816e+02, 4.949946974538061e+02
539, 1.795438797635995e-16, 6.400000000000575e-03, 2.518032168905281e-04, -5.883112078737175e-06, 1.708181470073802e+01, 1.730534788133677e+01, 1.269289438704059e+02, 2.538579861562552e+02
540, 5.000000000010922e-05, 6.399999999998654e-03, 2.517110227590040e-04, -8.957402437136323e-06, 1.613830239853637e+01, -3.801164697615257e+02, 9.734521596284928e+01, 4.414999532763709e+02
541, 1.000000000000720e-04, 6.399999999996736e-03, 2.516244753636754e-04, -1.203253632638279e-05, 1.386596518112975e+01, -7.760721125500201e+02, 5.766411958354121e+01, 7.983124509858054e+02
542, 1.500000000000408e-04, 6.399999999994814e-03, 2.515435371988560e-04, -1.510901030159858e-05, 1.013491713392807e+01, -1.170301614378779e+03, 7.900428508592100e+00, 1.180542278790653e+03
543, 2.000000000000129e-04, 6.399999999992895e-03, 2.514681648121575e-04, -1.818732079990345e-05, 4.814994404523901e+00, -1.562544282169365e+03, -5.193091017920214e+01, 1.570796734014426e+03
544, -1.999999999999615e-04, 6.300000000008254e-03, 2.460773119735432e-04, 6.546910277131817e-06, 1.050145651763521e+01, 1.698754316616938e+03, 1.497478555885650e+02, 1.714612317886166e+03
545, -1.499999999999234e-04, 6.300000000006307e-03, 2.459621193010871e-04, 3.485220989610747e-06, 1.358718992629264e+01, 1.277419455676178e+03, 1.604501526305262e+02, 1.303935965401340e+03
546, -9.999999999986685e-05, 6.300000000004357e-03, 2.458529574018743e-04, 4.246969995006006e-07, 1.583980547978312e+01, 8.565379771308844e+02, 1.607398941351125e+02, 9.000681474664980e+02
547, -4.999999999983422e-05, 6.300000000002410e-03, 2.457498120694363e-04, -2.635171346506824e-06, 1.713103140949184e+01, 4.363673900204116e+02, 1.506311364697549e+02, 5.162538924579876e+02
548, 1.667096365468024e-16, 6.300000000000461e-03, 2.456526631832299e-04, -5.694893597713879e-06, 1.733210267752162e+01, 1.716578285441538e+01, 1.301377423661405e+02, 2.602755378726695e+02
549, 5.000000000009904e-05, 6.299999999998514e-03, 2.455614847005772e-04, -8.754979204844260e-06, 1.631383453005920e+01, -4.008081258283502e+02, 9.927356097395025e+01, 4.619650305456431e+02
550, 1.000000000000644e-04, 6.299999999996569e-03, 2.454762446485174e-04, -1.181593752109164e-05, 1.394663168038126e+01, -8.172949569063761e+02, 5.805247799354119e+01, 8.393109908734655e+02
551, 1.500000000000364e-04, 6.299999999994618e-03, 2.453969051151489e-04, -1.487827780257113e-05, 1.010047702583573e+01, -1.232034659216236e+03, 6.488440685773710e+00, 1.242202920676506e+03
552, 2.000000000000111e-04, 6.299999999992672e-03, 2.453234222407315e-04, -1.794250920751648e-05, 4.644582066034815e+00, -1.644766766853589e+03, -5.540456162791390e+01, 1.653129293110971e+03
553, -1.999999999999633e-04, 6.200000000008235e-03, 2.399542535800872e-04, 6.673602412135455e-06, 1.084825605635152e+01, 1.783103369167576e+03, 1.555507621918298e+02, 1.799353312838452e+03
554, -1.499999999999277e-04, 6.200000000006244e-03, 2.398389202262653e-04, 3.626831703196298e-06, 1.393572974919121e+01, 1.340617683943479e+03, 1.659893767589051e+02, 1.367587255121959e+03
555, -9.999999999987445e-05, 6.200000000004252e-03, 2.397299182207843e-04, 5.812475250264057e-07, 1.617056657214050e+01, 8.986048730068301e+02, 1.657593317277446e+02, 9.426531331259582e+02
556, -4.999999999984441e-05, 6.200000000002263e-03, 2.396272329818636e-04, -2.463672390353712e-06, 1.742518000433458e+01, 4.573228728414119e+02, 1.548736347403343e+02, 5.380086905563084e+02
557, 1.538618408028491e-16, 6.200000000000271e-03, 2.395308440154538e-04, -5.508450231868997e-06, 1.757078186263996e+01, 1.702975814831257e+01, 1.333452957121478e+02, 2.666911401994824e+02
558, 5.000000000008886e-05, 6.199999999998280e-03, 2.394407249055329e-04, -8.553608110135323e-06, 1.647804235953973e+01, -4.220158047821972e+02, 1.011873323779338e+02, 4.829413617782295e+02
559, 1.000000000000568e-04, 6.199999999996288e-03, 2.393568433053851e-04, -1.159966805911933e-05, 1.401718411574045e+01, -8.595544705447614e+02, 5.841277767082707e+01, 8.813487653631638e+02
560, 1.500000000000321e-04, 6.199999999994299e-03, 2.392791609286169e-04, -1.464715203738356e-05, 1.005795317947648e+01, -1.295326213311852e+03, 5.034690567692451e+00, 1.305423002157810e+03
561, 2.000000000000091e-04, 6.199999999992307e-03, 2.392076335393432e-04, -1.769658192997515e-05, 4.469810459981048e+00, -1.729070124261066e+03, -5.893385762919382e+01, 1.737542374612166e+03
562, -1.999999999999653e-04, 6.100000000008216e-03, 2.338612908114081e-04, 6.795472779109927e-06, 1.118314133295445e+01, 1.869519518647031e+03, 1.614004029978516e+02, 1.886163951410450e+03
563, -1.499999999999321e-04, 6.100000000006179e-03, 2.337458316492720e-04, 3.764362302649375e-06, 1.426996913545921e+01, 1.405368210892346e+03, 1.715632397379036e+02, 1.432791017258471e+03
564, -9.999999999988203e-05, 6.100000000004146e-03, 2.336370116881789e-04, 7.344594148792204e-07, 1.648680637962846e+01, 9.417091207767488e+02, 1.708014135710733e+02, 9.862701569904015e+02
565, -4.999999999985460e-05, 6.100000000002112e-03, 2.335348159986357e-04, -2.294770763870310e-06, 1.770517105092691e+01, 4.787995237437989e+02, 1.591268542574109e+02, 5.602619254140833e+02
566, 1.410275975860520e-16, 6.100000000000079e-03, 2.334392237403680e-04, -5.323863057427985e-06, 1.779627033604152e+01, 1.689742956899288e+01, 1.365516832411961e+02, 2.731048456156360e+02
567, 5.000000000007866e-05, 6.099999999998046e-03, 2.333502081538904e-04, -8.353352233266376e-06, 1.663085831475067e+01, -4.437384474644557e+02, 1.030880270256035e+02, 5.044288482707493e+02
568, 1.000000000000492e-04, 6.099999999996011e-03, 2.332677365513114e-04, -1.138377300428927e-05, 1.407921530140156e+01, -9.028486723491211e+02, 5.874800880554498e+01, 9.244252621524981e+02
569, 1.500000000000277e-04, 6.099999999993980e-03, 2.331917703066629e-04, -1.441566003110525e-05, 1.001116528287758e+01, -1.360173052335094e+03, 3.543759960931624e+00, 1.370202548219793e+03
570, 2.000000000000072e-04, 6.099999999991945e-03, 2.331222648462021e-04, -1.744954792413417e-05, 4.296081723485173e+00, -1.815450639449040e+03, -6.251253105993614e+01, 1.824036566348447e+03
571, -1.999999999999672e-04, 6.000000000008407e-03, 2.277999222047171e-04, 6.912367660508897e-06, 1.151590873892462e+01, 1.958009785342270e+03, 1.672907411170063e+02, 1.975040045140409e+03
572, -1.499999999999365e-04, 6.000000000006308e-03, 2.276843525832623e-04, 3.897676986844872e-06, 1.459777555441860e+01, 1.471677059476144e+03, 1.771674677210686e+02, 1.499544359500122e+03
573, -9.999999999988962e-05, 6.000000000004209e-03, 2.275757372587805e-04, 8.842148044680066e-07, 1.679339526946154e+01, 9.858550280012016e+02, 1.758631922298657e+02, 1.030917987794287e+03
574, -4.999999999986476e-05, 6.000000000002106e-03, 2.274740609887244e-04, -2.128566378001493e-06, 1.797364982257591e+01, 5.008002990086771e+02, 1.633892645357201e+02, 5.830143910971429e+02
575, 1.282204594235670e-16, 6.000000000000007e-03, 2.273793026223819e-04, -5.141214013476031e-06, 1.800968503989694e+01, 1.677070834140825e+01, 1.397568943138676e+02, 2.795165345669011e+02
576, 5.000000000006848e-05, 5.999999999997906e-03, 2.272914350930416e-04, -8.154275520306208e-06, 1.677227718428219e+01, -4.659750665664372e+02, 1.049772474702644e+02, 5.264274763384866e+02
577, 1.000000000000416e-04, 5.999999999995806e-03, 2.272104254080692e-04, -1.116829828595516e-05, 1.413170686854016e+01, -9.471775736776129e+02, 5.906147144819057e+01, 9.685393964639044e+02
578, 1.500000000000234e-04, 5.999999999993707e-03, 2.271362346385200e-04, -1.418382966989476e-05, 9.957724588093981e+00, -1.426576605843154e+03, 2.020721399639314e+00, 1.436540015372859e+03
579, 2.000000000000053e-04, 5.999999999991606e-03, 2.270688179085200e-04, -1.720141700568214e-05, 4.119454483358794e+00, -1.903911265762898e+03, -6.613383072447547e+01, 1.912609725916038e+03
580, -1.999999999999690e-04, 5.900000000008779e-03, 2.217716826797227e-04, 7.024132713788548e-06, 1.184799411085621e+01, 2.048575613046311e+03, 1.732132986144507e+02, 2.065979375744608e+03
581, -1.499999999999408e-04, 5.900000000006594e-03, 2.216560183147641e-04, 4.026639296333045e-06, 1.492112956255994e+01, 1.539546708379662e+03, 1.827950471296390e+02, 1.567845423695809e+03
582, -9.999999999989724e-05, 5.900000000004408e-03, 2.215476305672698e-04, 1.030395133010854e-06, 1.709155865870088e+01, 1.031044922456902e+03, 1.809398115181903e+02, 1.076595692693706e+03
583, -4.999999999987495e-05, 5.900000000002220e-03, 2.214465039192560e-04, -1.965159869740224e-06, 1.823117599205636e+01, 5.233272269431496e+02, 1.676580996106440e+02, 6.062664217541657e+02
584, 1.153862162067698e-16, 5.900000000000033e-03, 2.213526169509211e-04, -4.960585785638810e-06, 1.821123835832452e+01, 1.665138145410424e+01, 1.429601475470768e+02, 2.859245500132675e+02
585, 5.000000000005830e-05, 5.899999999997847e-03, 2.212659423292841e-04, -7.956442678337764e-06, 1.690247118471424e+01, -4.887240144813317e+02, 1.068561020216513e+02, 5.489362888023002e+02
586, 1.000000000000340e-04, 5.899999999995659e-03, 2.211864467970755e-04, -1.095329060590836e-05, 1.417506137974755e+01, -9.925395477074148e+02, 5.935608916390220e+01, 1.013689738249752e+03
587, 1.500000000000191e-04, 5.899999999993472e-03, 2.211140911617875e-04, -1.395168962400007e-05, 9.898654320825415e+00, -1.494535001828253e+03, 4.702377667523834e-01, 1.504433950111574e+03
588, 2.000000000000034e-04, 5.899999999991286e-03, 2.210488302847183e-04, -1.695219978893809e-05, 3.942386106128112e+00, -1.994449328948340e+03, -6.979131222589989e+01, 2.003260531195878e+03
589, -1.999999999999710e-04, 5.800000000009150e-03, 2.157781437475486e-04, 7.130612913568795e-06, 1.217080547387224e+01, 2.141213616289794e+03, 1.791601645026732e+02, 2.158985120019465e+03
590, -1.499999999999452e-04, 5.800000000006880e-03, 2.156624005439587e-04, 4.151112094896849e-06, 1.523173549309016e+01, 1.608974149256958e+03, 1.884397726115760e+02, 1.637697491308298e+03
591, -9.999999999990477e-05, 5.800000000004606e-03, 2.155542635125190e-04, 1.172881164339363e-06, 1.737495797838281e+01, 1.077277029425477e+03, 1.860270382461247e+02, 1.123306118959717e+03
592, -4.999999999988512e-05, 5.800000000002332e-03, 2.154537168998145e-04, -1.804652548640320e-06, 1.847311501387355e+01, 5.463794663797003e+02, 1.719311290109304e+02, 6.300209268780462e+02
593, 1.025655255171287e-16, 5.800000000000059e-03, 2.153607390564217e-04, -4.782061729339472e-06, 1.839761666852627e+01, 1.653922282353264e+01, 1.461611477594880e+02, 2.923282026852125e+02
594, 5.000000000004811e-05, 5.799999999997786e-03, 2.152753024222302e-04, -7.759919081557122e-06, 1.701913854556523e+01, -5.119851616810437e+02, 1.087261729940115e+02, 5.719537327738485e+02
595, 1.000000000000264e-04, 5.799999999995513e-03, 2.151973735142707e-04, -1.073879733071919e-05, 1.420777171732325e+01, -1.038934304433569e+03, 5.963527897619156e+01, 1.059874378666492e+03
596, 1.500000000000147e-04, 5.799999999993240e-03, 2.151269129153051e-04, -1.371926922645572e-05, 9.833071318473060e+00, -1.564047965392580e+03, -1.102447206251625e+00, 1.573882581159735e+03
597, 2.000000000000015e-04, 5.799999999990969e-03, 2.150638752629087e-04, -1.670190754494176e-05, 3.764085203353886e+00, -2.087065048646882e+03, -7.347789711407378e+01, 2.095987230975932e+03
598, -1.999999999999729e-04, 5.700000000009518e-03, 2.098209130598276e-04, 7.231652623611411e-06, 1.247771870083443e+01, 2.235921303104933e+03, 1.851253944179378e+02, 2.254060118910171e+03
599, -1.499999999999495e-04, 5.700000000007160e-03, 2.097051070615048e-04, 4.270957626810707e-06, 1.552313118087488e+01, 1.679957196050485e+03, 1.940976868662430e+02, 1.709103977084390e+03
600, -9.999999999991239e-05, 5.700000000004800e-03, 2.095972440305400e-04, 1.311553063358450e-06, 1.763840998339217e+01, 1.124549937962084e+03, 1.911224878815158e+02, 1.171052668443313e+03
601, -4.999999999989533e-05, 5.700000000002444e-03, 2.094973080215587e-04, -1.647146304169460e-06, 1.869565066081776e+01, 5.699563800899589e+02, 1.762075096884031e+02, 6.542818488183080e+02
602, 8.974483482748763e-17, 5.700000000000083e-03, 2.094052771938228e-04, -4.605725765169198e-06, 1.856615865330201e+01, 1.643417065146517e+01, 1.493606615290336e+02, 2.987289310100415e+02
603, 5.000000000003792e-05, 5.699999999997726e-03, 2.093211237980358e-04, -7.564770658556653e-06, 1.712059736108668e+01, -5.357581662962100e+02, 1.105898989400569e+02, 5.954791602512290e+02
604, 1.000000000000188e-04, 5.699999999995369e-03, 2.092448141639827e-04, -1.052486637354422e-05, 1.422903127695443e+01, -1.086361226026868e+03, 5.990319894722265e+01, 1.107091905601579e+03
605, 1.500000000000104e-04, 5.699999999993010e-03, 2.091763086886829e-04, -1.348659835118512e-05, 9.760955293662022e+00, -1.635114719038912e+03, -2.691433750084215e+00, 1.644884482045339e+03
606, 1.999999999999996e-04, 5.699999999990651e-03, 2.091155618249060e-04, -1.645055208584851e-05, 3.585326722043419e+00, -2.181757467407826e+03, -7.718594575114146e+01, 2.190788398896922e+03
607, -1.999999999999748e-04, 5.600000000009672e-03, 2.039016340617860e-04, 7.327095843526271e-06, 1.277037624132322e+01, 2.332699430297572e+03, 1.911029205360142e+02, 2.351202271350532e+03
608, -1.499999999999538e-04, 5.600000000007281e-03, 2.037857814902795e-04, 4.386037759155942e-06, 1.579733171996287e+01, 1.752497254020110e+03, 1.997648654011037e+02, 1.782063586382995e+03
609, -9.999999999991998e-05, 5.600000000004890e-03, 2.036782159079008e-04, 1.446290609247871e-06, 1.788330622702381e+01, 1.172865082110683e+03, 1.962238485195003e+02, 1.219835274754173e+03
610, -4.999999999990553e-05, 5.600000000002499e-03, 2.035789212206541e-04, -1.492743416035658e-06, 1.889955407526142e+01, 5.940592715420452e+02, 1.804865237309515e+02, 6.790509860020849e+02
611, 7.692414413784654e-17, 5.600000000000110e-03, 2.034878754384941e-04, -4.431662206992809e-06, 1.871725544883580e+01, 1.633740286487583e+01, 1.525596345188933e+02, 3.051285500186349e+02
612, 5.000000000002774e-05, 5.599999999997718e-03, 2.034050506645352e-04, -7.371063733071978e-06, 1.720706549270389e+01, -5.600419865309393e+02, 1.124499652915163e+02, 6.195130723709125e+02
613, 1.000000000000112e-04, 5.599999999995330e-03, 2.033304130829580e-04, -1.031154604349259e-05, 1.423903723648530e+01, -1.134819441518205e+03, 6.016433063101951e+01, 1.155341669948400e+03
614, 1.500000000000060e-04, 5.599999999992939e-03, 2.032639229466504e-04, -1.325370726840889e-05, 9.682608384409605e+00, -1.707734597872388e+03, -4.290415794955273e+00, 1.717438642577276e+03
615, 1.999999999999977e-04, 5.599999999990549e-03, 2.032055345648806e-04, -1.619814561993813e-05, 3.406590820332923e+00, -2.278526194526165e+03, -8.090735972577247e+01, 2.287662833607787e+03
616, -1.999999999999767e-04, 5.500000000009695e-03, 1.980219861807997e-04, 7.416786477720647e-06, 1.305764810994623e+01, 2.431553860623475e+03, 1.970840529141465e+02, 2.450406583731472e+03
617, -1.499999999999582e-04, 5.500000000007305e-03, 1.979061034233613e-04, 4.496214239885639e-06, 1.606172802867701e+01, 1.826599358949209e+03, 2.054346831492083e+02, 1.856572150265589e+03
618, -9.999999999992762e-05, 5.500000000004914e-03, 1.977988588741972e-04, 1.576973425484022e-06, 1.811471795493432e+01, 1.222226232480763e+03, 2.013267705152718e+02, 1.269651296032938e+03
619, -4.999999999991570e-05, 5.500000000002524e-03, 1.977002363371590e-04, -1.341546351430059e-06, 1.908810279115664e+01, 6.186909706213814e+02, 1.847660400427679e+02, 7.043277343130633e+02
620, 6.410345344820545e-17, 5.500000000000133e-03, 1.976102137212281e-04, -4.259955580351731e-06, 1.885296548475287e+01, 1.625108204879669e+01, 1.557580875218701e+02, 3.115270407385152e+02
621, 5.000000000001756e-05, 5.499999999997745e-03, 1.975287630296423e-04, -7.178864858220917e-06, 1.727985805577404e+01, -5.848349359914077e+02, 1.143084956829686e+02, 6.440558624464909e+02
622, 1.000000000000036e-04, 5.499999999995354e-03, 1.974558503477405e-04, -1.009888489160968e-05, 1.423872995902448e+01, -1.184307623118336e+03, 6.042286522211781e+01, 1.204623198781113e+03
623, 1.500000000000017e-04, 5.499999999992964e-03, 1.973914358302968e-04, -1.302062649845264e-05, 9.598892951671615e+00, -1.781906569387824e+03, -5.893166761542197e+00, 1.791544233126877e+03
624, 1.999999999999958e-04, 5.499999999990576e-03, 1.973354736885167e-04, -1.594470060947786e-05, 3.229007056511676e+00, -2.377370410822132e+03, -8.463390848464843e+01, 2.386609557985070e+03
625, -1.999999999999786e-04, 5.400000000009719e-03, 1.921836853718680e-04, 7.500568391289472e-06, 1.333479093568349e+01, 2.532482071169929e+03, 2.030589845397631e+02, 2.551672946190572e+03
626, -1.499999999999625e-04, 5.400000000007331e-03, 1.920677887993507e-04, 4.601348777327093e-06, 1.631254754911274e+01, 1.902261811632612e+03, 2.110993357570375e+02, 1.932629386334934e+03
627, -9.999999999993521e-05, 5.400000000004939e-03, 1.919608888540620e-04, 1.703481082011961e-06, 1.833012197347614e+01, 1.272632685593763e+03, 2.064259006400838e+02, 1.320500485014944e+03
628, -4.999999999992589e-05, 5.400000000002551e-03, 1.918629692815790e-04, -1.193657647386908e-06, 1.925959767587261e+01, 6.438514214958325e+02, 1.890431617242677e+02, 7.301124669265513e+02
629, 5.128276275856436e-17, 5.400000000000158e-03, 1.917740079368583e-04, -4.090690495456167e-06, 1.897213321524859e+01, 1.617553031711722e+01, 1.589555037064213e+02, 3.179233077677985e+02
630, 5.000000000000737e-05, 5.399999999997771e-03, 1.916939767709739e-04, -6.988240683959039e-06, 1.733821572039014e+01, -6.101365110286306e+02, 1.161672752364108e+02, 6.691067747767664e+02
631, 9.999999999999598e-05, 5.399999999995381e-03, 1.916228418181400e-04, -9.886931575051140e-06, 1.422769194688362e+01, -1.234825228339310e+03, 6.068282860921222e+01, 1.254935384961126e+03
632, 1.499999999999973e-04, 5.399999999992991e-03, 1.915605631825836e-04, -1.278738667367702e-05, 9.509762588860241e+00, -1.857630146143360e+03, -7.493458749025649e+00, 1.867200055290450e+03
633, 1.999999999999938e-04, 5.399999999990601e-03, 1.915070950252377e-04, -1.569022962985968e-05, 3.052941531155483e+00, -2.478289812902163e+03, -8.835716875126082e+01, 2.487627347907577e+03
634, -1.999999999999805e-04, 5.300000000009745e-03, 1.863884839296778e-04, 7.578285446793331e-06, 1.359734797121058e+01, 2.635482928942134e+03, 2.090188806761566e+02, 2.655002743806433e+03
635, -1.499999999999669e-04, 5.300000000007331e-03, 1.862725897951002e-04, 4.701303084581071e-06, 1.654513847997879e+01, 1.979483431136301e+03, 2.167521483797792e+02, 2.010236980081084e+03
636, -9.999999999994280e-05, 5.300000000004915e-03, 1.861660579081874e-04, 1.825693164873333e-06, 1.852575926196013e+01, 1.324083786177665e+03, 2.115166651786439e+02, 1.372384406876298e+03
637, -4.999999999993605e-05, 5.300000000002501e-03, 1.860688720029395e-04, -1.049179817943385e-06, 1.941121680784568e+01, 6.695404606654982e+02, 1.933154966114514e+02, 7.564070059428664e+02
638, 3.846207206892327e-17, 5.300000000000087e-03, 1.859810099267581e-04, -3.923951536579927e-06, 1.907271807209659e+01, 1.611091758932187e+01, 1.621517087843855e+02, 3.243169420626749e+02
639, 4.999999999999720e-05, 5.299999999997673e-03, 1.859024436258133e-04, -6.799257833676727e-06, 1.738073799892797e+01, -6.359463666021946e+02, 1.180283531293825e+02, 6.946647206935322e+02
640, 9.999999999998842e-05, 5.299999999995259e-03, 1.858331391310033e-04, -9.675734724776029e-06, 1.420505922003866e+01, -1.286371883205723e+03, 6.094848472009322e+01, 1.306276867409143e+03
641, 1.499999999999930e-04, 5.299999999992844e-03, 1.857730565441191e-04, -1.255401840084814e-05, 9.414788422136496e+00, -1.934905084825211e+03, -9.084816760420864e+00, 1.944404768839777e+03
642, 1.999999999999920e-04, 5.299999999990430e-03, 1.857221500241690e-04, -1.543474523042323e-05, 2.878388309271514e+00, -2.581284364933042e+03, -9.206844287440967e+01, 2.590714868127746e+03
643, -1.999999999999824e-04, 5.200000000009989e-03, 1.806381702642226e-04, 7.649781695608463e-06, 1.384443362388527e+01, 2.740557075132445e+03, 2.149550324165282e+02, 2.760395713155516e+03
644, -1.499999999999712e-04, 5.200000000007502e-03, 1.805222946618628e-04, 4.795939047951865e-06, 1.675863321761005e+01, 2.058265279991462e+03, 2.223867814060959e+02, 2.089395345787500e+03
645, -9.999999999995044e-05, 5.200000000005017e-03, 1.804161541188254e-04, 1.943489432089630e-06, 1.870053461088892e+01, 1.376580565536410e+03, 2.165948851315347e+02, 1.425304022111375e+03
646, -4.999999999994625e-05, 5.200000000002529e-03, 1.803197324089338e-04, -9.082152030553670e-07, 1.954189483308070e+01, 6.957590960037178e+02, 1.975810274950033e+02, 7.832130954363410e+02
647, 2.564138137928218e-17, 5.200000000000042e-03, 1.802330074220949e-04, -3.759823111327590e-06, 1.915389207180473e+01, 1.605825198687342e+01, 1.653468897990536e+02, 3.307082684972012e+02
648, 4.999999999998700e-05, 5.199999999997556e-03, 1.801559511494754e-04, -6.611982751598954e-06, 1.740698749572996e+01, -6.622634866198073e+02, 1.198941532895039e+02, 7.207290651531041e+02
649, 9.999999999998081e-05, 5.199999999995069e-03, 1.800885296687231e-04, -9.465342790096269e-06, 1.417091130340364e+01, -1.338946569639426e+03, 6.122451350064765e+01, 1.358646635975165e+03
650, 1.499999999999887e-04, 5.199999999992581e-03, 1.800307031294691e-04, -1.232055210248241e-05, 9.314681755462772e+00, -2.013730372103087e+03, -1.066030275780869e+01, 2.023157398266653e+03
651, 1.999999999999900e-04, 5.199999999990096e-03, 1.799824257390742e-04, -1.517825977572726e-05, 2.706649881342202e+00, -2.686353172268778e+03, -9.575850723223073e+01, 2.695871193868768e+03
652, -1.999999999999843e-04, 5.100000000010360e-03, 1.749345689228126e-04, 7.714901585804368e-06, 1.407653006607302e+01, 2.847705723952773e+03, 2.208579555099376e+02, 2.867850650660719e+03
653, -1.499999999999755e-04, 5.100000000007788e-03, 1.748187277246821e-04, 4.885118933182459e-06, 1.695347869747215e+01, 2.138608927110969e+03, 2.279961926990167e+02, 2.170103890905610e+03
654, -9.999999999995803e-05, 5.100000000005215e-03, 1.747130015757739e-04, 2.056750005672072e-06, 1.885444381408169e+01, 1.430124496041232e+03, 2.216559694035157e+02, 1.479259488866667e+03
655, -4.999999999995644e-05, 5.100000000002642e-03, 1.746173743441644e-04, -7.708657878047659e-07, 1.965131673825067e+01, 7.225086315360804e+02, 2.018375749535033e+02, 8.105319436131188e+02
656, 1.282069068964109e-17, 5.100000000000066e-03, 1.745318240162413e-04, -3.598389277206991e-06, 1.921526074803884e+01, 1.601869835947628e+01, 1.685412601829379e+02, 3.370976765676605e+02
657, 4.999999999997683e-05, 5.099999999997495e-03, 1.744563226812967e-04, -6.426481533788775e-06, 1.741667092412328e+01, -6.890868378120247e+02, 1.217672837310203e+02, 7.472993332028415e+02
658, 9.999999999997324e-05, 5.099999999994921e-03, 1.743908365165161e-04, -9.255803871889512e-06, 1.412519958975182e+01, -1.392548395855186e+03, 6.151592707525673e+01, 1.412043710816950e+03
659, 1.499999999999843e-04, 5.099999999992348e-03, 1.743353257720504e-04, -1.208701785081849e-05, 9.209758462393381e+00, -2.094105279647431e+03, -1.221248986384225e+01, 2.103456852225314e+03
660, 1.999999999999881e-04, 5.099999999989774e-03, 1.742897447561006e-04, -1.492078527629221e-05, 2.538493689027945e+00, -2.793495697099532e+03, -9.941758739510315e+01, 2.803095186181248e+03
661, -1.999999999999862e-04, 5.000000000010596e-03, 1.692795407010822e-04, 7.773490118280530e-06, 1.429263428421598e+01, 2.956929588780912e+03, 2.267175036455507e+02, 2.977367218165517e+03
662, -1.499999999999799e-04, 5.000000000007969e-03, 1.691637494529064e-04, 4.968705548638740e-06, 1.712827540223060e+01, 2.220514852844519e+03, 2.335727952658673e+02, 2.252362628975646e+03
663, -9.999999999996564e-05, 5.000000000005344e-03, 1.690584604161657e-04, 2.165355540293255e-06, 1.898613808667008e+01, 1.484716105066648e+03, 2.266949444791052e+02, 1.534251194398318e+03
664, -4.999999999996662e-05, 5.000000000002718e-03, 1.689636576092187e-04, -6.372330328008679e-07, 1.973829289902574e+01, 7.497897027379271e+02, 2.060827234686949e+02, 8.383647277032031e+02
665, 0.000000000000000e+00, 5.000000000000093e-03, 1.688793191696074e-04, -3.439733573676587e-06, 1.925577130125524e+01, 1.599290885185431e+01, 1.717349211939597e+02, 3.434853401549270e+02
666, 4.999999999996663e-05, 4.999999999997467e-03, 1.688054173391251e-04, -6.242819763047466e-06, 1.740886025741202e+01, -7.164158583271021e+02, 1.236503421392876e+02, 7.743748097983902e+02
667, 9.999999999996559e-05, 4.999999999994841e-03, 1.687419184486965e-04, -9.047165561293765e-06, 1.406710535323029e+01, -1.447177007617887e+03, 6.182780912241240e+01, 1.466466866184251e+03
668, 1.499999999999799e-04, 4.999999999992216e-03, 1.686887829030574e-04, -1.185344521047714e-05, 9.099293715676765e+00, -2.176029781759752e+03, -1.373382342282062e+01, 2.185301706426676e+03
669, 1.999999999999863e-04, 4.999999999989590e-03, 1.686459651652384e-04, -1.466233323649684e-05, 2.373412512101311e+00, -2.902712283854750e+03, -1.030356535763998e+02, 2.912385325959965e+03
670, -1.999999999999881e-04, 4.900000000010410e-03, 1.636749826377643e-04, 7.825392980559034e-06, 1.448791056142386e+01, 3.068226006572831e+03, 2.325239186167722e+02, 3.088945750567169e+03
671, -1.499999999999843e-04, 4.900000000007836e-03, 1.635592564556289e-04, 5.046562394008648e-06, 1.727920476106198e+01, 2.303981208091725e+03, 2.391093407053791e+02, 2.336171902768868e+03
672, -9.999999999997321e-05, 4.900000000005265e-03, 1.634544268230241e-04, 2.269187385257484e-06, 1.909308471264791e+01, 1.540354678567360e+03, 2.317069847657339e+02, 1.590279643362856e+03
673, -4.999999999997681e-05, 4.900000000002690e-03, 1.633604779606376e-04, -5.074177056979348e-07, 1.980110491312598e+01, 7.776023139026538e+02, 2.103141041131158e+02, 8.667126178276164e+02
674, -1.282069068964109e-17, 4.900000000000120e-03, 1.632773882109214e-04, -3.283938850714567e-06, 1.927428307820179e+01, 1.598131625924813e+01, 1.749280075324563e+02, 3.498715119977205e+02
675, 4.999999999995644e-05, 4.899999999997547e-03, 1.632051300232560e-04, -6.061062336391863e-06, 1.738290891742983e+01, -7.442498766744251e+02, 1.255459899704596e+02, 8.019549129963975e+02
676, 9.999999999995801e-05, 4.899999999994974e-03, 1.631436699381505e-04, -8.839474766795093e-06, 1.399648748506920e+01, -1.502831617385768e+03, 6.216535404275231e+01, 1.521915117442198e+03
677, 1.499999999999756e-04, 4.899999999992402e-03, 1.630929685711556e-04, -1.161986306586039e-05, 8.983742119315423e+00, -2.259503037693095e+03, -1.521656811758811e+01, 2.268690910186927e+03
678, 1.999999999999843e-04, 4.899999999989829e-03, 1.630529805968582e-04, -1.440291447944634e-05, 2.212639137373458e+00, -3.014002032449204e+03, -1.066024080498503e+02, 3.023740603739387e+03
679, -1.999999999999901e-04, 4.800000000010084e-03, 1.581228278345732e-04, 7.870456783551624e-06, 1.466635732291496e+01, 3.181598152665230e+03, 2.382665754290790e+02, 3.202583463427129e+03
680, -1.499999999999886e-04, 4.800000000007600e-03, 1.580071813805672e-04, 5.118553887071367e-06, 1.740962604369957e+01, 2.389011202062509e+03, 2.445978342433187e+02, 2.421529772156640e+03
681, -9.999999999998080e-05, 4.800000000005114e-03, 1.579028329672597e-04, 2.368127793822106e-06, 1.917723266956349e+01, 1.597042765894932e+03, 2.366866551792224e+02, 1.647343902134672e+03
682, -4.999999999998701e-05, 4.800000000002629e-03, 1.578097670752167e-04, -3.815196824079572e-07, 1.984073680581056e+01, 8.059484861412152e+02, 2.145289440783907e+02, 8.955758287016976e+02
683, -2.564138137928218e-17, 4.800000000000143e-03, 1.577279623115037e-04, -3.131087076039802e-06, 1.927125462377620e+01, 1.598556458698408e+01, 1.781204430405601e+02, 3.562560380890120e+02
684, 4.999999999994627e-05, 4.799999999997659e-03, 1.576573913930636e-04, -5.881273275103040e-06, 1.733907432169084e+01, -7.725875461030139e+02, 1.274568588599217e+02, 8.300391973499492e+02
685, 9.999999999995042e-05, 4.799999999995174e-03, 1.575980211298738e-04, -8.632777524724148e-06, 1.391364460690079e+01, -1.559511148327303e+03, 6.253390151910988e+01, 1.578387637551957e+03
686, 1.499999999999713e-04, 4.799999999992687e-03, 1.575498124080865e-04, -1.138629942984486e-05, 8.863561103629110e+00, -2.344524310817571e+03, -1.665268746098462e+01, 2.353623530580983e+03
687, 1.999999999999824e-04, 4.799999999990203e-03, 1.575127201730514e-04, -1.414253895706429e-05, 2.056653838545969e+00, -3.127364790670934e+03, -1.101070967123565e+02, 3.137160000436939e+03
688, -1.999999999999919e-04, 4.700000000009747e-03, 1.526250457576645e-04, 7.908529287457026e-06, 1.483015261665145e+01, 3.297049181394776e+03, 2.439330556521632e+02, 3.318278935748534e+03
689, -1.499999999999929e-04, 4.700000000007334e-03, 1.525094931115374e-04, 5.184545561092307e-06, 1.752045718191181e+01, 2.475607496167900e+03, 2.500286139988898e+02, 2.508435592656053e+03
690, -9.999999999998839e-05, 4.700000000004922e-03, 1.524056471323662e-04, 2.462060110765117e-06, 1.923848843017703e+01, 1.654782329860318e+03, 2.416274798487452e+02, 1.705443934379634e+03
691, -4.999999999999717e-05, 4.700000000002511e-03, 1.523134926260317e-04, -2.596377636242192e-07, 1.985667628251082e+01, 8.348297975456383e+02, 2.187238644058787e+02, 9.249549739440992e+02
692, -3.846207206892327e-17, 4.700000000000096e-03, 1.522330085285370e-04, -2.981259152676880e-06, 1.924609043585028e+01, 1.600699639738383e+01, 1.813118571223054e+02, 3.626381803709411e+02
693, 4.999999999993608e-05, 4.699999999997685e-03, 1.521641678877076e-04, -5.703515542175501e-06, 1.727690780806546e+01, -8.014276823294089e+02, 1.293855226482355e+02, 8.586266125598472e+02
694, 9.999999999994281e-05, 4.699999999995272e-03, 1.521069378456536e-04, -8.427118816366618e-06, 1.381844998915531e+01, -1.617214541051864e+03, 6.293893224790368e+01, 1.635883203237395e+03
695, 1.499999999999669e-04, 4.699999999992859e-03, 1.520612796214339e-04, -1.115278126056379e-05, 8.739203382980719e+00, -2.431092560554407e+03, -1.803381805701517e+01, 2.440098340373329e+03
696, 1.999999999999805e-04, 4.699999999990447e-03, 1.520271484938119e-04, -1.388121556403481e-05, 1.906637776312181e+00, -3.242799554221226e+03, -1.135385743915677e+02, 3.252642357205391e+03
697, -1.999999999999939e-04, 4.600000000009572e-03, 1.471836423912297e-04, 7.939459449823195e-06, 1.496747570351209e+01, 3.414572619091234e+03, 2.495119146513611e+02, 3.436035493582714e+03
698, -1.499999999999973e-04, 4.600000000007185e-03, 1.470681968500816e-04, 5.244404152014275e-06, 1.760169279446268e+01, 2.563764998519996e+03, 2.553932026142290e+02, 2.596892437354575e+03
699, -9.999999999999598e-05, 4.600000000004799e-03, 1.469648737555118e-04, 2.550868893431754e-06, 1.926977471300648e+01, 1.713570387384120e+03, 2.465238442992921e+02, 1.764582270490701e+03
700, -5.000000000000737e-05, 4.600000000002412e-03, 1.468736582993291e-04, -1.418695295910651e-07, 1.984389838156781e+01, 8.642446245753781e+02, 2.228960961237069e+02, 9.548524834053632e+02
701, -5.126921023140829e-17, 4.600000000000025e-03, 1.467945298065317e-04, -2.834534758057434e-06, 1.919514605731590e+01, 1.604477354264193e+01, 1.845023254417927e+02, 3.690180987711821e+02
702, 4.999999999992590e-05, 4.599999999997638e-03, 1.467274617163983e-04, -5.527850871912007e-06, 1.719365371817688e+01, -8.307707883598409e+02, 1.313349024347592e+02, 8.877156760015422e+02
703, 9.999999999993524e-05, 4.599999999995251e-03, 1.466724215643015e-04, -8.222542392489892e-06, 1.370865796615479e+01, -1.675942341900887e+03, 6.338620527112544e+01, 1.694400113735356e+03
704, 1.499999999999625e-04, 4.599999999992864e-03, 1.466293709636640e-04, -1.091933428520981e-05, 8.608496650607776e+00, -2.519208829107165e+03, -1.935135892620470e+01, 2.528113591745898e+03
705, 1.999999999999786e-04, 4.599999999990477e-03, 1.465982655879155e-04, -1.361895196131899e-05, 1.760744198589009e+00, -3.360307728607841e+03, -1.168853873263020e+02, 3.370185928242037e+03
706, -1.999999999999958e-04, 4.500000000009600e-03, 1.418006596707141e-04, 7.963097650807948e-06, 1.507978884614744e+01, 3.534170594383993e+03, 2.549925074054469e+02, 3.555852192225188e+03
707, -1.500000000000016e-04, 4.500000000007212e-03, 1.416853337486114e-04, 5.297997820026928e-06, 1.765435440968417e+01, 2.653485770131546e+03, 2.606840363556603e+02, 2.686900057566160e+03
708, -1.000000000000036e-04, 4.500000000004825e-03, 1.415825531924489e-04, 2.634440128713582e-06, 1.927137717788582e+01, 1.773408640459030e+03, 2.513707928601826e+02, 1.824759337678283e+03
709, -5.000000000001756e-05, 4.500000000002437e-03, 1.414923036452074e-04, -2.831112690832469e-08, 1.980241983191547e+01, 8.941945451205841e+02, 2.270433621791874e+02, 9.852696798366188e+02
710, -6.409667718462742e-17, 4.500000000000053e-03, 1.414145648849250e-04, -2.690992133202963e-06, 1.911852577731918e+01, 1.610048703000396e+01, 1.876923412178656e+02, 3.753968145379701e+02
711, 4.999999999991571e-05, 4.499999999997665e-03, 1.413493108067377e-04, -5.354339559973669e-06, 1.708984744978372e+01, -8.606151308680614e+02, 1.333083354648929e+02, 9.173060984107817e+02
712, 9.999999999992765e-05, 4.499999999995279e-03, 1.412965094043698e-04, -8.019090562873384e-06, 1.358561719167045e+01, -1.735692517148526e+03, 6.388195974549398e+01, 1.753937744164375e+03
713, 1.499999999999582e-04, 4.499999999992891e-03, 1.412561227515406e-04, -1.068598278587073e-05, 8.474148213298321e+00, -2.608870484934313e+03, -2.059615323827666e+01, 2.617668759560587e+03
714, 1.999999999999767e-04, 4.499999999990504e-03, 1.412281069833413e-04, -1.335575436446892e-05, 1.622867566327443e+00, -3.479886436427742e+03, -1.201352700651521e+02, 3.489790390016538e+03
715, -1.999999999999977e-04, 4.400000000009622e-03, 1.364781756295462e-04, 7.979296038222110e-06, 1.517211000909816e+01, 3.655846885491474e+03, 2.603622975868790e+02, 3.677725781628169e+03
716, -1.500000000000059e-04, 4.400000000007235e-03, 1.363629809941746e-04, 5.345196463779992e-06, 1.768264663769793e+01, 2.744773441433355e+03, 2.658915961845956e+02, 2.778455968113510e+03
717, -1.000000000000112e-04, 4.400000000004850e-03, 1.362607617597964e-04, 2.712661515576924e-06, 1.924581795517264e+01, 1.834299850649747e+03, 2.561620435334598e+02, 1.885973783431199e+03
718, -5.000000000002772e-05, 4.400000000002464e-03, 1.361715040898631e-04, 8.094298985577173e-08, 1.973348497962428e+01, 9.246816129056838e+02, 2.311625551057034e+02, 1.016206485793546e+03
719, -7.691736787426851e-17, 4.400000000000076e-03, 1.360951882850938e-04, -2.550707841049285e-06, 1.901659666592218e+01, 1.617561310073930e+01, 1.908819469696263e+02, 3.817744647082600e+02
720, 4.999999999990552e-05, 4.399999999997690e-03, 1.360317887655454e-04, -5.183040232938327e-06, 1.696522814406774e+01, -8.909597930647612e+02, 1.353090101842910e+02, 9.473974652094350e+02
721, 9.999999999991999e-05, 4.399999999995304e-03, 1.359812740518342e-04, -7.816803972883147e-06, 1.344852954189241e+01, -1.796464798979607e+03, 6.443253674482784e+01, 1.814495098898112e+03
722, 1.499999999999539e-04, 4.399999999992917e-03, 1.359436067460403e-04, -1.045274938224637e-05, 8.334718265646131e+00, -2.700078144201776e+03, -2.175865476208145e+01, 2.708762446174857e+03
723, 1.999999999999748e-04, 4.399999999990530e-03, 1.359187435126352e-04, -1.309162731860292e-05, 1.490910526489472e+00, -3.601537243051156e+03, -1.232757388815992e+02, 3.611453932512549e+03
724, -1.999999999999997e-04, 4.300000000009517e-03, 1.312183047621516e-04, 7.987908684543768e-06, 1.524045622543451e+01, 3.779599445992033e+03, 2.656077859549740e+02, 3.801656032267545e+03
725, -1.500000000000103e-04, 4.300000000007164e-03, 1.311032520545428e-04, 5.385871905120658e-06, 1.768310491517332e+01, 2.837626538245154e+03, 2.710055185855384e+02, 2.871560017063224e+03
726, -1.000000000000188e-04, 4.300000000004808e-03, 1.310016118985281e-04, 2.785422662947843e-06, 1.919072011477323e+01, 1.896243567017009e+03, 2.608905847100131e+02, 1.948225597518192e+03
727, -5.000000000003792e-05, 4.300000000002456e-03, 1.309133710451841e-04, 1.858002627723125e-07, 1.963538226232316e+01, 9.557059801447865e+02, 2.352500226932007e+02, 1.047663331862215e+03
728, -8.973805856390960e-17, 4.300000000000101e-03, 1.308385103874469e-04, -2.413756559482951e-06, 1.888809336444467e+01, 1.627061710322459e+01, 1.940707996373208e+02, 3.881504247961794e+02
729, 4.999999999989533e-05, 4.299999999997747e-03, 1.307770049404627e-04, -5.014009642042570e-06, 1.681887969192525e+01, -9.218041997335465e+02, 1.373398372511556e+02, 9.779888592488421e+02
730, 9.999999999991241e-05, 4.299999999995395e-03, 1.307288238218778e-04, -7.615721401324313e-06, 1.329679252194381e+01, -1.858258657872524e+03, 6.504404734739583e+01, 1.876071085082482e+03
731, 1.499999999999495e-04, 4.299999999993039e-03, 1.306939302320440e-04, -1.021965483516502e-05, 8.189882900661985e+00, -2.792831471206207e+03, -2.282964597119187e+01, 2.801393474166626e+03
732, 1.999999999999729e-04, 4.299999999990687e-03, 1.306722814339644e-04, -1.282657352622792e-05, 1.365360139683872e+00, -3.725259738649745e+03, -1.262942809366794e+02, 3.735175445479980e+03
733, -2.000000000000014e-04, 4.200000000009198e-03, 1.260231978696511e-04, 7.988791757596250e-06, 1.528262838422580e+01, 3.905427962198077e+03, 2.707157746744176e+02, 3.927642911572277e+03
734, -1.500000000000147e-04, 4.200000000006931e-03, 1.259082965914710e-04, 5.419898060099225e-06, 1.765349269550575e+01, 2.932045099097624e+03, 2.760158829246211e+02, 2.966212653532068e+03
735, -1.000000000000264e-04, 4.200000000004664e-03, 1.258072521246383e-04, 2.852615275764171e-06, 1.910415842088611e+01, 1.959240182791824e+03, 2.655497223320177e+02, 2.011515451888032e+03
736, -5.000000000004811e-05, 4.200000000002396e-03, 1.257200518791535e-04, 2.861702299236558e-07, 1.950668607303351e+01, 9.872683905873171e+02, 2.393023707181760e+02, 1.079641243770239e+03
737, -1.025587492535507e-16, 4.200000000000129e-03, 1.256466774120445e-04, -2.280210870638347e-06, 1.873218625205607e+01, 1.638654416935228e+01, 1.972588390180503e+02, 3.945246510926491e+02
738, 4.999999999988515e-05, 4.199999999997860e-03, 1.255871044060412e-04, -4.847302442377504e-06, 1.665071155740907e+01, -9.531470141823501e+02, 1.394041011135462e+02, 1.009079601656436e+03
739, 9.999999999990481e-05, 4.199999999995591e-03, 1.255413026488253e-04, -7.415879528769523e-06, 1.313128552844631e+01, -1.921072412873297e+03, 6.572312173567113e+01, 1.938665020531837e+03
740, 1.499999999999452e-04, 4.199999999993324e-03, 1.255092360125161e-04, -9.986717803679148e-06, 8.041932947383771e+00, -2.887128230936280e+03, -2.379912051074004e+01, 2.895561408499308e+03
741, 1.999999999999710e-04, 4.199999999991056e-03, 1.254908624334789e-04, -1.256059357423784e-05, 1.249608568963993e+00, -3.851051571107106e+03, -1.291775979134436e+02, 3.860954776495626e+03
742, -2.000000000000034e-04, 4.100000000008875e-03, 1.208950419827505e-04, 7.981803785238504e-06, 1.529941008927261e+01, 4.033334335442145e+03, 2.756724415045704e+02, 4.055685619149471e+03
743, -1.500000000000190e-04, 4.100000000006694e-03, 1.207803003970260e-04, 5.447151182717349e-06, 1.759385169805500e+01, 3.028030964284446e+03, 2.809123894502021e+02, 3.062413866711026e+03
744, -1.000000000000340e-04, 4.100000000004513e-03, 1.206798669761614e-04, 2.914133386884361e-06, 1.898538303822824e+01, 2.023291093019145e+03, 2.701326502782682e+02, 2.075843918517853e+03
745, -5.000000000005830e-05, 4.100000000002334e-03, 1.205937298670674e-04, 3.819647532859092e-07, 1.934627486974745e+01, 1.019369929261877e+03, 2.433162537410472e+02, 1.112141405884207e+03
746, -1.153726636796137e-16, 4.100000000000152e-03, 1.205218713667993e-04, -2.150141034204892e-06, 1.854759756912557e+01, 1.652419804788568e+01, 2.004461726755682e+02, 4.008974516092080e+02
747, 4.999999999987496e-05, 4.099999999997971e-03, 1.204642679007350e-04, -4.682970966277330e-06, 1.645935033806830e+01, -9.849877895835027e+02, 1.415053662980116e+02, 1.040668750766368e+03
748, 9.999999999989721e-05, 4.099999999995790e-03, 1.204208900012108e-04, -7.217312711311183e-06, 1.295047989112879e+01, -1.984906137367462e+03, 6.647679421007217e+01, 2.002275635320406e+03
749, 1.499999999999408e-04, 4.099999999993610e-03, 1.203917022864531e-04, -9.753954618341511e-06, 7.888884149392368e+00, -2.982969370642078e+03, -2.465656411212653e+01, 2.991264763418567e+03
750, 1.999999999999691e-04, 4.099999999991429e-03, 1.203766634396304e-04, -1.229368571969033e-05, 1.141410064038837e+00, -3.978914436956989e+03, -1.319117075167300e+02, 3.988790210041911e+03
751, -2.000000000000054e-04, 4.000000000008551e-03, 1.158360604602254e-04, 7.966805874025477e-06, 1.528716628843011e+01, 4.163317300219274e+03, 2.804636765967674e+02, 4.185784691973423e+03
752, -1.500000000000234e-04, 4.000000000006458e-03, 1.157214854425223e-04, 5.467510093934954e-06, 1.750097591034279e+01, 3.125583396280315e+03, 2.856845735893001e+02, 3.160164399862840e+03
753, -1.000000000000416e-04, 4.000000000004365e-03, 1.156216770359404e-04, 2.969873590077336e-06, 1.883196712647606e+01, 2.088396284941175e+03, 2.746325098664320e+02, 2.141211929602945e+03
754, -5.000000000006849e-05, 4.000000000002271e-03, 1.155366242020323e-04, 4.730982522321007e-07, 1.915229274111664e+01, 1.052011030180361e+03, 2.472883500064438e+02, 1.145165177474511e+03
755, -1.282069068964109e-16, 4.000000000000177e-03, 1.154663100548133e-04, -2.023614754520165e-06, 1.833297178506592e+01, 1.668428423237481e+01, 2.036329902832796e+02, 4.072693176480245e+02
756, 4.999999999986478e-05, 3.999999999998083e-03, 1.154107118389087e-04, -4.521064992232837e-06, 1.624395157605494e+01, -1.017325657399036e+03, 1.436473194650779e+02, 1.072755492251114e+03
757, 9.999999999988963e-05, 3.999999999995989e-03, 1.153698009078272e-04, -7.020052752677167e-06, 1.275411005549057e+01, -2.049758857927768e+03, 6.731223181211864e+01, 2.066901906067441e+03
758, 1.499999999999365e-04, 3.999999999993896e-03, 1.153435427023443e-04, -9.521379060061340e-06, 7.731251682143125e+00, -3.080353748454849e+03, -2.539135797551289e+01, 3.088502525870822e+03
759, 1.999999999999672e-04, 3.999999999991804e-03, 1.153318967289965e-04, -1.202584567378090e-05, 1.042162754871356e+00, -4.108847088871216e+03, -1.344824880367812e+02, 4.118680834804501e+03
760, -2.000000000000072e-04, 3.900000000008219e-03, 1.108485128612330e-04, 7.943661940986062e-06, 1.524429826297120e+01, 4.295376618557968e+03, 2.850754281595733e+02, 4.317939865050843e+03
761, -1.500000000000277e-04, 3.900000000006203e-03, 1.107341097962051e-04, 5.480856429240970e-06, 1.737369462419133e+01, 3.224702714866525e+03, 2.903220829812644e+02, 3.259464233820486e+03
762, -1.000000000000492e-04, 3.900000000004186e-03, 1.106349388750474e-04, 3.019735292012843e-06, 1.864289426203305e+01, 2.154556420611972e+03, 2.790424713258188e+02, 2.207619848447443e+03
763, -5.000000000007867e-05, 3.900000000002170e-03, 1.105509899523169e-04, 5.594879567744001e-07, 1.892384076073643e+01, 1.085192555216567e+03, 2.512153917882916e+02, 1.178713563047727e+03
764, -1.410275975860520e-16, 3.900000000000153e-03, 1.104822470377600e-04, -1.900696926993194e-06, 1.808755866877425e+01, 1.686774278061404e+01, 2.068196109151829e+02, 4.136410204358745e+02
765, 4.999999999985460e-05, 3.899999999998138e-03, 1.104286882743193e-04, -4.361631490244020e-06, 1.600398666141120e+01, -1.050159696038551e+03, 1.458338843088612e+02, 1.105339353121378e+03
766, 9.999999999988204e-05, 3.899999999996121e-03, 1.103902859158176e-04, -6.824128647118841e-06, 1.254196309123193e+01, -2.115629748623166e+03, 6.823697345461326e+01, 2.132543076405813e+03
767, 1.499999999999321e-04, 3.899999999994104e-03, 1.103670063046954e-04, -9.289002097450567e-06, 7.569234803524012e+00, -3.179280707502630e+03, -2.599233348622660e+01, 3.187273907334758e+03
768, 1.999999999999652e-04, 3.899999999992088e-03, 1.103588098500294e-04, -1.175706632909425e-05, 9.523937361220760e-01, -4.240849239063044e+03, -1.368752004337255e+02, 4.250625880266665e+03
769, -2.000000000000091e-04, 3.800000000007874e-03, 1.059346949493720e-04, 7.912239022541068e-06, 1.517392831760276e+01, 4.429515383417773e+03, 2.894926267992188e+02, 4.452149414170681e+03
770, -1.500000000000321e-04, 3.800000000005924e-03, 1.058204676316266e-04, 5.487074928720268e-06, 1.721409914031955e+01, 3.325391618211259e+03, 2.948135268968507e+02, 3.360312271240844e+03
771, -1.000000000000568e-04, 3.800000000003971e-03, 1.057219450594472e-04, 3.063620991002684e-06, 1.841914397153852e+01, 2.221773627752738e+03, 2.833549773155581e+02, 2.275067285571291e+03
772, -5.000000000008884e-05, 3.800000000002021e-03, 1.056391180632572e-04, 6.410541776896033e-07, 1.866118328188867e+01, 1.118916230215008e+03, 2.550936456823075e+02, 1.212786972461265e+03
773, -1.538415120121150e-16, 3.800000000000070e-03, 1.055719716318425e-04, -1.781449373901325e-06, 1.781122552907863e+01, 1.707598693599226e+01, 2.100061149958805e+02, 4.200128735151349e+02
774, 4.999999999984441e-05, 3.799999999998119e-03, 1.055204848895343e-04, -4.204714361776601e-06, 1.573915560256665e+01, -1.083488789449562e+03, 1.480689384665889e+02, 1.138419833513988e+03
775, 9.999999999987444e-05, 3.799999999996168e-03, 1.054846310731470e-04, -6.629566322277791e-06, 1.231371693695996e+01, -2.182518043354951e+03, 6.925867349794714e+01, 2.199198379274792e+03
776, 1.499999999999278e-04, 3.799999999994218e-03, 1.054643775088865e-04, -9.056831632467302e-06, 7.402524329347784e+00, -3.279749963388518e+03, -2.644808842258068e+01, 3.287578057329527e+03
777, 1.999999999999633e-04, 3.799999999992265e-03, 1.054596855894859e-04, -1.148733751174890e-05, 8.721240598501367e-01, -4.374920942713277e+03, -1.390747068864471e+02, 4.384624506112465e+03
778, -2.000000000000110e-04, 3.700000000007529e-03, 1.010969389167182e-04, 7.872407510210538e-06, 1.507304540385087e+01, 4.565732438947423e+03, 2.936993528363739e+02, 4.588413468234132e+03
779, -1.500000000000364e-04, 3.700000000005644e-03, 1.009828893748300e-04, 5.486053681266958e-06, 1.701955747044389e+01, 3.427649609961908e+03, 2.991468844705739e+02, 3.462708880184953e+03
780, -1.000000000000644e-04, 3.700000000003758e-03, 1.008850242451159e-04, 3.101436525075920e-06, 1.815864262754980e+01, 2.290048053199524e+03, 2.875619979601614e+02, 2.343554800842606e+03
781, -5.000000000009902e-05, 3.700000000001873e-03, 1.008033354177416e-04, 7.177205585309818e-07, 1.836266763941666e+01, 1.153182600539253e+03, 2.589190796155115e+02, 1.247386323182422e+03
782, -1.666825314924902e-16, 3.699999999999988e-03, 1.007378089452308e-04, -1.665930589686564e-06, 1.750269771097038e+01, 1.730979615859235e+01, 2.131924464457674e+02, 4.263849365270009e+02
783, 4.999999999983423e-05, 3.699999999998102e-03, 1.006884250182983e-04, -4.050354183058139e-06, 1.544858756821640e+01, -1.117312046767231e+03, 1.503563825957325e+02, 1.171996084400090e+03
784, 9.999999999986681e-05, 3.699999999996217e-03, 1.006551579419453e-04, -6.436388380525682e-06, 1.206900014100927e+01, -2.250422824666035e+03, 7.038516699909314e+01, 2.266866900427255e+03
785, 1.499999999999234e-04, 3.699999999994331e-03, 1.006379761114583e-04, -8.824872239213310e-06, 7.231388046776658e+00, -3.381760647062235e+03, -2.674689383257727e+01, 3.389414197077585e+03
786, 1.999999999999614e-04, 3.699999999992445e-03, 1.006368419880974e-04, -1.121664571598543e-05, 8.020782680871434e-01, -4.511061746615102e+03, -1.410654049990671e+02, 4.520676162726077e+03
787, -2.000000000000130e-04, 3.600000000007325e-03, 9.633761328901995e-05, 7.824041388908998e-06, 1.494042835700213e+01, 4.704028379750542e+03, 2.976796196129048e+02, 4.726732321555304e+03
788, -1.500000000000407e-04, 3.600000000005489e-03, 9.622374164903428e-05, 5.477684362555267e-06, 1.678829341802896e+01, 3.531477182035792e+03, 3.033101907519219e+02, 3.566654773177387e+03
789, -1.000000000000720e-04, 3.600000000003653e-03, 9.612654114550820e-05, 3.133091318342768e-06, 1.785957254515165e+01, 2.359380300827866e+03, 2.916555502138802e+02, 2.413083330691225e+03
790, -5.000000000010923e-05, 3.600000000001818e-03, 9.604600481545532e-05, 7.894143281175554e-07, 1.802660691528854e+01, 1.187992412882109e+03, 2.626877041066019e+02, 1.282512887532434e+03
791, -1.794761171278192e-16, 3.599999999999982e-03, 9.598211986161582e-05, -1.554195484109726e-06, 1.716047363290579e+01, 1.756999672974052e+01, 2.163786336717836e+02, 4.327574611116931e+02
792, 4.999999999982404e-05, 3.599999999998146e-03, 9.593486762789426e-05, -3.898587945343728e-06, 1.513103040864388e+01, -1.151628627054977e+03, 1.527002879150210e+02, 1.206067000627224e+03
793, 9.999999999985923e-05, 3.599999999996311e-03, 9.590422357480793e-05, -6.244613837043843e-06, 1.180691540611144e+01, -2.319343285977852e+03, 7.162460055953223e+01, 2.335547386595644e+03
794, 1.499999999999191e-04, 3.599999999994474e-03, 9.589015725478392e-05, -8.593124898410693e-06, 7.055532567389719e+00, -3.485311948511664e+03, -2.687649187131456e+01, 3.492781127720385e+03
795, 1.999999999999595e-04, 3.599999999992638e-03, 9.589263228705291e-05, -1.094497382983772e-05, 7.428256157199939e-01, -4.649270876956649e+03, -1.428310117601434e+02, 4.658779907421309e+03
796, -2.000000000000149e-04, 3.500000000007369e-03, 9.165912290269843e-05, 7.767018523776163e-06, 1.477462061061266e+01, 4.844403116634859e+03, 3.014170296282352e+02, 4.867105948364906e+03
797, -1.500000000000451e-04, 3.500000000005565e-03, 9.154542725547230e-05, 5.461862520992140e-06, 1.651897001849807e+01, 3.636874705024713e+03, 3.072912071340697e+02, 3.672150213692251e+03
798, -1.000000000000796e-04, 3.500000000003764e-03, 9.144889651874399e-05, 3.158498662551369e-06, 1.752051073479527e+01, 2.429770954643677e+03, 2.956274343707181e+02, 2.483653462935007e+03
799, -5.000000000011939e-05, 3.500000000001962e-03, 9.136952496473970e-05, 8.560665788774224e-07, 1.765143832122396e+01, 1.223346284790361e+03, 2.663953553807864e+02, 1.318167669257617e+03
800, -1.923239128717724e-16, 3.500000000000160e-03, 9.130730103478403e-05, -1.446295107049438e-06, 1.678282551649863e+01, 1.785708097781105e+01, 2.195645605990987e+02, 4.391304351887914e+02
801, 4.999999999981385e-05, 3.499999999998358e-03, 9.126220731446022e-05, -3.749448783494525e-06, 1.478451371399620e+01, -1.186438362845110e+03, 1.551045952258469e+02, 1.240631347745828e+03
802, 9.999999999985163e-05, 3.499999999996555e-03, 9.123422050839644e-05, -6.054257853819925e-06, 1.152509010877202e+01, -2.389279847279704e+03, 7.298497623906115e+01, 2.405238361247248e+03
803, 1.499999999999148e-04, 3.499999999994753e-03, 9.122331141487979e-05, -8.361586740423700e-06, 6.871875909450523e+00, -3.590405264247462e+03, -2.682479037458204e+01, 3.597677181267110e+03
804, 1.999999999999576e-04, 3.499999999992950e-03, 9.122944490031726e-05, -1.067230088868031e-05, 6.909675683040177e-01, -4.789550538177546e+03, -1.443552575072620e+02, 4.798933990466030e+03
805, -2.000000000000167e-04, 3.400000000007423e-03, 8.706390891283610e-05, 7.701220967625639e-06, 1.457600940920184e+01, 4.986857521819802e+03, 3.048946364547663e+02, 5.009533550742602e+03
806, -1.500000000000494e-04, 3.400000000005649e-03, 8.695038518566501e-05, 5.438487885989830e-06, 1.621193505001770e+01, 3.743843477177191e+03, 3.110771098017129e+02, 3.779194727297306e+03
807, -1.000000000000872e-04, 3.400000000003875e-03, 8.685452718195317e-05, 3.177576021700972e-06, 1.714151489805465e+01, 2.501221434792023e+03, 2.994690185792992e+02, 2.555265117512431e+03
808, -5.000000000012958e-05, 3.400000000002102e-03, 8.677633050049744e-05, 9.176125685141065e-07, 1.723710900579397e+01, 1.259245733087692e+03, 2.700376075677078e+02, 1.354351010741815e+03
809, -2.051242747706794e-16, 3.400000000000329e-03, 8.671578491353579e-05, -1.342276347767984e-06, 1.636984108511598e+01, 1.817268090876058e+01, 2.227500064729828e+02, 4.455036607776476e+02
810, 4.999999999980369e-05, 3.399999999998554e-03, 8.667287434106713e-05, -3.602965674343491e-06, 1.440955925302279e+01, -1.221739455260604e+03, 1.575732796035950e+02, 1.275688731573317e+03
811, 9.999999999984403e-05, 3.399999999996781e-03, 8.664757682493188e-05, -5.865331435795286e-06, 1.122482411596491e+01, -2.460230449871864e+03, 7.447445224027086e+01, 2.475939609010731e+03
812, 1.499999999999104e-04, 3.399999999995008e-03, 8.663986450285545e-05, -8.130250738137023e-06, 6.682920282332077e+00, -3.697038103699274e+03, -2.657947186818767e+01, 3.704102495447786e+03
813, 1.999999999999557e-04, 3.399999999993234e-03, 8.664970358270916e-05, -1.039860177317304e-05, 6.500162249600976e-01, -4.931898131489438e+03, -1.456214589375476e+02, 4.941138903808832e+03
814, -2.000000000000187e-04, 3.300000000007353e-03, 8.255444887421504e-05, 7.626535264657112e-06, 1.434473947698450e+01, 5.131392353109230e+03, 3.080947164322551e+02, 5.154014522423598e+03
815, -1.500000000000538e-04, 3.300000000005614e-03, 8.244109067340313e-05, 5.407464668632156e-06, 1.586675409879103e+01, 3.852384312738909e+03, 3.146544759094531e+02, 3.887788154541518e+03
816, -1.000000000000948e-04, 3.300000000003875e-03, 8.234590603792917e-05, 3.190245333158236e-06, 1.672195793098223e+01, 2.573732722563915e+03, 3.031713126888728e+02, 2.627918459503391e+03
817, -5.000000000013977e-05, 3.300000000002137e-03, 8.226889198817103e-05, 9.739920228504081e-07, 1.678296848974492e+01, 1.295691869460173e+03, 2.736099227457490e+02, 1.391063455159802e+03
818, -2.179652942510546e-16, 3.300000000000398e-03, 8.221003972295356e-05, -1.242181629077160e-06, 1.592099513949677e+01, 1.851798559713842e+01, 2.259348945789381e+02, 4.518772518206915e+02
819, 4.999999999979350e-05, 3.299999999998659e-03, 8.216933459275202e-05, -3.459163126109243e-06, 1.400591747822392e+01, -1.257530692010966e+03, 1.601107425868076e+02, 1.311238784065687e+03
820, 9.999999999983644e-05, 3.299999999996922e-03, 8.214675607307007e-05, -5.677841112976185e-06, 1.090629941164104e+01, -2.532193906045417e+03, 7.610193481313857e+01, 2.547650814559355e+03
821, 1.499999999999061e-04, 3.299999999995182e-03, 8.214227773788422e-05, -7.899105379833677e-06, 6.489395567314943e+00, -3.805209373163305e+03, -2.612707598835387e+01, 3.812056925065696e+03
822, 1.999999999999538e-04, 3.299999999993444e-03, 8.215586723329073e-05, -1.012384686522836e-05, 6.210403901690142e-01, -5.076312880446854e+03, -1.466118171032197e+02, 5.085394590019816e+03
823, -2.000000000000206e-04, 3.200000000007042e-03, 7.813325677119153e-05, 7.542852732718848e-06, 1.407893379990372e+01, 5.278007033841361e+03, 3.109990760203999e+02, 5.300549098305592e+03
824, -1.500000000000580e-04, 3.200000000005365e-03, 7.802005521096373e-05, 5.368701844791998e-06, 1.548136034960407e+01, 3.962496991783172e+03, 3.180096798329873e+02, 3.997931092534093e+03
825, -1.000000000001024e-04, 3.200000000003689e-03, 7.792554208005338e-05, 3.196433294451672e-06, 1.625987761232597e+01, 2.647304989929960e+03, 3.067252159320457e+02, 2.701614298045662e+03
826, -5.000000000014997e-05, 3.200000000002012e-03, 7.784971591787078e-05, 1.025149424959964e-06, 1.628714933563850e+01, 1.332685101552171e+03, 2.771077369773749e+02, 1.428306115708663e+03
827, -2.307656561499616e-16, 3.200000000000335e-03, 7.779256944715682e-05, -1.146048618177815e-06, 1.543445121013701e+01, 1.889344840681082e+01, 2.291192112913780e+02, 4.582514774583264e+02
828, 4.999999999978330e-05, 3.199999999998658e-03, 7.775408954641420e-05, -3.318060891887027e-06, 1.357169505985809e+01, -1.293811777277725e+03, 1.627215328552300e+02, 1.347280495205248e+03
829, 9.999999999982882e-05, 3.199999999996980e-03, 7.773425722242444e-05, -5.491788660103192e-06, 1.056743235576232e+01, -2.605170307161676e+03, 7.787654588352379e+01, 2.620370765279370e+03
830, 1.499999999999017e-04, 3.199999999995303e-03, 7.773304758284733e-05, -7.668134397846876e-06, 6.288839113464292e+00, -3.914919806762414e+03, -2.545393025782900e+01, 3.921539092595409e+03
831, 1.999999999999519e-04, 3.199999999993626e-03, 7.775042980871461e-05, -9.848001795222348e-06, 6.016886239591486e-01, -5.222795883807814e+03, -1.473080834112220e+02, 5.231699617279197e+03
832, -2.000000000000225e-04, 3.100000000006703e-03, 7.380288295914296e-05, 7.450069770351710e-06, 1.377765879342269e+01, 5.426701520559193e+03, 3.135892655617131e+02, 5.449137330181300e+03
833, -1.500000000000624e-04, 3.100000000005093e-03, 7.368982651116430e-05, 5.322113462242997e-06, 1.505476350396816e+01, 4.074181980445652e+03, 3.211289152858495e+02, 4.109623934649909e+03
834, -1.000000000001100e-04, 3.100000000003483e-03, 7.359598036952118e-05, 3.196071669758832e-06, 1.575414120324564e+01, 2.721938995055108e+03, 3.101215088411264e+02, 2.776353339220499e+03
835, -5.000000000016015e-05, 3.100000000001875e-03, 7.352134469277380e-05, 1.071034320676914e-06, 1.574845525605326e+01, 1.370226376547427e+03, 2.805264248753450e+02, 1.466080059027873e+03
836, -2.436134518939148e-16, 3.100000000000265e-03, 7.346591382782120e-05, -1.053909922406158e-06, 1.490905810781095e+01, 1.930013349513990e+01, 2.323029378548912e+02, 4.646266256760485e+02
837, 4.999999999977311e-05, 3.099999999998656e-03, 7.342967628158366e-05, -3.179673667209421e-06, 1.310590547773302e+01, -1.330581586433123e+03, 1.654102396362541e+02, 1.383812944520963e+03
838, 9.999999999982122e-05, 3.099999999997047e-03, 7.341261469260756e-05, -5.307170796357990e-06, 1.020754200597872e+01, -2.679158504500382e+03, 7.980746651554537e+01, 2.694098487239799e+03
839, 1.499999999998973e-04, 3.099999999995438e-03, 7.341470580270372e-05, -7.437316471610423e-06, 6.081114070138142e+00, -4.026168194673564e+03, -2.454627376962063e+01, 4.032548148018565e+03
840, 1.999999999999499e-04, 3.099999999993829e-03, 7.343592042877526e-05, -9.571027137608325e-06, 5.924294086601662e-01, -5.371346036144818e+03, -1.476918870132469e+02, 5.380053387435035e+03
841, -2.000000000000244e-04, 3.000000000006373e-03, 6.956591417138170e-05, 7.348088192985248e-06, 1.344110463400045e+01, 5.577476332394931e+03, 3.158462290295500e+02, 5.599778868610205e+03
842, -1.500000000000668e-04, 3.000000000004845e-03, 6.945298851047393e-05, 5.267618975488895e-06, 1.458687037723257e+01, 4.187440232641496e+03, 3.239978460710694e+02, 4.222866751389976e+03
843, -1.000000000001176e-04, 3.000000000003318e-03, 6.935980203408250e-05, 3.189097620319143e-06, 1.520423628407241e+01, 2.797635842313959e+03, 3.133506214624701e+02, 2.852136057434448e+03
844, -5.000000000017031e-05, 3.000000000001789e-03, 6.928635662359864e-05, 1.111601646429342e-06, 1.516611599751832e+01, 1.408316890661067e+03, 2.838611930261529e+02, 1.504386183322145e+03
845, -2.564273663199779e-16, 3.000000000000262e-03, 6.923264835402715e-05, -9.657927621354875e-07, 1.434396854289736e+01, 1.973929286217952e+01, 2.354860595285139e+02, 4.710030217032343e+02
846, 4.999999999976296e-05, 2.999999999998735e-03, 6.919866746466160e-05, -3.044010761568828e-06, 1.260779433569337e+01, -1.367838857943392e+03, 1.681816297895741e+02, 1.420835388841101e+03
847, 9.999999999981362e-05, 2.999999999997206e-03, 6.918439832988936e-05, -5.123978853009736e-06, 9.826142981925045e+00, -2.754157277138148e+03, 8.190424925661523e+01, 2.768833250826748e+03
848, 1.499999999998930e-04, 2.999999999995678e-03, 6.918981943000900e-05, -7.206624886882707e-06, 5.866107260209731e+00, -4.138953485455788e+03, -2.338977242983594e+01, 4.145083567550802e+03
849, 1.999999999999481e-04, 2.999999999994151e-03, 6.921490332199893e-05, -9.292878066598520e-06, 5.933554756505828e-01, -5.521962774938628e+03, -1.477441131345792e+02, 5.530455632715990e+03
850, -2.000000000000263e-04, 2.900000000006043e-03, 6.542497357860036e-05, 7.236815564083899e-06, 1.306923461741678e+01, 5.730331981956428e+03, 3.177501721332474e+02, 5.752473729594361e+03
851, -1.500000000000711e-04, 2.900000000004594e-03, 6.531216140679590e-05, 5.205143574387126e-06, 1.407692425583173e+01, 4.302272305257530e+03, 3.266015837482080e+02, 4.337659968654949e+03
852, -1.000000000001252e-04, 2.900000000003146e-03, 6.521962428910919e-05, 3.175454033938849e-06, 1.460912156352913e+01, 2.874396295775786e+03, 3.164026290890491e+02, 2.928963157256638e+03
853, -5.000000000018052e-05, 2.900000000001698e-03, 6.514736593677728e-05, 1.146812059074247e-06, 1.453896901520579e+01, 1.446957606386892e+03, 2.871070671827326e+02, 1.543225526225781e+03
854, -2.692480570096190e-16, 2.900000000000249e-03, 6.509538425952552e-05, -8.817186409043528e-07, 1.373800293925353e+01, 2.021202270328382e+01, 2.386685508497490e+02, 4.773810025449084e+02
855, 4.999999999975274e-05, 2.899999999998802e-03, 6.506367133576733e-05, -2.911075768585503e-06, 1.207628301861735e+01, -1.405582423904378e+03, 1.710406374477853e+02, 1.458346943614159e+03
856, 9.999999999980604e-05, 2.899999999997354e-03, 6.505221338280557e-05, -4.942198443383141e-06, 9.422391102873064e+00, -2.830165444592265e+03, 8.417680943281115e+01, 2.844574136424107e+03
857, 1.499999999998886e-04, 2.899999999995905e-03, 6.506099072693566e-05, -6.976027206189793e-06, 5.643428210702041e+00, -4.253274479170032e+03, -2.196950157046369e+01, 4.259144559392803e+03
858, 1.999999999999462e-04, 2.899999999994458e-03, 6.508997777343550e-05, -9.013504023756993e-06, 6.049005594136929e-01, -5.674644771086621e+03, -1.474448859052854e+02, 5.682905842351862e+03
859, -2.000000000000283e-04, 2.800000000005697e-03, 6.138272080412983e-05, 7.116165512852146e-06, 1.266005583501271e+01, 5.885267399110653e+03, 3.192809458177796e+02, 5.907222553598616e+03
860, -1.500000000000755e-04, 2.800000000004316e-03, 6.127000166792130e-05, 5.134618509504568e-06, 1.352292383144112e+01, 4.418677646807538e+03, 3.289250658134955e+02, 4.454004370119124e+03
861, -1.000000000001328e-04, 2.800000000002934e-03, 6.117810044184886e-05, 3.155089855488153e-06, 1.396695347745413e+01, 2.952220385224075e+03, 3.192674518188962e+02, 3.006835554587999e+03
862, -5.000000000019071e-05, 2.800000000001552e-03, 6.110702277439165e-05, 1.176632268758212e-06, 1.386517785965941e+01, 1.486148894384724e+03, 2.902589547077171e+02, 1.582599249682914e+03
863, -2.820416426449479e-16, 2.800000000000171e-03, 6.105676851779432e-05, -8.017030123697895e-07, 1.308923231732717e+01, 2.071881737891437e+01, 2.418503220461637e+02, 4.837608124513027e+02
864, 4.999999999974258e-05, 2.799999999998790e-03, 6.102733169782140e-05, -2.780866234697481e-06, 1.150925031365000e+01, -1.443811893592892e+03, 1.739921882952553e+02, 1.496346469990333e+03
865, 9.999999999979847e-05, 2.799999999997408e-03, 6.101870048322803e-05, -4.761809135486469e-06, 8.993843335214478e+00, -2.907182975461808e+03, 8.663509605374549e+01, 2.921319872585351e+03
866, 1.499999999998843e-04, 2.799999999996027e-03, 6.103085715506351e-05, -6.745484947741832e-06, 5.410076326915942e+00, -4.369131857315244e+03, -2.027048002948928e+01, 4.374729785785196e+03
867, 1.999999999999443e-04, 2.799999999994645e-03, 6.106377807568465e-05, -8.732848405048974e-06, 6.235258098809027e-01, -5.829393582697840e+03, -1.467741332411214e+02, 5.837402681865236e+03
868, -2.000000000000301e-04, 2.700000000005420e-03, 5.744185186089485e-05, 6.986058095273315e-06, 1.221416332434876e+01, 6.042282881352296e+03, 3.204180446311892e+02, 6.064025036016944e+03
869, -1.500000000000799e-04, 2.700000000004097e-03, 5.732920199808606e-05, 5.055981453940817e-06, 1.292541943168953e+01, 4.536657248489381e+03, 3.309528472923594e+02, 4.571899912482045e+03
870, -1.000000000001404e-04, 2.700000000002773e-03, 5.723791987598968e-05, 3.127960445692452e-06, 1.327777080146842e+01, 3.031109301579199e+03, 3.219347040641517e+02, 3.085753548629533e+03
871, -5.000000000020087e-05, 2.700000000001450e-03, 5.716801319095545e-05, 1.201035395681745e-06, 1.314446396664158e+01, 1.525892131714398e+03, 2.933115732281893e+02, 1.622508003750569e+03
872, -2.948962146524792e-16, 2.700000000000125e-03, 5.711948384935259e-05, -7.257549245594291e-07, 1.239729616447738e+01, 2.126125183364047e+01, 2.450312191640007e+02, 4.901425947314629e+02
873, 4.999999999973239e-05, 2.699999999998801e-03, 5.709232793649255e-05, -2.653373303535735e-06, 1.090651919349824e+01, -1.482525459889549e+03, 1.770412719955528e+02, 1.534833386432260e+03
874, 9.999999999979085e-05, 2.699999999997478e-03, 5.708653568533801e-05, -4.582784095726663e-06, 8.540830135753083e+00, -2.985207749737071e+03, 8.928925423553906e+01, 2.999069996378595e+03
875, 1.499999999998800e-04, 2.699999999996155e-03, 5.710209144512836e-05, -6.514953227205429e-06, 5.167371716021819e+00, -4.486522975057724e+03, -1.827740048494817e+01, 4.491839091594266e+03
876, 1.999999999999424e-04, 2.699999999994831e-03, 5.713897365005519e-05, -8.450848201684189e-06, 6.517038355739260e-01, -5.986206125332220e+03, -1.457113030356135e+02, 5.993946429690296e+03
877, -2.000000000000321e-04, 2.600000000005380e-03, 5.360509922865302e-05, 6.846420180080470e-06, 1.173334359036585e+01, 6.201379504900061e+03, 3.211400257537511e+02, 6.222880624500226e+03
878, -1.500000000000841e-04, 2.600000000004088e-03, 5.349249138794710e-05, 4.969176878595754e-06, 1.228509461831737e+01, 4.656212151112721e+03, 3.326686381526818e+02, 4.691346522831394e+03
879, -1.000000000001480e-04, 2.600000000002797e-03, 5.340180807924726e-05, 3.094027951273499e-06, 1.254150026631567e+01, 3.111064117228891e+03, 3.243934476794734e+02, 3.165717429496528e+03
880, -5.000000000021105e-05, 2.600000000001504e-03, 5.333305916173385e-05, 1.220001337536045e-06, 1.237623286458165e+01, 1.566188430023062e+03, 2.962593422769341e+02, 1.662952415309564e+03
881, -3.077169053421203e-16, 2.600000000000212e-03, 5.328624871124897e-05, -6.538766531584396e-07, 1.166123562026058e+01, 2.184041968003817e+01, 2.482110216926131e+02, 4.965263950152965e+02
882, 4.999999999972220e-05, 2.599999999998920e-03, 5.326137498822136e-05, -2.528581348376810e-06, 1.026686375959144e+01, -1.521722151311149e+03, 1.801930340285231e+02, 1.573806995901033e+03
883, 9.999999999978321e-05, 2.599999999997628e-03, 5.325843040552041e-05, -4.405089719039069e-06, 8.061878983465590e+00, -3.064239081139734e+03, 9.214980569774248e+01, 3.077823831270150e+03
884, 1.499999999998756e-04, 2.599999999996335e-03, 5.327740149632799e-05, -6.284380385340763e-06, 4.913458648440951e+00, -4.605447713046969e+03, -1.597432705010574e+01, 4.610471868472410e+03
885, 1.999999999999405e-04, 2.599999999995043e-03, 5.331826888222169e-05, -8.167433621723208e-06, 6.871862903662418e-01, -6.145082941825728e+03, -1.442351215861295e+02, 6.152536513409731e+03
886, -2.000000000000340e-04, 2.500000000005436e-03, 4.987523194169700e-05, 6.697185789644103e-06, 1.121568281504028e+01, 6.362555603016144e+03, 3.214248443815643e+02, 6.383789979650256e+03
887, -1.500000000000885e-04, 2.500000000004174e-03, 4.976263517022272e-05, 4.874156399881581e-06, 1.159987480855835e+01, 4.777341354939588e+03, 3.340558882002998e+02, 4.812345083346233e+03
888, -1.000000000001556e-04, 2.500000000002911e-03, 4.967252667775307e-05, 3.053261658441506e-06, 1.175636023089123e+01, 3.192084686680357e+03, 3.266325731800956e+02, 3.246728140061293e+03
889, -5.000000000022121e-05, 2.500000000001650e-03, 4.960491860287527e-05, 1.233517127148774e-06, 1.155888349692924e+01, 1.607038235266447e+03, 2.990966121750207e+02, 1.703933536139594e+03
890, -3.205375960317614e-16, 2.500000000000388e-03, 4.955981730825220e-05, -5.860633414612441e-07, 1.087960143266781e+01, 2.245717087289876e+01, 2.513895515658730e+02, 5.029123846756076e+02
891, 4.999999999971200e-05, 2.499999999999127e-03, 4.953722334733882e-05, -2.406467611265532e-06, 9.589011213788694e+00, -1.561400861605093e+03, 1.834527738296274e+02, 1.613266519023631e+03
892, 9.999999999977564e-05, 2.499999999997865e-03, 4.953713143130294e-05, -4.228685269043328e-06, 7.555961755806720e+00, -3.144275723104373e+03, 9.522752743235401e+01, 3.157580734931742e+03
893, 1.499999999998713e-04, 2.499999999996604e-03, 4.955953039594837e-05, -6.053707630464233e-06, 4.647645214994782e+00, -4.725904775455421e+03, -1.334504492838251e+01, 4.730627713697972e+03
894, 1.999999999999386e-04, 2.499999999995341e-03, 4.960440316857748e-05, -7.882527745702835e-06, 7.296912032316527e-01, -6.306022793508190e+03, -1.423238497746407e+02, 6.313172832757899e+03
895, -2.000000000000358e-04, 2.400000000005491e-03, 4.625505548123840e-05, 6.538296475072783e-06, 1.066179784519750e+01, 6.525811173285735e+03, 3.212501867060679e+02, 6.546753249828343e+03
896, -1.500000000000929e-04, 2.400000000004260e-03, 4.614243495069085e-05, 4.770879153393120e-06, 1.087000765735002e+01, 4.900045508852467e+03, 3.350978728023845e+02, 4.934896089981354e+03
897, -1.000000000001632e-04, 2.400000000003029e-03, 4.605287338926918e-05, 3.005638366672216e-06, 1.092193782650543e+01, 3.274171850351838e+03, 3.286408857284185e+02, 3.328786463365595e+03
898, -5.000000000023145e-05, 2.400000000001797e-03, 4.598638533617238e-05, 1.241577306951235e-06, 1.069161633503023e+01, 1.648442621855223e+03, 3.018177505634355e+02, 1.745452426823226e+03
899, -3.333650629849805e-16, 2.400000000000566e-03, 4.594297956181374e-05, -5.223026250389017e-07, 1.005139295019194e+01, 2.311278971373412e+01, 2.545667730642287e+02, 5.093010581952022e+02
900, 4.999999999970184e-05, 2.399999999999334e-03, 4.592265903402314e-05, -2.287001826421125e-06, 8.871941085804394e+00, -1.601560124126067e+03, 1.868260878320821e+02, 1.653211234247196e+03
901, 9.999999999976805e-05, 2.399999999998102e-03, 4.592542088416349e-05, -4.053522498935629e-06, 7.022246169317782e+00, -3.225316037726847e+03, 9.853367918955382e+01, 3.238340057078522e+03
902, 1.499999999998670e-04, 2.399999999996872e-03, 4.595125637319880e-05, -5.822868655411276e-06, 4.369596311990449e+00, -4.847892299806718e+03, -1.037258976550358e+01, 4.852306242499468e+03
903, 1.999999999999366e-04, 2.399999999995640e-03, 4.600015085762747e-05, -7.596046125499375e-06, 7.794680366527018e-01, -6.469023759511510e+03, -1.399549426155071e+02, 6.475855414309578e+03
904, -2.000000000000378e-04, 2.300000000005451e-03, 4.274741182232479e-05, 6.369701721274968e-06, 1.007251307706406e+01, 6.691146086910464e+03, 3.205930656299629e+02, 6.711770537935207e+03
905, -1.500000000000972e-04, 2.300000000004251e-03, 4.263472863207905e-05, 4.659312192932239e-06, 1.009548251634146e+01, 5.024324776067721e+03, 3.357772338278780e+02, 5.058999981353743e+03
906, -1.000000000001708e-04, 2.300000000003051e-03, 4.254568203273916e-05, 2.951142782933713e-06, 1.003765760469332e+01, 3.357326141544052e+03, 3.304067711900149e+02, 3.411893130287919e+03
907, -5.000000000024163e-05, 2.300000000001851e-03, 4.248028908766243e-05, 1.244184318631870e-06, 9.773326153679477e+00, 1.690402351518390e+03, 3.044168755008191e+02, 1.787510127875381e+03
908, -3.461857536746216e-16, 2.300000000000652e-03, 4.243856109888301e-05, -4.625742460806474e-07, 9.175041282379311e+00, 2.380814915046119e+01, 2.577425492382827e+02, 5.156927521279247e+02
909, 4.999999999969163e-05, 2.299999999999453e-03, 4.242050357262672e-05, -2.170145838575112e-06, 8.113646192648616e+00, -1.642199102463807e+03, 1.903186005227280e+02, 1.693640117379647e+03
910, 9.999999999976044e-05, 2.299999999998253e-03, 4.242611618469856e-05, -3.879545274561732e-06, 6.458262903320929e+00, -3.307359410991268e+03, 1.020796710934537e+02, 3.320100693174582e+03
911, 1.499999999998626e-04, 2.299999999997052e-03, 4.245539274576387e-05, -5.591789264969805e-06, 4.076278537561905e+00, -4.971410147406852e+03, -7.039742325028627e+00, 4.975506346759607e+03
912, 1.999999999999347e-04, 2.299999999995853e-03, 4.250832116648290e-05, -7.307896422978514e-06, 8.333133507180150e-01, -6.634086047239904e+03, -1.371052828472845e+02, 6.640583284311610e+03
913, -2.000000000000396e-04, 2.200000000005174e-03, 3.935517946885665e-05, 6.191359331857073e-06, 9.447696541017876e+00, 6.858559236745845e+03, 3.194297979702895e+02, 6.878842233507925e+03
914, -1.500000000001016e-04, 2.200000000004032e-03, 3.924239044064061e-05, 4.539430885590032e-06, 9.275846623051734e+00, 5.150178774416744e+03, 3.360761997078502e+02, 5.184657342683125e+03
915, -1.000000000001784e-04, 2.200000000002889e-03, 3.915382254759665e-05, 2.889767918223345e-06, 9.102786090554901e+00, 3.441547813792826e+03, 3.319182725648235e+02, 3.496048887937312e+03
916, -5.000000000025179e-05, 2.200000000001748e-03, 3.908949550299577e-05, 1.241348900198479e-06, 8.803013552288235e+00, 1.732918164170361e+03, 3.068878776024445e+02, 1.830107573414227e+03
917, -3.590132206278407e-16, 2.200000000000606e-03, 3.904942326695220e-05, -4.068496567682123e-07, 8.249331739117110e+00, 2.454434178833657e+01, 2.609166255134912e+02, 5.220876068533840e+02
918, 4.999999999968146e-05, 2.199999999999464e-03, 3.903361401109476e-05, -2.055853207340627e-06, 7.312784125414282e+00, -1.683316461038041e+03, 1.939359159622064e+02, 1.734552334927475e+03
919, 9.999999999975283e-05, 2.199999999998322e-03, 3.904207008309136e-05, -3.706689180254667e-06, 5.862646326884260e+00, -3.390404363005000e+03, 1.058769607883040e+02, 3.402861931077900e+03
920, 1.499999999998582e-04, 2.199999999997180e-03, 3.907478797110263e-05, -5.360386985707531e-06, 3.766421976270522e+00, -5.096456780915461e+03, -3.329189077128177e+00, 5.100227549170217e+03
921, 1.999999999999328e-04, 2.199999999996038e-03, 3.913175826826025e-05, -7.017978022320700e-06, 8.899425979608964e-01, -6.801208336647591e+03, -1.337516255496956e+02, 6.807356240851807e+03
922, -2.000000000000416e-04, 2.100000000004828e-03, 3.608127343724500e-05, 6.003235848696798e-06, 8.788877200135630e+00, 7.028050497767743e+03, 3.177362429924669e+02, 7.047968429158665e+03
923, -1.500000000001059e-04, 2.100000000003754e-03, 3.596833091777500e-05, 4.411219322840306e-06, 8.411903402493067e+00, 5.277607918644086e+03, 3.359765058691823e+02, 5.311868550427630e+03
924, -1.000000000001860e-04, 2.100000000002678e-03, 3.588020098767606e-05, 2.821515499459909e-06, 8.117408193917868e+00, 3.526837635112590e+03, 3.331631255994162e+02, 3.581254348459947e+03
925, -5.000000000026199e-05, 2.100000000001603e-03, 3.581690613981068e-05, 1.233090498505059e-06, 7.780275143777089e+00, 1.775991188838745e+03, 3.092245086486525e+02, 1.873245585155880e+03
926, -3.718339113174818e-16, 2.100000000000528e-03, 3.577846312269920e-05, -3.550916049732583e-07, 7.273583937290255e+00, 2.532284107104749e+01, 2.640887971372387e+02, 5.284859002628688e+02
927, 4.999999999967128e-05, 2.099999999999452e-03, 3.576488290430295e-05, -1.944068789771841e-06, 6.468613991551592e+00, -1.724910403617507e+03, 1.976838952184586e+02, 1.775947350664394e+03
928, 9.999999999974523e-05, 2.099999999998377e-03, 3.577617063572058e-05, -3.534881096569004e-06, 5.234839141017687e+00, -3.474448782317086e+03, 1.099375006633016e+02, 3.486623455673433e+03
929, 1.499999999998539e-04, 2.099999999997302e-03, 3.581232561483751e-05, -5.128570635567873e-06, 3.439931925352084e+00, -5.223029752995018e+03, 7.771315595263104e-01, 5.226469916026062e+03
930, 1.999999999999309e-04, 2.099999999996226e-03, 3.587334125007215e-05, -6.726181593903803e-06, 9.497029229156055e-01, -6.970388039990748e+03, -1.298698191871112e+02, 6.976174783182783e+03
931, -2.000000000000435e-04, 2.000000000004496e-03, 3.292864530799674e-05, 5.805306965739203e-06, 8.096493148857917e+00, 7.199618643738851e+03, 3.154875301408020e+02, 7.219149559963687e+03
932, -1.500000000001103e-04, 2.000000000003499e-03, 3.281549694914629e-05, 4.274670738869766e-06, 7.503427086174383e+00, 5.406611646298063e+03, 3.354594217956544e+02, 5.440634306535155e+03
933, -1.000000000001936e-04, 2.000000000002501e-03, 3.272775953319700e-05, 2.746396385918066e-06, 7.080829719472490e+00, 3.613195686406507e+03, 3.341287432526963e+02, 3.667510385518963e+03
934, -5.000000000027220e-05, 2.000000000001505e-03, 3.266545846501512e-05, 1.219437685411406e-06, 6.703977111594213e+00, 1.819621994576642e+03, 3.114203662862722e+02, 1.916925224467794e+03
935, -3.846512138753339e-16, 2.000000000000507e-03, 3.262861341456435e-05, -3.072537187067447e-07, 6.246260985728668e+00, 2.614455595361244e+01, 2.672588735442279e+02, 5.348879921022226e+02
936, 4.999999999966107e-05, 1.999999999999510e-03, 3.261723827981902e-05, -1.834728325720175e-06, 5.579225024426933e+00, -1.766979840470954e+03, 2.015685923401224e+02, 1.817824312287019e+03
937, 9.999999999973761e-05, 1.999999999998513e-03, 3.263134114958636e-05, -3.364038786788128e-06, 4.572560713687722e+00, -3.559491581232296e+03, 1.142736201399493e+02, 3.571384472294284e+03
938, 1.499999999998495e-04, 1.999999999997515e-03, 3.267092426619601e-05, -4.896239913129660e-06, 3.094096378302140e+00, -5.351128214497026e+03, 5.297859680611737e+00, 5.354232795045796e+03
939, 1.999999999999290e-04, 1.999999999996517e-03, 3.273598398806610e-05, -6.432388683105263e-06, 1.009790753953837e+00, -7.141624427744948e+03, -1.254349720767970e+02, 7.147038499137320e+03
940, -2.000000000000454e-04, 1.900000000004165e-03, 2.990028321068578e-05, 5.597557958764719e-06, 7.371882027350125e+00, 7.373262886365355e+03, 3.126582406245358e+02, 7.392386014644343e+03
941, -1.500000000001146e-04, 1.900000000003247e-03, 2.978687175630992e-05, 4.129787934527986e-06, 6.550801134172389e+00, 5.537189684351881e+03, 3.345057739036950e+02, 5.570955295787183e+03
942, -1.000000000002012e-04, 1.900000000002328e-03, 2.969947648545012e-05, 2.664430993906606e-06, 5.992719274931915e+00, 3.700622230259165e+03, 3.348022308272717e+02, 3.754817886196782e+03
943, -5.000000000028235e-05, 1.900000000001409e-03, 2.963812585054727e-05, 1.200428581148088e-06, 5.573193679424662e+00, 1.863811308891276e+03, 3.134688502269761e+02, 1.961147565349580e+03
944, -3.974685164331859e-16, 1.900000000000491e-03, 2.960284257910435e-05, -2.632800845740592e-07, 5.165940477317122e+00, 2.701058215567150e+01, 2.704265797818892e+02, 5.412941239106310e+02
945, 4.999999999965091e-05, 1.899999999999572e-03, 2.959364363586686e-05, -1.727758019029203e-06, 4.642792284904885e+00, -1.809523411519578e+03, 2.055960813560884e+02, 1.860182251743706e+03
946, 9.999999999973007e-05, 1.899999999998654e-03, 2.961054018473194e-05, -3.194070482165119e-06, 3.873677426841482e+00, -3.645531246302708e+03, 1.188977608551576e+02, 3.657144105376074e+03
947, 1.499999999998452e-04, 1.899999999997735e-03, 2.965353755043805e-05, -4.663284986954690e-06, 2.726597014700474e+00, -5.480750597484580e+03, 1.025179463090691e+01, 5.483515527448274e+03
948, 1.999999999999271e-04, 1.899999999996817e-03, 2.972263517990518e-05, -6.136471308129552e-06, 1.067651231027014e+00, -7.314916184988477e+03, -1.204218165074776e+02, 7.319947072717732e+03
949, -2.000000000000473e-04, 1.800000000003828e-03, 2.699921184235641e-05, 5.379984124361820e-06, 6.616072535342369e+00, 7.548981782464948e+03, 3.092222730342776e+02, 7.567678254186279e+03
950, -1.500000000001189e-04, 1.800000000002982e-03, 2.688547490770651e-05, 3.976583720975969e-06, 5.554552383822738e+00, 5.669341560873148e+03, 3.330959041546694e+02, 5.702832173840550e+03
951, -1.000000000002088e-04, 1.800000000002135e-03, 2.679836627214229e-05, 2.575649737944848e-06, 4.852938993299063e+00, 3.789117485581563e+03, 3.351703378993800e+02, 3.843177693028937e+03
952, -5.000000000029254e-05, 1.800000000001289e-03, 2.673791757413136e-05, 1.176111294557051e-06, 4.387205980047042e+00, 1.908559927194636e+03, 3.153631603821897e+02, 2.005913618260453e+03
953, -4.102858189910380e-16, 1.800000000000442e-03, 2.670415473813089e-05, -2.231048081863346e-07, 4.031458328834674e+00, 2.792221911880665e+01, 2.735915961278639e+02, 5.477044954519657e+02
954, 4.999999999964072e-05, 1.799999999999596e-03, 2.669709793587256e-05, -1.623074097904859e-06, 3.657870222193196e+00, -1.852539367559299e+03, 2.097725566643234e+02, 1.903020306687658e+03
955, 9.999999999972246e-05, 1.799999999998750e-03, 2.671676154745200e-05, -3.024874440952969e-06, 3.136670887176479e+00, -3.732565605735355e+03, 1.238226661272678e+02, 3.743901669401886e+03
956, 1.499999999998409e-04, 1.799999999997903e-03, 2.676315412217563e-05, -4.429586052211027e-06, 2.336137894806711e+00, -5.611894285077919e+03, 1.565828930495252e+01, 5.614317765350332e+03
957, 1.999999999999252e-04, 1.799999999997057e-03, 2.683627833923586e-05, -5.838291504338680e-06, 1.122497732923080e+00, -7.490260260322406e+03, -1.148044532273089e+02, 7.494900658288403e+03
958, -2.000000000000492e-04, 1.700000000003484e-03, 2.422849247842300e-05, 5.152591236965560e-06, 5.830809854677454e+00, 7.726774073356370e+03, 3.051530140070784e+02, 7.745026683365434e+03
959, -1.500000000001233e-04, 1.700000000002704e-03, 2.411436232448912e-05, 3.815081371052877e-06, 4.515455619404747e+00, 5.803066745187958e+03, 3.312096252219876e+02, 5.836265614339009e+03
960, -1.000000000002164e-04, 1.700000000001925e-03, 2.402747944677284e-05, 2.480093482071107e-06, 3.661383302826380e+00, 3.878681514166879e+03, 3.352194545678294e+02, 3.932590665895024e+03
961, -5.000000000030273e-05, 1.700000000001145e-03, 2.396787881172040e-05, 1.146544373459193e-06, 3.145144386203356e+00, 1.953868415750439e+03, 3.170962857236817e+02, 2.051224390241352e+03
962, -4.231031215488901e-16, 1.700000000000365e-03, 2.393558968327436e-05, -1.866515646116396e-07, 2.841254805972881e+00, 2.888041712822599e+01, 2.767535373523109e+02, 5.541192287969371e+02
963, 4.999999999963053e-05, 1.699999999999585e-03, 2.393063558327509e-05, -1.520582366499358e-06, 2.622254615147313e+00, -1.896026514254916e+03, 2.141042865519785e+02, 1.946337516879211e+03
964, 9.999999999971485e-05, 1.699999999998805e-03, 2.395303425176330e-05, -2.856338501858175e-06, 2.358692244059966e+00, -3.820593399885273e+03, 1.290612942955420e+02, 3.831656295840874e+03
965, 1.499999999998365e-04, 1.699999999998025e-03, 2.400279760713985e-05, -4.195012886256990e-06, 1.919100129339427e+00, -5.744558240984730e+03, 2.153702738200508e+01, 5.746638774634373e+03
966, 1.999999999999232e-04, 1.699999999997246e-03, 2.407993170599284e-05, -5.537700891634856e-06, 1.170055829052785e+00, -7.667655927767052e+03, -1.085563259708833e+02, 7.671898713507104e+03
967, -2.000000000000511e-04, 1.600000000003144e-03, 2.159122299257357e-05, 4.915396006505295e-06, 5.017689897075797e+00, 7.906637993202845e+03, 3.004231301542620e+02, 7.924431818505393e+03
968, -1.500000000001277e-04, 1.600000000002436e-03, 2.147662629095819e-05, 3.645315079774222e-06, 3.434067089886298e+00, 5.938364226159410e+03, 3.288263468169328e+02, 5.971256405353640e+03
969, -1.000000000002240e-04, 1.600000000001727e-03, 2.138990269268442e-05, 2.377814000405638e-06, 2.417974988692094e+00, 3.969314181599991e+03, 3.349357018117637e+02, 4.023057694269331e+03
970, -5.000000000031292e-05, 1.600000000001018e-03, 2.133109063750240e-05, 1.111797266218744e-06, 1.846370304658649e+00, 1.999737371818881e+03, 3.186610884020645e+02, 2.097080830816461e+03
971, -4.359339766338982e-16, 1.600000000000309e-03, 2.130022287469753e-05, -1.538331362194001e-07, 1.594236950588311e+00, 2.988640693524798e+01, 2.799120262460519e+02, 5.605385059307903e+02
972, 4.999999999962034e-05, 1.599999999999600e-03, 2.129732642256066e-05, -1.420177742687903e-06, 1.534550347860886e+00, -1.939983030416627e+03, 2.185976780193997e+02, 1.990133235680335e+03
973, 9.999999999970728e-05, 1.599999999998891e-03, 2.132242252811124e-05, -2.688339622494389e-06, 1.538253846904468e+00, -3.909612201375099e+03, 1.346268678839365e+02, 3.920407562691440e+03
974, 1.499999999998322e-04, 1.599999999998182e-03, 2.137552662686030e-05, -3.959424389734345e-06, 1.474234390871970e+00, -5.878739317192171e+03, 2.790809383788832e+01, 5.880478454941190e+03
975, 1.999999999999214e-04, 1.599999999997473e-03, 2.145664830255253e-05, -5.234540214777336e-06, 1.209281892983881e+00, -7.847099541758138e+03, -1.016504458196087e+02, 7.850941513216193e+03
976, -2.000000000000531e-04, 1.500000000002802e-03, 1.909053783296969e-05, 4.668426557036758e-06, 4.178957735991958e+00, 8.088571800837570e+03, 2.950046984707919e+02, 8.105894073454906e+03
977, -1.500000000001320e-04, 1.500000000002160e-03, 1.897539543399924e-05, 3.467330438852977e-06, 2.311766457202339e+00, 6.075233312629538e+03, 3.259250411857217e+02, 6.107805222488014e+03
978, -1.000000000002316e-04, 1.500000000001518e-03, 1.888875880126762e-05, 2.268874451740682e-06, 1.123114097343205e+00, 4.061015508599773e+03, 3.343049524844942e+02, 4.114579621293202e+03
979, -5.000000000032311e-05, 1.500000000000877e-03, 1.883066999764821e-05, 1.071950796812797e-06, 4.904301151993877e-01, 2.046167387819981e+03, 3.200503554001547e+02, 2.143483878001268e+03
980, -4.487512791917503e-16, 1.500000000000236e-03, 1.880116540754605e-05, -1.245509364040425e-07, 2.891926854620124e-01, 3.094122012178076e+01, 2.830667735593122e+02, 5.669627324252208e+02
981, 4.999999999961016e-05, 1.499999999999595e-03, 1.880027569522880e-05, -1.321743780799682e-06, 3.928775429953930e-01, -1.984407522071559e+03, 2.232593784220333e+02, 2.034406947128245e+03
982, 9.999999999969963e-05, 1.499999999998952e-03, 1.882802576385952e-05, -2.520743402008925e-06, 6.728978580805460e-01, -3.999620279842436e+03, 1.405330075093916e+02, 4.010155060886778e+03
983, 1.499999999998278e-04, 1.499999999998311e-03, 1.888443471572234e-05, -3.722668109348005e-06, 9.985403229107987e-01, -6.014435509602728e+03, 3.479215813133933e+01, 6.015836499280423e+03
984, 1.999999999999195e-04, 1.499999999997670e-03, 1.896951581267051e-05, -4.928638867902272e-06, 1.236899530980168e+00, -8.028588713309202e+03, -9.405904910806723e+01, 8.032028871430969e+03
985, -2.000000000000549e-04, 1.400000000002461e-03, 1.672960804508137e-05, 4.411722912025931e-06, 3.317025916655780e+00, 8.272573509834605e+03, 2.888690996666124e+02, 8.289413985547342e+03
986, -1.500000000001364e-04, 1.400000000001890e-03, 1.661383473280845e-05, 3.281184921762390e-06, 1.149938963470618e+00, 6.213673073114614e+03, 3.224841177935040e+02, 6.245912881019024e+03
987, -1.000000000002392e-04, 1.400000000001320e-03, 1.652720667112550e-05, 2.153349862277388e-06, -2.227747660570003e-01, 4.153785414667500e+03, 3.333127299435102e+02, 4.207157418216085e+03
988, -5.000000000033329e-05, 1.400000000000748e-03, 1.646976970051754e-05, 1.027097647617708e-06, -9.231016916514818e-01, 2.093159032514732e+03, 3.212567322171657e+02, 2.190434554325184e+03
989, -4.615719698813914e-16, 1.400000000000178e-03, 1.644156399527659e-05, -9.869452577729720e-08, -1.075032678753360e+00, 3.204593416466537e+01, 2.862175184420377e+02, 5.733924222529589e+02
990, 4.999999999959998e-05, 1.399999999999606e-03, 1.644262401841307e-05, -1.225152187725857e-06, -8.045608820963253e-01, -2.029298470684525e+03, 2.280961835371565e+02, 2.079158247436304e+03
991, 9.999999999969204e-05, 1.399999999999035e-03, 1.647297848009864e-05, -2.353403600166941e-06, -2.397505590633955e-01, -4.090615661046365e+03, 1.467935634656938e+02, 4.100898497914164e+03
992, 1.499999999998235e-04, 1.399999999998463e-03, 1.653265029913736e-05, -3.484579764273990e-06, 4.891700491349411e-01, -6.151644291411325e+03, 4.221017566374542e+01, 6.152712647551462e+03
993, 1.999999999999176e-04, 1.399999999997893e-03, 1.662165656715401e-05, -4.619814432759773e-06, 1.249774013949605e+00, -8.212120258689774e+03, -8.575388307842110e+01, 8.215160510176760e+03
994, -2.000000000000568e-04, 1.300000000002126e-03, 1.451164128467214e-05, 4.145337484758978e-06, 2.434268445162729e+00, 8.458640679598191e+03, 2.819870687556389e+02, 8.474992253436410e+03
995, -1.500000000001407e-04, 1.300000000001629e-03, 1.439514552516719e-05, 3.086948371801582e-06, -5.051797052226448e-02, 6.353681786156680e+03, 3.184814981058530e+02, 6.385580322183142e+03
996, -1.000000000002468e-04, 1.300000000001133e-03, 1.430844130750550e-05, 2.031327613775979e-06, -1.619900299731171e+00, 4.247622983211459e+03, 3.319441977849156e+02, 4.300792122951629e+03
997, -5.000000000034346e-05, 1.300000000000637e-03, 1.425157840944379e-05, 9.773428485594548e-07, -2.395109655959573e+00, 2.140712413754617e+03, 3.222726529631107e+02, 2.237933982111747e+03
998, -4.743892724392434e-16, 1.300000000000140e-03, 1.422460095349134e-05, -7.614112085287830e-08, -2.499628221626494e+00, 3.320185893981920e+01, 2.893639672956017e+02, 5.798280938879549e+02
999, 4.999999999958981e-05, 1.299999999999644e-03, 1.422754735830309e-05, -1.130262329190327e-06, -2.059198153813782e+00, -2.074653513121199e+03, 2.331150701694818e+02, 2.124386438055848e+03
1000, 9.999999999968445e-05, 1.299999999999148e-03, 1.426045029384887e-05, -2.186161642313742e-06, -1.201599846146223e+00, -4.182595348150247e+03, 1.534227696261207e+02, 4.192637339827476e+03
1001, 1.499999999998191e-04, 1.299999999998652e-03, 1.432333664700956e-05, -3.244982752606593e-06, -5.646503641753498e-02, -6.290362332515400e+03, 5.018367013478769e+01, 6.291106540938034e+03
1002, 1.999999999999157e-04, 1.299999999998155e-03, 1.441622749041244e-05, -4.307872187341548e-06, 1.244569374674711e+00, -8.397690535218017e+03, -7.670607392595127e+01, 8.400336075316747e+03
1003, -2.000000000000587e-04, 1.200000000001781e-03, 1.243988179406745e-05, 3.869335588065899e-06, 1.534103023919783e+00, 8.646771008557711e+03, 2.743289847913672e+02, 8.662629319114960e+03
1004, -1.500000000001450e-04, 1.200000000001350e-03, 1.232256549307010e-05, 2.884703518580157e-06, -1.289365700848293e+00, 6.495255354118222e+03, 3.138947494908729e+02, 6.526807255591419e+03
1005, -1.000000000002543e-04, 1.200000000000919e-03, 1.223569382551312e-05, 1.902907961509240e-06, -3.070288071195364e+00, 4.342523621721781e+03, 3.301838299108385e+02, 4.395483121906870e+03
1006, -5.000000000035367e-05, 1.200000000000488e-03, 1.217932065669693e-05, 9.228042844724603e-07, -3.927989416563491e+00, 2.188825344360262e+03, 3.230895353956643e+02, 2.285982190288919e+03
1007, -4.872353741173022e-16, 1.200000000000057e-03, 1.215349420847052e-05, -5.675510622176814e-08, -3.986051631914620e+00, 3.441112906720377e+01, 2.925049182334424e+02, 5.862685837128339e+02
1008, 4.999999999957962e-05, 1.199999999999626e-03, 1.215825700927755e-05, -1.036920757381700e-06, -3.371522930080118e+00, -2.120466638210138e+03, 2.383227150809208e+02, 2.170088153333142e+03
1009, 9.999999999967686e-05, 1.199999999999196e-03, 1.219364585699082e-05, -2.018846147841651e-06, -2.213422680680878e+00, -4.275552113289777e+03, 1.604354321749024e+02, 4.285368324455349e+03
1010, 1.499999999998148e-04, 1.199999999998765e-03, 1.225969177404639e-05, -3.003687667963534e-06, -6.412688156825652e-01, -6.430584418469507e+03, 5.873534539640815e+01, 6.431016114967797e+03
1011, 1.999999999999137e-04, 1.199999999998334e-03, 1.235641997720939e-05, -3.992604615144590e-06, 1.215650599170317e+00, -8.585297234615875e+03, -6.688543657962356e+01, 8.587554842588766e+03
1012, -2.000000000000607e-04, 1.100000000001707e-03, 1.051761035207531e-05, 3.583795965690412e-06, 6.232898875049386e-01, 8.836964361305374e+03, 2.658661612796463e+02, 8.852325276066202e+03
1013, -1.500000000001494e-04, 1.100000000001301e-03, 1.039936864762186e-05, 2.674546587643768e-06, -2.568424116955839e+00, 6.638381297251372e+03, 3.087018571418363e+02, 6.669587734497039e+03
1014, -1.000000000002619e-04, 1.100000000000895e-03, 1.031223150988167e-05, 1.768204674625172e-06, -4.580369953706054e+00, 4.438470309121134e+03, 3.280142527672251e+02, 4.491221742121086e+03
1015, -5.000000000036384e-05, 1.100000000000489e-03, 1.025625697661348e-05, 8.636132753421229e-07, -5.527984419967538e+00, 2.237487477554931e+03, 3.236947795094304e+02, 2.334573109539537e+03
1016, -5.000628410705213e-16, 1.100000000000083e-03, 1.023149743348902e-05, -4.038757350488336e-08, -5.536448484410926e+00, 3.567822454148040e+01, 2.956347034541344e+02, 5.927041089939288e+02
1017, 4.999999999956943e-05, 1.099999999999677e-03, 1.023799966131419e-05, -9.449608549939422e-07, -4.739430723727310e+00, -2.166719671704122e+03, 2.437233475275920e+02, 2.216249724852745e+03
1018, 9.999999999966927e-05, 1.099999999999272e-03, 1.027580479918967e-05, -1.851272596799543e-06, -3.272639147799055e+00, -4.369464205414331e+03, 1.678471684663606e+02, 4.379077469192077e+03
1019, 1.499999999998105e-04, 1.099999999998866e-03, 1.034494828157879e-05, -2.760491890836870e-06, -1.267126630991243e+00, -6.572297455592298e+03, 6.789128195986461e+01, 6.572433072218688e+03
1020, 1.999999999999118e-04, 1.099999999998460e-03, 1.044545969989551e-05, -3.673790885902735e-06, 1.152307999805998e+00, -8.774943305446239e+03, -5.625843045387307e+01, 8.776816863780137e+03
1021, -2.000000000000626e-04, 1.000000000002109e-03, 8.748144197132347e-06, 3.288811307939018e-06, -2.845913495906416e-01, 9.029227506286574e+03, 2.565746611801774e+02, 9.044081542555701e+03
1022, -1.500000000001537e-04, 1.000000000001674e-03, 8.628865327651974e-06, 2.456588172530405e-06, -3.889585955199095e+00, 6.783030267371130e+03, 3.028835774639014e+02, 6.813900127053846e+03
1023, -1.000000000002696e-04, 1.000000000001239e-03, 8.541358038105020e-06, 1.627346037952292e-06, -6.161284895536028e+00, 4.535418585984090e+03, 3.254137620487658e+02, 4.587976045022677e+03
1024, -5.000000000037402e-05, 1.000000000000804e-03, 8.485684309972382e-06, 7.999153867945032e-07, -7.205416842831710e+00, 2.286671365475134e+03, 3.240641566160233e+02, 2.383682236136025e+03
1025, -5.128852258260569e-16, 1.000000000000369e-03, 8.461900509095166e-06, -2.687593204961240e-08, -7.155012383447001e+00, 3.701242817336163e+01, 2.987342809348642e+02, 5.990988609804066e+02
1026, 4.999999999955924e-05, 9.999999999999337e-04, 8.470057678635643e-06, -8.542028318167265e-07, -6.160543530513905e+00, -2.213369201097650e+03, 2.493127793873574e+02, 2.262829535316948e+03
1027, 9.999999999966167e-05, 9.999999999994987e-04, 8.510201728280215e-06, -1.683243423936758e-06, -4.375030904973300e+00, -4.464278373451132e+03, 1.756746980809910e+02, 4.473721518270644e+03
1028, 1.499999999998061e-04, 9.999999999990637e-04, 8.582373085628584e-06, -2.515179427582514e-06, -1.938574288016753e+00, -6.715473316368123e+03, 7.768622791059087e+01, 6.715332406749832e+03
1029, 1.999999999999099e-04, 9.999999999986283e-04, 8.686606269517843e-06, -3.351196232413185e-06, 1.033466356829763e+00, -8.966646665267850e+03, -4.478245396352531e+01, 8.968127386242237e+03
1030, -2.000000000000644e-04, 9.000000000025380e-04, 7.134837279136807e-06, 2.984488653438773e-06, -1.168674064081301e+00, 9.223582622630762e+03, 2.464400789810252e+02, 9.237909251339606e+03
1031, -1.500000000001581e-04, 9.000000000020734e-04, 7.014402543648900e-06, 2.230954554335669e-06, -5.242983440995431e+00, 6.929160409188200e+03, 2.964260617637340e+02, 6.959699997275625e+03
1032, -1.000000000002772e-04, 9.000000000016087e-04, 6.926414018992081e-06, 1.480476541658516e-06, -7.799415450773495e+00, 4.633315704599293e+03, 3.223520351449947e+02, 4.685679555390640e+03
1033, -5.000000000038420e-05, 9.000000000011442e-04, 6.870936817262724e-06, 7.318716581001310e-07, -8.954704368243483e+00, 2.336347840220028e+03, 3.241528550277066e+02, 2.433257963994503e+03
1034, -5.256991402521199e-16, 9.000000000006796e-04, 6.848030296484251e-06, -1.604364894070317e-08, -8.849896363062953e+00, 3.843115408973313e+01, 3.017599905882839e+02, 6.053691976069518e+02
1035, 4.999999999954906e-05, 9.000000000002148e-04, 6.857749728545969e-06, -7.644543688339272e-07, -7.655809388765192e+00, -2.260356432862658e+03, 2.550714716189052e+02, 2.309741526997123e+03
1036, 9.999999999965402e-05, 8.999999999997502e-04, 6.900146444698750e-06, -1.514548938760305e-06, -5.547705140515063e+00, -4.559926893133779e+03, 1.839351624073142e+02, 4.569212006889744e+03
1037, 1.499999999998018e-04, 8.999999999992857e-04, 6.975267379452027e-06, -2.267521201965691e-06, -2.677361618225291e+00, -6.860075832995291e+03, 8.817042212336838e+01, 6.859665435616677e+03
1038, 1.999999999999080e-04, 8.999999999988212e-04, 7.083153147470322e-06, -3.024571058905184e-06, 8.249127280553239e-01, -9.160457254169973e+03, -3.239808884592392e+01, 9.161511310158783e+03
1039, -2.000000000000664e-04, 8.000000000027327e-04, 5.681082815492861e-06, 2.670949314490652e-06, -2.076131014926432e+00, 9.420011971922999e+03, 2.354406174466378e+02, 9.433847219289646e+03
1040, -1.500000000001624e-04, 8.000000000022627e-04, 5.559365881979233e-06, 1.997788935860042e-06, -6.534446106707605e+00, 7.076857766664007e+03, 2.893010900556299e+02, 7.106984291721089e+03
1041, -1.000000000002848e-04, 8.000000000017928e-04, 5.470778115411880e-06, 1.327758250861368e-06, -9.322825804725767e+00, 4.732336931786527e+03, 3.187912760139899e+02, 4.784333680609125e+03
1042, -5.000000000039436e-05, 8.000000000013229e-04, 5.415385688511043e-06, 6.596595337129152e-07, -1.063703750668003e+01, 2.386682260531295e+03, 3.239185736492195e+02, 2.483310851698810e+03
1043, -5.385198309417610e-16, 8.000000000008525e-04, 5.393250192069656e-06, -7.700135191115660e-09, -1.063208445585781e+01, 3.996294309016503e+01, 3.046812444932031e+02, 6.114593198211069e+02
1044, 4.999999999953886e-05, 8.000000000003829e-04, 5.404430447409669e-06, -6.755112195001601e-07, -9.387136268825429e+00, -2.307799937251377e+03, 2.609875429535272e+02, 2.356938563906182e+03
1045, 9.999999999964645e-05, 7.999999999999128e-04, 5.448984821618249e-06, -1.344968091393371e-06, -6.985445047125836e+00, -4.656564278317624e+03, 1.926480706185706e+02, 4.665515667452987e+03
1046, 1.499999999997974e-04, 7.999999999994429e-04, 5.526968274344160e-06, -2.017275251468595e-06, -3.598439504689281e+00, -7.006205671057001e+03, 9.939240995146039e+01, 7.005428141378125e+03
1047, 1.999999999999061e-04, 7.999999999989728e-04, 5.638430046310478e-06, -2.693649329173817e-06, 5.544603706223370e-01, -9.356411270227587e+03, -1.904236137486095e+01, 9.357043236498173e+03
1048, -2.000000000000683e-04, 7.000000000024487e-04, 4.390324201043794e-06, 2.348328819728181e-06, -3.369283661552686e+00, 9.618227944693539e+03, 2.234061535693754e+02, 9.631966282255198e+03
1049, -1.500000000001667e-04, 7.000000000020254e-04, 4.267187837040887e-06, 1.757247140454134e-06, -7.504794641189960e+00, 7.226826977632853e+03, 2.813417522361191e+02, 7.256181428102447e+03
1050, -1.000000000002923e-04, 7.000000000016023e-04, 4.177866899890719e-06, 1.169363700402619e-06, -9.961423493023858e+00, 4.833974914777618e+03, 3.147062877779131e+02, 4.884657556010106e+03
1051, -5.000000000040459e-05, 7.000000000011791e-04, 4.122431782737615e-06, 5.834671529481659e-07, -1.160720906676067e+01, 2.438894005221185e+03, 3.235445266335436e+02, 2.534498065512143e+03
1052, -5.513337453678241e-16, 7.000000000007558e-04, 4.100948322901714e-06, -1.640611110665685e-09, -1.250335676275608e+01, 4.164426060019446e+01, 3.077727772884224e+02, 6.179225632920358e+02
1053, 4.999999999952868e-05, 7.000000000003326e-04, 4.113483333880745e-06, -5.871511475181450e-07, -1.201186063010164e+01, -2.356863360156864e+03, 2.672705334707107e+02, 2.405007839296949e+03
1054, 9.999999999963887e-05, 6.999999999999092e-04, 4.160099121532611e-06, -1.174260702293804e-06, -9.490499425971393e+00, -4.755671037434837e+03, 2.018423789421209e+02, 4.763317235196725e+03
1055, 1.499999999997930e-04, 6.999999999994860e-04, 4.240857737566971e-06, -1.764181292782580e-06, -4.995868957380935e+00, -7.154600715678985e+03, 1.112658856116784e+02, 7.153067164054092e+03
1056, 1.999999999999042e-04, 6.999999999990628e-04, 4.355814554189086e-06, -2.358146623893097e-06, 5.629553083085739e-01, -9.554303611370127e+03, -4.789370579468681e+00, 9.554871368014930e+03
1057, -2.000000000000702e-04, 6.000000000020976e-04, 3.266087506058932e-06, 2.016778964563698e-06, -6.782042781454606e+00, 9.816454347885447e+03, 2.094665119286286e+02, 9.832165481998392e+03
1058, -1.500000000001711e-04, 6.000000000017323e-04, 3.141367534497141e-06, 1.509469580988483e-06, -7.367007467359485e+00, 7.382189326171453e+03, 2.717215806440073e+02, 7.409512350861708e+03
1059, -1.000000000003000e-04, 6.000000000013669e-04, 3.051129014172696e-06, 1.005426640952435e-06, -7.593479444792820e+00, 4.944104068111685e+03, 3.102183205551961e+02, 4.990415837193248e+03
1060, -5.000000000041474e-05, 6.000000000010013e-04, 2.995464367279573e-06, 5.034556095514486e-07, -1.010297598777481e+01, 2.497570944359464e+03, 3.242603343669741e+02, 2.590175196500194e+03
1061, -5.641662945187267e-16, 6.000000000006360e-04, 2.974486915195333e-06, 2.354575192880563e-09, -1.441725890171483e+01, 4.349583600653887e+01, 3.128025448082074e+02, 6.282799174856815e+02
1062, 4.999999999951849e-05, 6.000000000002706e-04, 2.988281036490103e-06, -4.990946966432648e-07, -1.723992900070311e+01, -2.412121678741089e+03, 2.751436553782756e+02, 2.457290117104459e+03
1063, 9.999999999963128e-05, 5.999999999999052e-04, 3.036904887061304e-06, -1.002116658654655e-06, -1.519634263987018e+01, -4.863154026980268e+03, 2.116444773816704e+02, 4.866401879045725e+03
1064, 1.499999999997888e-04, 5.999999999995398e-04, 3.120385594362482e-06, -1.507930903204751e-06, -7.715075908027984e+00, -7.308458027652739e+03, 1.230070103010975e+02, 7.304886757902750e+03
1065, 1.999999999999023e-04, 5.999999999991742e-04, 3.238767932064897e-06, -2.017759885476412e-06, 2.564144946379770e+00, -9.752457040252295e+03, 9.582148856336232e+00, 9.755040009860633e+03
1066, -2.000000000000721e-04, 5.000000000017480e-04, 2.312034687794421e-06, 1.676493522485965e-06, -1.518648292513228e+01, 1.001119227305314e+04, 1.905667528619718e+02, 1.003362016958574e+04
1067, -1.500000000001754e-04, 5.000000000014432e-04, 2.185509366501634e-06, 1.254473635304014e-06, -4.790220080629524e+00, 7.552150358165515e+03, 2.579470341126233e+02, 7.574529529467370e+03
1068, -1.000000000003076e-04, 5.000000000011384e-04, 2.093994173463895e-06, 8.358651049460089e-07, -2.530566229130500e-01, 5.076472534289051e+03, 3.059945616424311e+02, 5.113479579742097e+03
1069, -5.000000000042491e-05, 5.000000000008338e-04, 2.037748226261918e-06, 4.196263187075421e-07, -4.628568113550614e+00, 2.572727829711264e+03, 3.305883344046185e+02, 2.660812016807310e+03
1070, -5.769852911424733e-16, 5.000000000005289e-04, 2.017044800872071e-06, 4.522490472724938e-09, -1.626730766372987e+01, 4.538875688757753e+01, 3.257661622272625e+02, 6.544431526917150e+02
1071, 4.999999999950832e-05, 5.000000000002242e-04, 2.032076977638450e-06, -4.108676882901722e-07, -2.631720041142944e+01, -2.483744570769466e+03, 2.890451333665562e+02, 2.524507404836907e+03
1072, 9.999999999962365e-05, 4.999999999999196e-04, 2.082807854458498e-06, -8.279742346568331e-07, -2.592402544935101e+01, -4.992862222421002e+03, 2.225976464403179e+02, 4.986850098142020e+03
1073, 1.499999999997844e-04, 4.999999999996149e-04, 2.169117702577032e-06, -1.248056035643854e-06, -1.309176460384549e+01, -7.477103452627298e+03, 1.320253781801783e+02, 7.468680826015072e+03
1074, 1.999999999999003e-04, 4.999999999993100e-04, 2.290897564562519e-06, -1.672189488651511e-06, 9.418596077559414e+00, -9.947465812819970e+03, 2.103133160539949e+01, 9.956973254949675e+03
1075, -2.000000000000740e-04, 4.000000000013997e-04, 1.531952707660482e-06, 1.327742777146637e-06, -3.297624084373274e+01, 1.019587337515881e+04, 1.591447451889507e+02, 1.023380049964237e+04
1076, -1.500000000001797e-04, 4.000000000011572e-04, 1.403194760317555e-06, 9.918742176440607e-07, 5.484155079417746e+00, 7.761139288602503e+03, 2.351160136498914e+02, 7.769897342284609e+03
1077, -1.000000000003152e-04, 4.000000000009148e-04, 1.309718951558387e-06, 6.600041721863079e-07, 6.391959298970164e+00, 5.247733574107171e+03, 3.059023525142371e+02, 5.276927791832593e+03
1078, -5.000000000043512e-05, 4.000000000006724e-04, 1.252175962673477e-06, 3.315597146805947e-07, -1.706431154574818e+01, 2.653266928623972e+03, 3.522839431947885e+02, 2.761717733360496e+03
1079, -5.898025937003254e-16, 4.000000000004300e-04, 1.231417401108766e-06, 5.125006274717645e-09, -1.795919186801314e+01, 4.673438112309691e+01, 3.587991445777800e+02, 7.205085446997439e+02
1080, 4.999999999949812e-05, 4.000000000001875e-04, 1.247767562128870e-06, -3.215268197444319e-07, -1.705433615205288e+01, -2.561511747110907e+03, 3.185885285798080e+02, 2.623024612609273e+03
1081, 9.999999999961606e-05, 3.999999999999452e-04, 1.301065794475096e-06, -6.506324506621540e-07, -3.524816196250003e+01, -5.161502478324110e+03, 2.382530844134895e+02, 5.148353275072157e+03
1082, 1.499999999997800e-04, 3.999999999997027e-04, 1.390627850319140e-06, -9.836391201126605e-07, -2.593775875242386e+01, -7.684925336763320e+03, 1.330262430613346e+02, 7.663607156261160e+03
1083, 1.999999999998984e-04, 3.999999999994603e-04, 1.515967296342236e-06, -1.321166487918399e-06, 2.554903948176786e+01, -1.013286155376457e+04, 2.172689864096293e+01, 1.015850353218808e+04
1084, -2.000000000000760e-04, 3.000000000010516e-04, 9.289182625909917e-07, 9.709772034799794e-07, -9.208572657585592e+00, 1.042379685796874e+04, 1.075223261387509e+02, 1.043522144077219e+04
1085, -1.500000000001842e-04, 3.000000000008717e-04, 7.973867936050069e-07, 7.203342442210053e-07, 5.594269968161598e+00, 8.010321109483231e+03, 2.113894023501526e+02, 8.015883837291853e+03
1086, -1.000000000003227e-04, 3.000000000006917e-04, 7.006968432083441e-07, 4.763183805935125e-07, -1.117812272347390e+02, 5.315627349737135e+03, 3.225800434792837e+02, 5.465619397579038e+03
1087, -5.000000000044532e-05, 3.000000000005118e-04, 6.414248798872404e-07, 2.388110701801712e-07, -8.479775969403772e+01, 2.677286337621600e+03, 3.956692193647442e+02, 2.873208152093191e+03
1088, -6.026207432911247e-16, 3.000000000003319e-04, 6.204483655898527e-07, 4.467702061630906e-09, -1.951150713658626e+01, 4.622247110274282e+01, 4.107573446889035e+02, 8.241403647187069e+02
1089, 4.999999999948792e-05, 3.000000000001520e-04, 6.380600736696188e-07, -2.300215998898547e-07, 4.790310217487615e+01, -2.586233300914003e+03, 3.699475016654038e+02, 2.736077339190527e+03
1090, 9.999999999960845e-05, 2.999999999999720e-04, 6.941289444482905e-07, -4.679727218184412e-07, 8.129877465943764e+01, -5.228729351431610e+03, 2.708773095821325e+02, 5.337592787695949e+03
1091, 1.499999999997756e-04, 2.999999999997920e-04, 7.879401011957733e-07, -7.127514738152390e-07, -2.593478228195170e+01, -7.931878438234878e+03, 1.332782405466221e+02, 7.910435983478732e+03
1092, 1.999999999998966e-04, 2.999999999996122e-04, 9.171004771685182e-07, -9.645370636800733e-07, 9.734349830785050e-01, -1.036131659798502e+04, 2.841140347693369e+00, 1.036229159093991e+04
1093, -2.000000000000778e-04, 2.000000000007014e-04, 5.012450086184431e-07, 6.057167021172548e-07, 1.306855357914081e+02, 1.073877351441941e+04, 8.675591546466032e+01, 1.060950691209466e+04
1094, -1.500000000001885e-04, 2.000000000005817e-04, 3.656712772685977e-07, 4.384153488158897e-07, -5.221280625369390e+02, 7.542779638464783e+03, 2.426811729589814e+02, 8.079499540968603e+03
1095, -1.000000000003304e-04, 2.000000000004620e-04, 2.687421319780746e-07, 2.869868255012269e-07, -3.745290840690865e+02, 4.996998225783677e+03, 3.533628556689682e+02, 5.417819383438339e+03
1096, -5.000000000045550e-05, 2.000000000003424e-04, 2.104183988154372e-07, 1.431656253690559e-07, -1.934989450723115e+02, 2.512109466240894e+03, 3.841417390291614e+02, 2.812574688435164e+03
1097, -6.154388928819240e-16, 2.000000000002227e-04, 1.902114319590065e-07, 2.943923015253958e-09, -2.069129956320069e+01, 4.144261362609143e+01, 3.860426328902260e+02, 7.745813584146507e+02
1098, 4.999999999947777e-05, 2.000000000001030e-04, 2.079557925167652e-07, -1.373602923632603e-07, 1.543444044540537e+02, -2.430318953229368e+03, 3.660413566211090e+02, 2.686341335642108e+03
1099, 9.999999999960084e-05, 1.999999999999833e-04, 2.639574761387544e-07, -2.814327396733191e-07, 3.422584816455749e+02, -4.918312310822199e+03, 3.168764144080639e+02, 5.298608091810289e+03
1100, 1.499999999997714e-04, 1.999999999998636e-04, 3.588521330358654e-07, -4.332834966668664e-07, 5.024048176873576e+02, -7.467642122499723e+03, 1.873558711800484e+02, 7.978850613882177e+03
1101, 1.999999999998946e-04, 1.999999999997439e-04, 4.928222356544680e-07, -6.011580979842819e-07, -1.340234199581938e+02, -1.067204953462250e+04, 1.213330313707689e+01, 1.053805405478293e+04
1102, -2.000000000000798e-04, 1.000000000003506e-04, 2.202304921070027e-07, 2.336617751207962e-07, -3.354396350344250e+03, 5.982997573903527e+03, 5.777734934350469e+02, 9.408624455011681e+03
1103, -1.500000000001928e-04, 1.000000000002906e-04, 1.021039733338155e-07, 1.679435384504031e-07, -1.547972721336210e+03, 5.050858089554985e+03, 4.668237838908632e+02, 6.664552937113763e+03
1104, -1.000000000003380e-04, 1.000000000002307e-04, 2.322269202623313e-08, 1.090533884652907e-07, -6.251787395161472e+02, 3.625097398448801e+03, 1.668815884624673e+02, 4.263360776104370e+03
1105, -5.000000000046567e-05, 1.000000000001708e-04, -2.248768238824396e-08, 5.428381053985216e-08, -2.179915815147953e+02, 1.885913594238017e+03, -2.038126956541063e+01, 2.104300019758557e+03
1106, -6.282434899455673e-16, 1.000000000001108e-04, -3.792945302881002e-08, 1.133016342972680e-09, -1.710292357907758e+01, 2.879378927575135e+01, -8.907349326010507e+01, 1.839642820145002e+02
1107, 4.999999999946757e-05, 1.000000000000509e-04, -2.399538323355521e-08, -5.205569711396984e-08, 1.841986719533076e+02, -1.830169080562807e+03, -3.357792060637394e+01, 2.015486876510441e+03
1108, 9.999999999959325e-05, 9.999999999999091e-05, 2.028748827894883e-08, -1.069436295917909e-07, 5.934259855861033e+02, -3.574401940650402e+03, 1.401144686032767e+02, 4.177238068384994e+03
1109, 1.499999999997670e-04, 9.999999999993101e-05, 9.791359986519405e-08, -1.660462749974730e-07, 1.523157171744198e+03, -5.006201201891042e+03, 4.258755549137232e+02, 6.584679242336176e+03
1110, 1.999999999998927e-04, 9.999999999987105e-05, 2.150832053237161e-07, -2.320515718849806e-07, 3.344388564548828e+03, -5.939240817975485e+03, 5.214281102075922e+02, 9.342019246850617e+03
