"PointID","x","y","Displacement_x","Displacement_y","Sxx","Syy","Sxy","Von_Mises_Stress"
0, -2.500000000000000e-04, 0.000000000000000e+00, 0.000000000000000e+00, 0.000000000000000e+00, 6.268675536940493e+04, 7.660008002262276e+04, 7.932399480063066e+03, 2.110147978107363e+04
1, 2.500000000000000e-04, 0.000000000000000e+00, 0.000000000000000e+00, 0.000000000000000e+00, -6.379151843245024e+04, -7.798013672485118e+04, 7.741721053583229e+03, 2.100128254496449e+04
2, 2.500000000000000e-04, 1.000000000000000e-02, 1.196724649279519e-03, -1.223507886706760e-04, 2.848648284837225e+01, 2.576461877025754e+01, 3.307702591870119e+00, 7.153469773808266e+00
3, -2.500000000000000e-04, 1.000000000000000e-02, 1.203165485485454e-03, -4.238115421106940e-05, 2.099724977036231e+01, 5.855118326292464e+01, 5.048359329488919e+00, 3.888755132998664e+01
4, -2.000000000000817e-04, 0.000000000000000e+00, 0.000000000000000e+00, 0.000000000000000e+00, 4.240869674953810e+04, 5.182478145936122e+04, 4.531578511733785e+03, 1.306918002380389e+04
5, -1.500000000001972e-04, 0.000000000000000e+00, 0.000000000000000e+00, 0.000000000000000e+00, 3.056619444097250e+04, 3.736517920576345e+04, 2.134706457731707e+03, 8.028329868321651e+03
6, -1.000000000003456e-04, 0.000000000000000e+00, 0.000000000000000e+00, 0.000000000000000e+00, 1.993890092911880e+04, 2.437437909476842e+04, 5.275605706383745e+02, 4.559248532458369e+03
7, -5.000000000047588e-05, 0.000000000000000e+00, 0.000000000000000e+00, 0.000000000000000e+00, 1.002130896217743e+04, 1.224800330750579e+04, -4.110567575257256e+02, 2.373612929512217e+03
8, -6.410887445906788e-16, 0.000000000000000e+00, 0.000000000000000e+00, 0.000000000000000e+00, 3.568323497125344e+02, 4.335357306453878e+02, -7.384450089644573e+02, 1.478880500143470e+03
9, 4.999999999945738e-05, 0.000000000000000e+00, 0.000000000000000e+00, 0.000000000000000e+00, -9.359319796517160e+03, -1.143970058993493e+04, -4.711809369102567e+02, 2.283862987758251e+03
10, 9.999999999958566e-05, 0.000000000000000e+00, 0.000000000000000e+00, 0.000000000000000e+00, -1.943458579136216e+04, -2.374891074982664e+04, 4.121977670902785e+02, 4.392382934581913e+03
11, 1.499999999997626e-04, 0.000000000000000e+00, 0.000000000000000e+00, 0.000000000000000e+00, -3.033720746661998e+04, -3.707162830215520e+04, 1.974652943679452e+03, 7.807012295495536e+03
12, 1.999999999998909e-04, 0.000000000000000e+00, 0.000000000000000e+00, 0.000000000000000e+00, -4.255975769935371e+04, -5.202345379865577e+04, 4.345388635531112e+03, 1.284878023141328e+04
13, 2.500000000000000e-04, 9.999999999981111e-05, 9.761476380780135e-07, -8.850764517289260e-07, 3.388283762629258e+03, -2.608967097145216e+04, 1.904313186045517e+03, 2.972297848713584e+04
14, 2.500000000000000e-04, 1.999999999996242e-04, 1.675102257094690e-06, -1.996383166880513e-06, -6.863924827295625e+03, -3.791524544008121e+04, -4.119156078559241e+02, 3.106224733772469e+04
15, 2.500000000000000e-04, 2.999999999994322e-04, 2.754676620701311e-06, -3.121915621677342e-06, -7.310527252294651e+03, -3.849121594801854e+04, -3.657259006239681e+02, 3.118926689226908e+04
16, 2.500000000000000e-04, 3.999999999992179e-04, 4.269601201363631e-06, -4.256525357564532e-06, -7.968219183806266e+03, -3.883911082170394e+04, -4.458446698603464e+02, 3.088376693988919e+04
17, 2.500000000000000e-04, 4.999999999990053e-04, 6.228679617122396e-06, -5.382666750509045e-06, -7.987648253609652e+03, -3.829830105922910e+04, -5.458354069709255e+02, 3.033030528479425e+04
18, 2.500000000000000e-04, 5.999999999988090e-04, 8.624551036634325e-06, -6.496892503601627e-06, -7.872572611386324e+03, -3.754722206727824e+04, -6.573930668337916e+02, 2.970376210023489e+04
19, 2.500000000000000e-04, 6.999999999986395e-04, 1.144792499646150e-05, -7.599436098868571e-06, -7.711515893186185e+03, -3.673639512614567e+04, -7.651427306610725e+02, 2.906519203585307e+04
20, 2.500000000000000e-04, 7.999999999985029e-04, 1.468945401970159e-05, -8.691848530760074e-06, -7.545680087116692e+03, -3.592491406822293e+04, -8.659874978779668e+02, 2.843203578255167e+04
21, 2.500000000000000e-04, 8.999999999983563e-04, 1.834007446764942e-05, -9.775838692610863e-06, -7.382259367722506e+03, -3.512307881823296e+04, -9.592061789911701e+02, 2.780707409565196e+04
22, 2.500000000000000e-04, 9.999999999981935e-04, 2.239091733090366e-05, -1.085302620643908e-05, -7.222239180707746e+03, -3.433172878862148e+04, -1.045034811871056e+03, 2.718993964380341e+04
23, 2.500000000000000e-04, 1.099999999998054e-03, 2.683324139938448e-05, -1.192490209832908e-05, -7.065029874396741e+03, -3.354993777111350e+04, -1.123802288501533e+03, 2.658010670844147e+04
24, 2.500000000000000e-04, 1.199999999997903e-03, 3.165840313272022e-05, -1.299284310268349e-05, -6.910207010414013e+03, -3.277720785841046e+04, -1.195819997016725e+03, 2.597733001544441e+04
25, 2.500000000000000e-04, 1.299999999997659e-03, 3.685784897242050e-05, -1.405812490997259e-05, -6.757548627172690e+03, -3.201340265509177e+04, -1.261369104756306e+03, 2.538153602036904e+04
26, 2.500000000000000e-04, 1.399999999997322e-03, 4.242311496577628e-05, -1.512193019667202e-05, -6.606943030108752e+03, -3.125854655194172e+04, -1.320715066481196e+03, 2.479271484418294e+04
27, 2.500000000000000e-04, 1.499999999997028e-03, 4.834582795467533e-05, -1.618535350712210e-05, -6.458315853541643e+03, -3.051270352037457e+04, -1.374114465764467e+03, 2.421087210916568e+04
28, 2.500000000000000e-04, 1.599999999996764e-03, 5.461770670675922e-05, -1.724940500778477e-05, -6.311605474444739e+03, -2.977593850073572e+04, -1.421817565557317e+03, 2.363601457791898e+04
29, 2.500000000000000e-04, 1.699999999996466e-03, 6.123056280506249e-05, -1.831501393001629e-05, -6.166756744792343e+03, -2.904830882576615e+04, -1.464069082635545e+03, 2.306814727604351e+04
30, 2.500000000000000e-04, 1.799999999996210e-03, 6.817630140273126e-05, -1.938303189136869e-05, -6.023717081123593e+03, -2.832986149151208e+04, -1.501108299636633e+03, 2.250727400122142e+04
31, 2.500000000000000e-04, 1.899999999995898e-03, 7.544692175121174e-05, -2.045423616276809e-05, -5.882443322517942e+03, -2.762064056426723e+04, -1.533168677057389e+03, 2.195339709681479e+04
32, 2.500000000000000e-04, 1.999999999995521e-03, 8.303451790707631e-05, -2.152933291593337e-05, -5.742891519187558e+03, -2.692067912385960e+04, -1.560478461119908e+03, 2.140651909907534e+04
33, 2.500000000000000e-04, 2.099999999995151e-03, 9.093127908967715e-05, -2.260896032465969e-05, -5.605026434421323e+03, -2.623000804679165e+04, -1.583260055678768e+03, 2.086664122771669e+04
34, 2.500000000000000e-04, 2.199999999994897e-03, 9.912949023172257e-05, -2.369369167444327e-05, -5.468815243463903e+03, -2.554865172738132e+04, -1.601730325257048e+03, 2.033376485947089e+04
35, 2.500000000000000e-04, 2.299999999994653e-03, 1.076215323759437e-04, -2.478403835026547e-05, -5.334227571547950e+03, -2.487662811564985e+04, -1.616100858576275e+03, 1.980789102773130e+04
36, 2.500000000000000e-04, 2.399999999994409e-03, 1.163998829335652e-04, -2.588045274914970e-05, -5.201242895851859e+03, -2.421395592577998e+04, -1.626577374143818e+03, 1.928901948194114e+04
37, 2.500000000000000e-04, 2.499999999994080e-03, 1.254571162107545e-04, -2.698333116779004e-05, -5.069841055253381e+03, -2.356064777203114e+04, -1.633359798953429e+03, 1.877715074148850e+04
38, 2.500000000000000e-04, 2.599999999993751e-03, 1.347859037301493e-04, -2.809301660884972e-05, -4.940001789869977e+03, -2.291670920879476e+04, -1.636643306472061e+03, 1.827228543111409e+04
39, 2.500000000000000e-04, 2.699999999993507e-03, 1.443790143505267e-04, -2.920980144402949e-05, -4.811712195653119e+03, -2.228214566489971e+04, -1.636617475564851e+03, 1.777442299059715e+04
40, 2.500000000000000e-04, 2.799999999993264e-03, 1.542293145822524e-04, -3.033393008760520e-05, -4.684963715870054e+03, -2.165696087983965e+04, -1.633466176688292e+03, 1.728356255912914e+04
41, 2.500000000000000e-04, 2.899999999993009e-03, 1.643297689528322e-04, -3.146560157324274e-05, -4.559744664451135e+03, -2.104115069211640e+04, -1.627368253714094e+03, 1.679970399684312e+04
42, 2.500000000000000e-04, 2.999999999992623e-03, 1.746734399863025e-04, -3.260497203965123e-05, -4.436055699545841e+03, -2.043471668045816e+04, -1.618496952161032e+03, 1.632284542347885e+04
43, 2.500000000000000e-04, 3.099999999992220e-03, 1.852534887152011e-04, -3.375215721442776e-05, -4.313887429815662e+03, -1.983764790381484e+04, -1.607020654162403e+03, 1.585298712500951e+04
44, 2.500000000000000e-04, 3.199999999991949e-03, 1.960631745321541e-04, -3.490723474679923e-05, -4.193239792003623e+03, -1.924993671222970e+04, -1.593102998585891e+03, 1.539012770590156e+04
45, 2.500000000000000e-04, 3.299999999991705e-03, 2.070958554122465e-04, -3.607024650703543e-05, -4.074114303487887e+03, -1.867157320444032e+04, -1.576902187715116e+03, 1.493426557964864e+04
46, 2.500000000000000e-04, 3.399999999991461e-03, 2.183449880792062e-04, -3.724120083187940e-05, -3.956514419167673e+03, -1.810254628339066e+04, -1.558571151768541e+03, 1.448539932636006e+04
47, 2.500000000000000e-04, 3.499999999991149e-03, 2.298041281861272e-04, -3.842007472396713e-05, -3.840439164214829e+03, -1.754283764210521e+04, -1.538258660287864e+03, 1.404352814896225e+04
48, 2.500000000000000e-04, 3.599999999990803e-03, 2.414669301566894e-04, -3.960681588646568e-05, -3.725896033467089e+03, -1.699243287325763e+04, -1.516108597455951e+03, 1.360864948621423e+04
49, 2.500000000000000e-04, 3.699999999990560e-03, 2.533271473298766e-04, -4.080134479056722e-05, -3.612900287306092e+03, -1.645132211129415e+04, -1.492259097548392e+03, 1.318075960586174e+04
50, 2.500000000000000e-04, 3.799999999990315e-03, 2.653786324420370e-04, -4.200355669795227e-05, -3.501451198867509e+03, -1.591947997388815e+04, -1.466844112950326e+03, 1.275985757224698e+04
51, 2.500000000000000e-04, 3.899999999990071e-03, 2.776153372247278e-04, -4.321332352098216e-05, -3.391557417675183e+03, -1.539688640541633e+04, -1.439993657498412e+03, 1.234594067045685e+04
52, 2.500000000000000e-04, 3.999999999989709e-03, 2.900313124813984e-04, -4.443049567634143e-05, -3.283229504615543e+03, -1.488352130198599e+04, -1.411832812664386e+03, 1.193900571018389e+04
53, 2.500000000000000e-04, 4.099999999989249e-03, 3.026207081787138e-04, -4.565490388505202e-05, -3.176476979864141e+03, -1.437936222148327e+04, -1.382482321721604e+03, 1.153904966695173e+04
54, 2.500000000000000e-04, 4.199999999988788e-03, 3.153777733735111e-04, -4.688636089932492e-05, -3.071311001688445e+03, -1.388438728471848e+04, -1.352058756737414e+03, 1.114606972117562e+04
55, 2.500000000000000e-04, 4.299999999988333e-03, 3.282968562123704e-04, -4.812466321309840e-05, -2.967745604704209e+03, -1.339857677369846e+04, -1.320674209361365e+03, 1.076006321287896e+04
56, 2.500000000000000e-04, 4.399999999988144e-03, 3.413724040873596e-04, -4.936959271922930e-05, -2.865786993718379e+03, -1.292190310704584e+04, -1.288437376835979e+03, 1.038102859936510e+04
57, 2.500000000000000e-04, 4.499999999988117e-03, 3.545989633077167e-04, -5.062091819745521e-05, -2.765454113591052e+03, -1.245434840594036e+04, -1.255452204250715e+03, 1.000896166227800e+04
58, 2.500000000000000e-04, 4.599999999988090e-03, 3.679711794498868e-04, -5.187839688516858e-05, -2.666759495778057e+03, -1.199588886134997e+04, -1.221818102891723e+03, 9.643858803704661e+03
59, 2.500000000000000e-04, 4.699999999988035e-03, 3.814837973384368e-04, -5.314177588847496e-05, -2.569709201869304e+03, -1.154649503276757e+04, -1.187631436970417e+03, 9.285717935309987e+03
60, 2.500000000000000e-04, 4.799999999987717e-03, 3.951316605567449e-04, -5.441079359416928e-05, -2.474325463449090e+03, -1.110615064857153e+04, -1.152985082591894e+03, 8.934534371148378e+03
61, 2.500000000000000e-04, 4.899999999987257e-03, 4.089097119136435e-04, -5.568518104189121e-05, -2.380614107511441e+03, -1.067482574564613e+04, -1.117967561610817e+03, 8.590305732244051e+03
62, 2.500000000000000e-04, 4.999999999986965e-03, 4.228129931368782e-04, -5.696466319183116e-05, -2.288589726107696e+03, -1.025249741216388e+04, -1.082663752297475e+03, 8.253027858560774e+03
63, 2.500000000000000e-04, 5.099999999987202e-03, 4.368366449294810e-04, -5.824896017262862e-05, -2.198265030517951e+03, -9.839140748463529e+03, -1.047155035322671e+03, 7.922696284037200e+03
64, 2.500000000000000e-04, 5.199999999987608e-03, 4.509759068561426e-04, -5.953778844541557e-05, -2.109653752932260e+03, -9.434731716209120e+03, -1.011519174346656e+03, 7.599305976756565e+03
65, 2.500000000000000e-04, 5.299999999988015e-03, 4.652261173623778e-04, -6.083086196894769e-05, -2.022765068035068e+03, -9.039242761386331e+03, -9.758308051627743e+02, 7.282852618480919e+03
66, 2.500000000000000e-04, 5.399999999988211e-03, 4.795827135601111e-04, -6.212789327257370e-05, -1.937611094507467e+03, -8.652648913276977e+03, -9.401614625494205e+02, 6.973331141581981e+03
67, 2.500000000000000e-04, 5.499999999988184e-03, 4.940412311566959e-04, -6.342859450794724e-05, -1.854206178494577e+03, -8.274927583065675e+03, -9.045790260405106e+02, 6.670735807429871e+03
68, 2.500000000000000e-04, 5.599999999988157e-03, 5.085973045395256e-04, -6.473267847144465e-05, -1.772560129113685e+03, -7.906052834370230e+03, -8.691479445095230e+02, 6.375061204664295e+03
69, 2.500000000000000e-04, 5.699999999988293e-03, 5.232466666659070e-04, -6.603985954549450e-05, -1.692682672958513e+03, -7.545998238828344e+03, -8.339297625026525e+02, 6.086300888783349e+03
70, 2.500000000000000e-04, 5.799999999988694e-03, 5.379851489130576e-04, -6.734985456021020e-05, -1.614585091135913e+03, -7.194738599586195e+03, -7.989831753044178e+02, 5.804447401393875e+03
71, 2.500000000000000e-04, 5.899999999989099e-03, 5.528086809094086e-04, -6.866238366223269e-05, -1.538276860464368e+03, -6.852248632938972e+03, -7.643645026922051e+02, 5.529494404605225e+03
72, 2.500000000000000e-04, 5.999999999989505e-03, 5.677132903569137e-04, -6.997717119416732e-05, -1.463769580998950e+03, -6.518507018209772e+03, -7.301270887190411e+02, 5.261436383903732e+03
73, 2.500000000000000e-04, 6.099999999989911e-03, 5.826951031475323e-04, -7.129394655434738e-05, -1.391069737599846e+03, -6.193489024417524e+03, -6.963212535570673e+02, 5.000268408697632e+03
74, 2.500000000000000e-04, 6.199999999990317e-03, 5.977503432613347e-04, -7.261244490025947e-05, -1.320190493602194e+03, -5.877175216271487e+03, -6.629935631716278e+02, 4.745982682424091e+03
75, 2.500000000000000e-04, 6.299999999990723e-03, 6.128753329297561e-04, -7.393240784794495e-05, -1.251127263456731e+03, -5.569530200923902e+03, -6.301896859938840e+02, 4.498573117295903e+03
76, 2.500000000000000e-04, 6.399999999990975e-03, 6.280664917251016e-04, -7.525358398269622e-05, -1.183902902559726e+03, -5.270540568667426e+03, -5.979518214843654e+02, 4.258026883113361e+03
77, 2.500000000000000e-04, 6.499999999990961e-03, 6.433203373283923e-04, -7.657572956237670e-05, -1.118519560046831e+03, -4.980175903852758e+03, -5.663179013277445e+02, 4.024332687429507e+03
78, 2.500000000000000e-04, 6.599999999990934e-03, 6.586334852520261e-04, -7.789860902182408e-05, -1.054969740680651e+03, -4.698398158159382e+03, -5.353251764217287e+02, 3.797481114019580e+03
79, 2.500000000000000e-04, 6.699999999991035e-03, 6.740026478537146e-04, -7.922199549673055e-05, -9.932758613317671e+02, -4.425193567794275e+03, -5.050093717522556e+02, 3.577456779076626e+03
80, 2.500000000000000e-04, 6.799999999991401e-03, 6.894246349253737e-04, -8.054567134824616e-05, -9.334339066493681e+02, -4.160528107475562e+03, -4.754027030817781e+02, 3.364248489840770e+03
81, 2.500000000000000e-04, 6.899999999991809e-03, 7.048963532143930e-04, -8.186942869491450e-05, -8.754530693988551e+02, -3.904381157015753e+03, -4.465344188149367e+02, 3.157843775220701e+03
82, 2.500000000000000e-04, 6.999999999992214e-03, 7.204148067233328e-04, -8.319306995020337e-05, -8.193169932620679e+02, -3.656711625273055e+03, -4.184338152455495e+02, 2.958235238909940e+03
83, 2.500000000000000e-04, 7.099999999992620e-03, 7.359770953884974e-04, -8.451640810915556e-05, -7.650430952243005e+02, -3.417505365788749e+03, -3.911291447601444e+02, 2.765408492120308e+03
84, 2.500000000000000e-04, 7.199999999993026e-03, 7.515804156135513e-04, -8.583926717441238e-05, -7.126537722101774e+02, -3.186753130233848e+03, -3.646419763526958e+02, 2.579345404758103e+03
85, 2.500000000000000e-04, 7.299999999993359e-03, 7.672220612578505e-04, -8.716148261197342e-05, -6.621090440420774e+02, -2.964394444754529e+03, -3.389945631620657e+02, 2.400039025046770e+03
86, 2.500000000000000e-04, 7.399999999993427e-03, 7.828994213306902e-04, -8.848290145588639e-05, -6.134395841859439e+02, -2.750424259700592e+03, -3.142079273060310e+02, 2.227467169165969e+03
87, 2.500000000000000e-04, 7.499999999993399e-03, 7.986099813153860e-04, -8.980338261204049e-05, -5.666348585897326e+02, -2.544799435184156e+03, -2.902990816226480e+02, 2.061608430147880e+03
88, 2.500000000000000e-04, 7.599999999993372e-03, 8.143513224184715e-04, -9.112279685088683e-05, -5.217026421390992e+02, -2.347489638700886e+03, -2.672802667225872e+02, 1.902433473404864e+03
89, 2.500000000000000e-04, 7.699999999993440e-03, 8.301211220445582e-04, -9.244102707566318e-05, -4.786119192680289e+02, -2.158432986195196e+03, -2.451639247436959e+02, 1.749920060138536e+03
90, 2.500000000000000e-04, 7.799999999993771e-03, 8.459171517521004e-04, -9.375796838215394e-05, -4.373525738440086e+02, -1.977587652271981e+03, -2.239661253109452e+02, 1.604047193185791e+03
91, 2.500000000000000e-04, 7.899999999994177e-03, 8.617372764070765e-04, -9.507352842363551e-05, -3.979594111078328e+02, -1.804949513547834e+03, -2.036997032244944e+02, 1.464785112137311e+03
92, 2.500000000000000e-04, 7.999999999994584e-03, 8.775794558542018e-04, -9.638762762598625e-05, -3.604089724716305e+02, -1.640467333117011e+03, -1.843731395719236e+02, 1.332112316976527e+03
93, 2.500000000000000e-04, 8.099999999994990e-03, 8.934417436106425e-04, -9.770019930743356e-05, -3.246926046553374e+02, -1.484102760071273e+03, -1.659945192572275e+02, 1.206005236379742e+03
94, 2.500000000000000e-04, 8.199999999995398e-03, 9.093222867904282e-04, -9.901118978707477e-05, -2.908089765482685e+02, -1.335819284966434e+03, -1.485695974533567e+02, 1.086433728236582e+03
95, 2.500000000000000e-04, 8.299999999995804e-03, 9.252193257845016e-04, -1.003205582131596e-04, -2.587538037506411e+02, -1.195571788835995e+03, -1.321015575142993e+02, 9.733607877710077e+02
96, 2.500000000000000e-04, 8.399999999996209e-03, 9.411311939761578e-04, -1.016282764491191e-04, -2.285150437903566e+02, -1.063303460484308e+03, -1.165902451199537e+02, 8.667438154812057e+02
97, 2.500000000000000e-04, 8.499999999996616e-03, 9.570563174165597e-04, -1.029343288900038e-04, -2.000594833869426e+02, -9.389358015953280e+02, -1.020343902068040e+02, 7.665391580008659e+02
98, 2.500000000000000e-04, 8.599999999997021e-03, 9.729932131199320e-04, -1.042387122337717e-04, -1.733692524463846e+02, -8.224009570045228e+02, -8.843395508676369e+01, 6.726993467893316e+02
99, 2.500000000000000e-04, 8.699999999997429e-03, 9.889404880082057e-04, -1.055414354289612e-04, -1.484536067413581e+02, -7.136494679190679e+02, -7.578728232297559e+01, 5.851676769439872e+02
100, 2.500000000000000e-04, 8.799999999997834e-03, 1.004896839174706e-03, -1.068425195012388e-04, -1.252954279487026e+02, -6.126105189814126e+02, -6.408791340401233e+01, 5.038899091330756e+02
101, 2.500000000000000e-04, 8.899999999997930e-03, 1.020861053139273e-03, -1.081419976350966e-04, -1.038548606489623e+02, -5.191989877364159e+02, -5.333060939410057e+01, 4.288208944296247e+02
102, 2.500000000000000e-04, 8.999999999997496e-03, 1.036832004133795e-03, -1.094399151733878e-04, -8.410373640751708e+01, -4.333357325405724e+02, -4.351253666980276e+01, 3.599115870777740e+02
103, 2.500000000000000e-04, 9.099999999997034e-03, 1.052808653199405e-03, -1.107363291912966e-04, -6.604041349393822e+01, -3.549524205376953e+02, -3.462372042112142e+01, 2.970948600653533e+02
104, 2.500000000000000e-04, 9.199999999996832e-03, 1.068790048898345e-03, -1.120313080024498e-04, -4.962585522126553e+01, -2.839279529967716e+02, -2.664450292879870e+01, 2.402856449463718e+02
105, 2.500000000000000e-04, 9.299999999997156e-03, 1.084775326737050e-03, -1.133249298715675e-04, -3.476476031854857e+01, -2.200623919594768e+02, -1.954828641365996e+01, 1.893772803125524e+02
106, 2.500000000000000e-04, 9.399999999997563e-03, 1.100763705548568e-03, -1.146172811895413e-04, -2.139288874569912e+01, -1.631497974928930e+02, -1.330182484757205e+01, 1.442316725087184e+02
107, 2.500000000000000e-04, 9.499999999997968e-03, 1.116754484520475e-03, -1.159084549389670e-04, -9.364818404429677e+00, -1.128776613762180e+02, -7.875735497548510e+00, 1.047044292215543e+02
108, 2.500000000000000e-04, 9.599999999998375e-03, 1.132747036125406e-03, -1.171985480687778e-04, 1.263480347880677e+00, -6.910773678504570e+01, -3.230866633793990e+00, 7.066726397414098e+01
109, 2.500000000000000e-04, 9.699999999998783e-03, 1.148740802837559e-03, -1.184876628401895e-04, 1.048159127260719e+01, -3.195219048683840e+01, 5.935124487966530e-01, 4.245038118221984e+01
110, 2.500000000000000e-04, 9.799999999999188e-03, 1.164735272276542e-03, -1.197759233551222e-04, 1.683541295907235e+01, -3.386814433915401e+00, 3.324136962547722e+00, 2.128703894196673e+01
111, 2.500000000000000e-04, 9.899999999999593e-03, 1.180729998971400e-03, -1.210635145542791e-04, 1.857033075485648e+01, 1.256900433925372e+01, 4.339805414219369e+00, 1.055232499877456e+01
112, 2.000000000000817e-04, 1.000000000000000e-02, 1.197368234997278e-03, -1.143536830843899e-04, 2.782818460683212e+01, 2.607529202849993e+01, 5.064143642009540e+00, 1.027885381250237e+01
113, 1.500000000001972e-04, 1.000000000000000e-02, 1.198011854770230e-03, -1.063567739753119e-04, 2.378230668852443e+01, 2.560468759110019e+01, 8.435591480355754e+00, 1.696932192657901e+01
114, 1.000000000003456e-04, 1.000000000000000e-02, 1.198655574339465e-03, -9.836001948889260e-05, 1.649188989844015e+01, 2.514233356658523e+01, 1.144493176499592e+01, 2.446990045090911e+01
115, 5.000000000047588e-05, 1.000000000000000e-02, 1.199299447409094e-03, -9.036335126942154e-05, 7.295217852219343e+00, 2.512005365796096e+01, 1.373067606009955e+01, 3.273912997883744e+01
116, 6.410887445906788e-16, 1.000000000000000e-02, 1.199943506539394e-03, -8.236668286217122e-05, -1.719778233576186e+00, 2.659870835977394e+01, 1.488142713044475e+01, 4.108240714335880e+01
117, -4.999999999945738e-05, 1.000000000000000e-02, 1.200587761868920e-03, -7.436990946751282e-05, -7.622543001101743e+00, 3.155605065166053e+01, 1.454267903108790e+01, 4.879467444520189e+01
118, -9.999999999958566e-05, 1.000000000000000e-02, 1.201232196517363e-03, -6.637293073907302e-05, -6.778252756217890e+00, 4.240639936452669e+01, 1.269562075003631e+01, 5.535201124759312e+01
119, -1.499999999997626e-04, 1.000000000000000e-02, 1.201876755481179e-03, -5.837569412805980e-05, 5.909066698970760e+00, 6.170480572503508e+01, 1.023255984878873e+01, 5.943051083156572e+01
120, -1.999999999998909e-04, 1.000000000000000e-02, 1.202521305227826e-03, -5.037830436118708e-05, 4.134011311858370e+01, 9.274994859664807e+01, 9.264017062054208e+00, 5.464667631600087e+01
121, -2.500000000000000e-04, 9.899999999999590e-03, 1.187170935518605e-03, -4.109523256440235e-05, -2.304588558351914e+01, 4.652858320657845e+01, 7.204606128561941e-01, 6.958938828156900e+01
122, -2.500000000000000e-04, 9.799999999999181e-03, 1.171175797445069e-03, -3.981062339626933e-05, 8.982976714842140e+00, 1.031154537646543e+02, 7.856784641588794e+00, 9.543500141536460e+01
123, -2.500000000000000e-04, 9.699999999999055e-03, 1.155180839811272e-03, -3.852697770743056e-05, 1.965535724714571e+01, 1.373690285224279e+02, 1.446903844858768e+01, 1.212184833249947e+02
124, -2.500000000000000e-04, 9.599999999999458e-03, 1.139186369997386e-03, -3.724445948931199e-05, 2.776808508097071e+01, 1.742467077094814e+02, 2.156975004827984e+01, 1.526990614107589e+02
125, -2.500000000000000e-04, 9.499999999999916e-03, 1.123192747481218e-03, -3.596334705712069e-05, 3.737442247123642e+01, 2.183654626518837e+02, 2.939934341930170e+01, 1.903025018217492e+02
126, -2.500000000000000e-04, 9.400000000000373e-03, 1.107200437493482e-03, -3.468392919785622e-05, 4.838977220454504e+01, 2.694954692727937e+02, 3.798754306902223e+01, 2.337946598828113e+02
127, -2.500000000000000e-04, 9.300000000000832e-03, 1.091209976818886e-03, -3.340650331233347e-05, 6.168199174023420e+01, 3.282442217839538e+02, 4.734438661710277e+01, 2.828805158763673e+02
128, -2.500000000000000e-04, 9.200000000001289e-03, 1.075222014529057e-03, -3.213138196322871e-05, 7.625244119072228e+01, 3.937088706481643e+02, 5.752695878009608e+01, 3.376625364914138e+02
129, -2.500000000000000e-04, 9.100000000001746e-03, 1.059237257270248e-03, -3.085888593504520e-05, 9.278373311545141e+01, 4.664656064205454e+02, 6.855510532068254e+01, 3.980418976677252e+02
130, -2.500000000000000e-04, 9.000000000002204e-03, 1.043256506594277e-03, -2.958935473967972e-05, 1.111808675155639e+02, 5.465590883992259e+02, 8.041872342009755e+01, 4.641367034892796e+02
131, -2.500000000000000e-04, 8.900000000002661e-03, 1.027280653287240e-03, -2.832314651946772e-05, 1.313143781569714e+02, 6.339875576667177e+02, 9.314790843986367e+01, 5.360843746886518e+02
132, -2.500000000000000e-04, 8.800000000003118e-03, 1.011310671259578e-03, -2.706063653782062e-05, 1.532259539462522e+02, 7.288644920794446e+02, 1.067713265464339e+02, 6.139708391072493e+02
133, -2.500000000000000e-04, 8.700000000003576e-03, 9.953476220286943e-04, -2.580221671324350e-05, 1.768321766869172e+02, 8.311848680427778e+02, 1.213088522718293e+02, 6.978830813558186e+02
134, -2.500000000000000e-04, 8.600000000004033e-03, 9.793926519385352e-04, -2.454829473786029e-05, 2.021603045301399e+02, 9.410345183828788e+02, 1.367741350586291e+02, 7.878856262051285e+02
135, -2.500000000000000e-04, 8.500000000004490e-03, 9.634469944992489e-04, -2.329929459062108e-05, 2.292213550237129e+02, 1.058481174215290e+03, 1.531791324713446e+02, 8.840402899327281e+02
136, -2.500000000000000e-04, 8.400000000004949e-03, 9.475119709418915e-04, -2.205565593751722e-05, 2.581215121606650e+02, 1.183685223241743e+03, 1.705171427324296e+02, 9.863937181129571e+02
137, -2.500000000000000e-04, 8.300000000005149e-03, 9.315889955828048e-04, -2.081783580689248e-05, 2.887866679581715e+02, 1.316644678370601e+03, 1.887974354512651e+02, 1.095020536839787e+03
138, -2.500000000000000e-04, 8.200000000005172e-03, 9.156795716701950e-04, -1.958630644380206e-05, 3.213430585193953e+02, 1.457534550520973e+03, 2.080075945473979e+02, 1.209958571214052e+03
139, -2.500000000000000e-04, 8.100000000005195e-03, 8.997852983930434e-04, -1.836155780857272e-05, 3.556881481791477e+02, 1.606333567241029e+03, 2.281553239656604e+02, 1.331290115502992e+03
140, -2.500000000000000e-04, 8.000000000005220e-03, 8.839078655118263e-04, -1.714409514111801e-05, 3.918250311082774e+02, 1.763071140154351e+03, 2.492512918886846e+02, 1.459047880505197e+03
141, -2.500000000000000e-04, 7.900000000005243e-03, 8.680490537679857e-04, -1.593443808875126e-05, 4.299649729986616e+02, 1.927988477351404e+03, 2.712628765779945e+02, 1.593238404141309e+03
142, -2.500000000000000e-04, 7.800000000005240e-03, 8.522107467672732e-04, -1.473312439753544e-05, 4.698175815984828e+02, 2.100885876361325e+03, 2.942005554325184e+02, 1.733954915632981e+03
143, -2.500000000000000e-04, 7.700000000005121e-03, 8.363949161633830e-04, -1.354070476906291e-05, 5.115052895633318e+02, 2.281893104763017e+03, 3.180578190961676e+02, 1.881200712672722e+03
144, -2.500000000000000e-04, 7.600000000005145e-03, 8.206036293603529e-04, -1.235774546951374e-05, 5.550221372576669e+02, 2.471041081397730e+03, 3.428256100672643e+02, 2.035005206375544e+03
145, -2.500000000000000e-04, 7.500000000005337e-03, 8.048390499910890e-04, -1.118482682937343e-05, 6.002451663143763e+02, 2.668241633284284e+03, 3.685018495033974e+02, 2.195400610310045e+03
146, -2.500000000000000e-04, 7.400000000005796e-03, 7.891034315524310e-04, -1.002254196245467e-05, 6.474112176833972e+02, 2.873741479229295e+03, 3.950548544401292e+02, 2.362375877277338e+03
147, -2.500000000000000e-04, 7.300000000006254e-03, 7.733991299966096e-04, -8.871500270559201e-06, 6.964117997316242e+02, 3.087510272653267e+03, 4.224672888661385e+02, 2.535994153750326e+03
148, -2.500000000000000e-04, 7.200000000006711e-03, 7.577285976527571e-04, -7.732325140757029e-06, 7.472159478487208e+02, 3.309547337225294e+03, 4.507331794750490e+02, 2.716281234574804e+03
149, -2.500000000000000e-04, 7.100000000007169e-03, 7.420943823455565e-04, -6.605652749640040e-06, 7.999076069921207e+02, 3.539955981372007e+03, 4.798241414630320e+02, 2.903237834016496e+03
150, -2.500000000000000e-04, 7.000000000007627e-03, 7.264991329382515e-04, -5.492133180028288e-06, 8.543771052874864e+02, 3.778682950980188e+03, 5.097207915058262e+02, 3.096905846215833e+03
151, -2.500000000000000e-04, 6.900000000008085e-03, 7.109455940830132e-04, -4.392428997635030e-06, 9.106711116811666e+02, 4.025794584130329e+03, 5.404027131177324e+02, 3.297292012846867e+03
152, -2.500000000000000e-04, 6.800000000008542e-03, 6.954366096877475e-04, -3.307215110247435e-06, 9.687405575954135e+02, 4.281274725393191e+03, 5.718459251758486e+02, 3.504413454686619e+03
153, -2.500000000000000e-04, 6.700000000009001e-03, 6.799751209575460e-04, -2.237177843448543e-06, 1.028637412741481e+03, 4.545203430420534e+03, 6.040170281471867e+02, 3.718276864067837e+03
154, -2.500000000000000e-04, 6.600000000009459e-03, 6.645641697462631e-04, -1.183015799005399e-06, 1.090341250101855e+03, 4.817600646481937e+03, 6.368846240680630e+02, 3.938902220847947e+03
155, -2.500000000000000e-04, 6.500000000009916e-03, 6.492068985677717e-04, -1.454385551853356e-07, 1.153739799388450e+03, 5.098396018782656e+03, 6.704244775986872e+02, 4.166315951756334e+03
156, -2.500000000000000e-04, 6.400000000010177e-03, 6.339065455801776e-04, 8.748346132056358e-07, 1.218929539040889e+03, 5.387697732656795e+03, 7.046023699246416e+02, 4.400509771710240e+03
157, -2.500000000000000e-04, 6.300000000010201e-03, 6.186664503799233e-04, 1.877074146572067e-06, 1.285907205044577e+03, 5.685542206366403e+03, 7.393749634247388e+02, 4.641496471076266e+03
158, -2.500000000000000e-04, 6.200000000010225e-03, 6.034900543054983e-04, 2.860540722799952e-06, 1.354641613044838e+03, 5.991939723692569e+03, 7.747011753256311e+02, 4.889292526656660e+03
159, -2.500000000000000e-04, 6.100000000010248e-03, 5.883808998246332e-04, 3.824486135181445e-06, 1.425075231066615e+03, 6.306870586148440e+03, 8.105446009504808e+02, 5.143914471433050e+03
160, -2.500000000000000e-04, 6.000000000010509e-03, 5.733426285167687e-04, 4.768154490447159e-06, 1.497248989455772e+03, 6.630399218582879e+03, 8.468603111629416e+02, 5.405360378483534e+03
161, -2.500000000000000e-04, 5.900000000010967e-03, 5.583789840974072e-04, 5.690782224985674e-06, 1.571172278791495e+03, 6.962571701656331e+03, 8.835950834775116e+02, 5.673636296331464e+03
162, -2.500000000000000e-04, 5.800000000011424e-03, 5.434938138871472e-04, 6.591598646506011e-06, 1.646784393007921e+03, 7.303374157863546e+03, 9.206976631428594e+02, 5.948759914094391e+03
163, -2.500000000000000e-04, 5.700000000011876e-03, 5.286910669925162e-04, 7.469827073995249e-06, 1.724035190107438e+03, 7.652794921720757e+03, 9.581210238692875e+02, 6.230744380948472e+03
164, -2.500000000000000e-04, 5.600000000012062e-03, 5.139747930831773e-04, 8.324685987176355e-06, 1.802924506093324e+03, 8.010861531109055e+03, 9.958142971300183e+02, 6.519590981345025e+03
165, -2.500000000000000e-04, 5.500000000012085e-03, 4.993491433831752e-04, 9.155389778745887e-06, 1.883489924896859e+03, 8.377639271289581e+03, 1.033714992976826e+03, 6.815294746382824e+03
166, -2.500000000000000e-04, 5.400000000012110e-03, 4.848183735381029e-04, 9.961149093250470e-06, 1.965699084189106e+03, 8.753139483626590e+03, 1.071757554803486e+03, 7.117865143498398e+03
167, -2.500000000000000e-04, 5.300000000012160e-03, 4.703868429756381e-04, 1.074117188904689e-05, 2.049512799013391e+03, 9.137364813953976e+03, 1.109878214071824e+03, 7.427312083518664e+03
168, -2.500000000000000e-04, 5.200000000012475e-03, 4.560590141957101e-04, 1.149466460874731e-05, 2.134914348064043e+03, 9.530335614219144e+03, 1.148010537140427e+03, 7.743640518350587e+03
169, -2.500000000000000e-04, 5.100000000012934e-03, 4.418394532363131e-04, 1.222083314401272e-05, 2.221894842413210e+03, 9.932080030755331e+03, 1.186083165229034e+03, 8.066853707480330e+03
170, -2.500000000000000e-04, 5.000000000013221e-03, 4.277328304926706e-04, 1.291888381991927e-05, 2.310433571137989e+03, 1.034261788576757e+04, 1.224020727365589e+03, 8.396957295846145e+03
171, -2.500000000000000e-04, 4.900000000012981e-03, 4.137439209346005e-04, 1.358802446454702e-05, 2.400493807582922e+03, 1.076195307600036e+04, 1.261748207678182e+03, 8.733958739066740e+03
172, -2.500000000000000e-04, 4.800000000012570e-03, 3.998776033714057e-04, 1.422746583346189e-05, 2.492084791353333e+03, 1.119012704042164e+04, 1.299184304897708e+03, 9.077855385439198e+03
173, -2.500000000000000e-04, 4.700000000012160e-03, 3.861388621832764e-04, 1.483642257367236e-05, 2.585204457678802e+03, 1.162717665335345e+04, 1.336238808889139e+03, 9.428647718781272e+03
174, -2.500000000000000e-04, 4.600000000011960e-03, 3.725327886926604e-04, 1.541411424648070e-05, 2.679774557549052e+03, 1.207307364584716e+04, 1.372824717648073e+03, 9.786350626447236e+03
175, -2.500000000000000e-04, 4.500000000011985e-03, 3.590645785055538e-04, 1.595976711639195e-05, 2.775785655960921e+03, 1.252784247963778e+04, 1.408854421396094e+03, 1.015096524548143e+04
176, -2.500000000000000e-04, 4.400000000012010e-03, 3.457395323793881e-04, 1.647261544853747e-05, 2.873253799680112e+03, 1.299153063799216e+04, 1.444230495758581e+03, 1.052248701953290e+04
177, -2.500000000000000e-04, 4.300000000011870e-03, 3.325630583315059e-04, 1.695190268874634e-05, 2.972145842440882e+03, 1.346414579026434e+04, 1.478850776157294e+03, 1.090092020783987e+04
178, -2.500000000000000e-04, 4.200000000011467e-03, 3.195406711556456e-04, 1.739688302919641e-05, 3.072432545672947e+03, 1.394569650740795e+04, 1.512612017857204e+03, 1.128626818961119e+04
179, -2.500000000000000e-04, 4.100000000011056e-03, 3.066779922814582e-04, 1.780682302938102e-05, 3.174103199600928e+03, 1.443620674506430e+04, 1.545405421923102e+03, 1.167853106949568e+04
180, -2.500000000000000e-04, 4.000000000010646e-03, 2.939807506826180e-04, 1.818100306850369e-05, 3.277124880594403e+03, 1.493568208063293e+04, 1.577118966974076e+03, 1.207771389504353e+04
181, -2.500000000000000e-04, 3.900000000010236e-03, 2.814547824830591e-04, 1.851871907377136e-05, 3.381475797175833e+03, 1.544413495047823e+04, 1.607638535422423e+03, 1.248381962746381e+04
182, -2.500000000000000e-04, 3.800000000009824e-03, 2.691060310300560e-04, 1.881928427305124e-05, 3.487159985454180e+03, 1.596159797157825e+04, 1.636843134985426e+03, 1.289684553927242e+04
183, -2.500000000000000e-04, 3.700000000009415e-03, 2.569405483468072e-04, 1.908203085343725e-05, 3.594150055904312e+03, 1.648807734601946e+04, 1.664606366779686e+03, 1.331679459885411e+04
184, -2.500000000000000e-04, 3.600000000009160e-03, 2.449644949033506e-04, 1.930631182368811e-05, 3.702423661790386e+03, 1.702358129957920e+04, 1.690799079290586e+03, 1.374366933962466e+04
185, -2.500000000000000e-04, 3.500000000009170e-03, 2.331841396849909e-04, 1.949150295162113e-05, 3.811964076174900e+03, 1.756812105769575e+04, 1.715287761869354e+03, 1.417747168307240e+04
186, -2.500000000000000e-04, 3.400000000009196e-03, 2.216058604325665e-04, 1.963700469278365e-05, 3.922763014734243e+03, 1.812171222791802e+04, 1.737934195622231e+03, 1.461820166203164e+04
187, -2.500000000000000e-04, 3.300000000009092e-03, 2.102361442116160e-04, 1.974224425341054e-05, 4.034808806348649e+03, 1.868436442694133e+04, 1.758594329587408e+03, 1.506585861957647e+04
188, -2.500000000000000e-04, 3.200000000008720e-03, 1.990815878092320e-04, 1.980667770185303e-05, 4.148081974699352e+03, 1.925607853178811e+04, 1.777119395174508e+03, 1.552044372264619e+04
189, -2.500000000000000e-04, 3.100000000008311e-03, 1.881488976812852e-04, 1.982979212818145e-05, 4.262568281867769e+03, 1.983685690574586e+04, 1.793356877324295e+03, 1.598195800575273e+04
190, -2.500000000000000e-04, 3.000000000007901e-03, 1.774448900504431e-04, 1.981110790180533e-05, 4.378263273290613e+03, 2.042670636342189e+04, 1.807148927026856e+03, 1.645040043874311e+04
191, -2.500000000000000e-04, 2.900000000007490e-03, 1.669764914231569e-04, 1.975018097896065e-05, 4.495159767722151e+03, 2.102562810451777e+04, 1.818331633501029e+03, 1.692577038575688e+04
192, -2.500000000000000e-04, 2.800000000007079e-03, 1.567507388890102e-04, 1.964660527040770e-05, 4.613242165270365e+03, 2.163361297683768e+04, 1.826737057015423e+03, 1.740806984318325e+04
193, -2.500000000000000e-04, 2.700000000006744e-03, 1.467747797990869e-04, 1.950001510979980e-05, 4.732511831039257e+03, 2.225066073512918e+04, 1.832193173946171e+03, 1.789729779415000e+04
194, -2.500000000000000e-04, 2.600000000006672e-03, 1.370558721725324e-04, 1.931008782630831e-05, 4.852977104642855e+03, 2.287677139634782e+04, 1.834520710568526e+03, 1.839345061753548e+04
195, -2.500000000000000e-04, 2.500000000006697e-03, 1.276013854043760e-04, 1.907654634839433e-05, 4.974626326383645e+03, 2.351192380167490e+04, 1.833535188424376e+03, 1.889652885680863e+04
196, -2.500000000000000e-04, 2.400000000006722e-03, 1.184187997338643e-04, 1.879916190625611e-05, 5.097466884005896e+03, 2.415610755368275e+04, 1.829047811075888e+03, 1.940653105932811e+04
197, -2.500000000000000e-04, 2.300000000006651e-03, 1.095157065669528e-04, 1.847775676088621e-05, 5.221506802601400e+03, 2.480930609361860e+04, 1.820864191741802e+03, 1.992345518940537e+04
198, -2.500000000000000e-04, 2.200000000006315e-03, 1.008998086495804e-04, 1.811220712833628e-05, 5.346753278541363e+03, 2.547149606237080e+04, 1.808784024946904e+03, 2.044729983912074e+04
199, -2.500000000000000e-04, 2.100000000005904e-03, 9.257891995801022e-05, 1.770244604215323e-05, 5.473224146769476e+03, 2.614265578482678e+04, 1.792602179356527e+03, 2.097806222066422e+04
200, -2.500000000000000e-04, 2.000000000005494e-03, 8.456096595018085e-05, 1.724846643037615e-05, 5.600934644787609e+03, 2.682275359818202e+04, 1.772107333988970e+03, 2.151573975728839e+04
201, -2.500000000000000e-04, 1.900000000005083e-03, 7.685398345798980e-05, 1.675032419591339e-05, 5.729907644127654e+03, 2.751175641950157e+04, 1.747082754709906e+03, 2.206032929673709e+04
202, -2.500000000000000e-04, 1.800000000004675e-03, 6.946612074999480e-05, 1.620814140267894e-05, 5.860166392259301e+03, 2.820962325267019e+04, 1.717306265730552e+03, 2.261182843550333e+04
203, -2.500000000000000e-04, 1.700000000004264e-03, 6.240563731507895e-05, 1.562210953198027e-05, 5.991743403087136e+03, 2.891631078473278e+04, 1.682550621389472e+03, 2.317023297271230e+04
204, -2.500000000000000e-04, 1.600000000003854e-03, 5.568090387745973e-05, 1.499249290708258e-05, 6.124674234920468e+03, 2.963176863767669e+04, 1.642582047560045e+03, 2.373553855281062e+04
205, -2.500000000000000e-04, 1.500000000003443e-03, 4.930040225457119e-05, 1.431963207641136e-05, 6.258999233689223e+03, 3.035594074855933e+04, 1.597161706170458e+03, 2.430774140955304e+04
206, -2.500000000000000e-04, 1.400000000003032e-03, 4.327272513894887e-05, 1.360394735880578e-05, 6.394765749478718e+03, 3.108876568112327e+04, 1.546045110629110e+03, 2.488683697379926e+04
207, -2.500000000000000e-04, 1.300000000002622e-03, 3.760657593860259e-05, 1.284594247057473e-05, 6.532025239155196e+03, 3.183017353762386e+04, 1.488982049195879e+03, 2.547282036804373e+04
208, -2.500000000000000e-04, 1.200000000002211e-03, 3.231076847395656e-05, 1.204620825625432e-05, 6.670839765470939e+03, 3.258009132820580e+04, 1.425716920599750e+03, 2.606568609286578e+04
209, -2.500000000000000e-04, 1.100000000002113e-03, 2.739422663898547e-05, 1.120542644478897e-05, 6.811297832793322e+03, 3.333846276148607e+04, 1.355990358460025e+03, 2.666543302785486e+04
210, -2.500000000000000e-04, 1.000000000002544e-03, 2.286598413367315e-05, 1.032437300946156e-05, 6.953564878186308e+03, 3.410532167294984e+04, 1.279544283650575e+03, 2.727208887007519e+04
211, -2.500000000000000e-04, 9.000000000030026e-04, 1.873518532751549e-05, 9.403919707078100e-06, 7.097934657274497e+03, 3.488090150748010e+04, 1.196133028402595e+03, 2.788577027600574e+04
212, -2.500000000000000e-04, 8.000000000032027e-04, 1.501109148774531e-05, 8.445032541580771e-06, 7.244740288660565e+03, 3.566558290556411e+04, 1.105499735839545e+03, 2.850671523901984e+04
213, -2.500000000000000e-04, 7.000000000028719e-04, 1.170310437949294e-05, 7.448771668214132e-06, 7.392628537338893e+03, 3.645767103307389e+04, 1.007234802258204e+03, 2.913476931548286e+04
214, -2.500000000000000e-04, 6.000000000024631e-04, 8.820816917936667e-06, 6.416347198332537e-06, 7.534169033964866e+03, 3.724614225766825e+04, 8.998719931798466e+02, 2.976643128194081e+04
215, -2.500000000000000e-04, 5.000000000020526e-04, 6.374066720758597e-06, 5.349382001577060e-06, 7.629563574636293e+03, 3.797327873927121e+04, 7.795565868494363e+02, 3.038374374366819e+04
216, -2.500000000000000e-04, 4.000000000016421e-04, 4.372543328001856e-06, 4.251094643293004e-06, 7.595355214138780e+03, 3.849597565974684e+04, 6.312535860981949e+02, 3.092640082976644e+04
217, -2.500000000000000e-04, 3.000000000012316e-04, 2.823781128460690e-06, 3.128682913523083e-06, 6.946084591124585e+03, 3.815611902563818e+04, 4.519434464370511e+02, 3.122312061467646e+04
218, -2.500000000000000e-04, 2.000000000008210e-04, 1.718850499828203e-06, 2.004093494171777e-06, 6.523645709387401e+03, 3.762051675619003e+04, 1.599552050109420e+02, 3.109851654937760e+04
219, -2.500000000000000e-04, 1.000000000004105e-04, 1.000189841756551e-06, 8.866742906672816e-07, -3.371890370825792e+03, 2.606549830168357e+04, 2.333648496132448e+03, 2.980509206612836e+04
220, -1.999999999998928e-04, 9.899999999999593e-03, 1.186526130674702e-03, -4.909296052956246e-05, -1.056250622216510e+00, 6.767860089156314e+01, 7.644752579945023e+00, 7.041483352714569e+01
221, -1.499999999997670e-04, 9.899999999999591e-03, 1.185881418151877e-03, -5.709026406064618e-05, 2.695563754763591e+00, 6.161561865561679e+01, 1.388714258068232e+01, 6.513818991762325e+01
222, -9.999999999959327e-05, 9.899999999999591e-03, 1.185236896993682e-03, -6.508725401725471e-05, 7.735291617252311e+00, 5.347135053305917e+01, 1.773224112413117e+01, 5.787500830485877e+01
223, -4.999999999946756e-05, 9.899999999999593e-03, 1.184592594764520e-03, -7.308395092907153e-05, 1.258068850938923e+01, 4.499429326906545e+01, 2.022296965575958e+01, 5.183160985641481e+01
224, 6.282680539010377e-16, 9.899999999999593e-03, 1.183948498081782e-03, -8.108043082470050e-05, 1.615593847454890e+01, 3.652297289247011e+01, 2.101291741286900e+01, 4.670103728806246e+01
225, 5.000000000046569e-05, 9.899999999999590e-03, 1.183304581540594e-03, -8.907680524332475e-05, 1.855816116666822e+01, 2.865618561317769e+01, 1.995261160778551e+01, 4.116305306469444e+01
226, 1.000000000003380e-04, 9.899999999999590e-03, 1.182660814376411e-03, -9.707319598805553e-05, 1.991049495277911e+01, 2.187354175410604e+01, 1.714656573603684e+01, 3.434927100980646e+01
227, 1.500000000001929e-04, 9.899999999999593e-03, 1.182017159623035e-03, -1.050697181604105e-04, 2.033372163501897e+01, 1.678647993770792e+01, 1.286154921436537e+01, 2.596653069690504e+01
228, 2.000000000000797e-04, 9.899999999999593e-03, 1.181373572323406e-03, -1.130664706349876e-04, 1.963088632662382e+01, 1.373464300953940e+01, 7.567703000564974e+00, 1.624334325418579e+01
229, -1.999999999998947e-04, 9.799999999999184e-03, 1.170530725476294e-03, -4.780813298709399e-05, 4.151247185314595e+00, 8.710157993248468e+01, 1.333550324911793e+01, 8.713265914968495e+01
230, -1.499999999997712e-04, 9.799999999999181e-03, 1.169885899876559e-03, -5.580512032066004e-05, 9.492284663379364e+00, 7.523864219384376e+01, 2.073730197738981e+01, 7.773497476509188e+01
231, -9.999999999960086e-05, 9.799999999999184e-03, 1.169241331092981e-03, -6.380169166800494e-05, 1.289121158085741e+01, 6.074975486394140e+01, 2.571734699191295e+01, 7.025644390651038e+01
232, -4.999999999947776e-05, 9.799999999999184e-03, 1.168597027866398e-03, -7.179796163098127e-05, 1.669568112469733e+01, 4.721139135526752e+01, 2.847395887363889e+01, 6.460862099307523e+01
233, 6.154473632113966e-16, 9.799999999999184e-03, 1.167952977937052e-03, -7.979403888865789e-05, 2.021929622355815e+01, 3.504009775848705e+01, 2.903725994198773e+01, 5.993584918804447e+01
234, 5.000000000045551e-05, 9.799999999999184e-03, 1.167309153957767e-03, -8.779004544085705e-05, 2.281938838426877e+01, 2.427675245146453e+01, 2.729344055545561e+01, 5.460633204529589e+01
235, 1.000000000003303e-04, 9.799999999999184e-03, 1.166665519832678e-03, -9.578611154932672e-05, 2.417574511594972e+01, 1.506206593741979e+01, 2.324513839072288e+01, 4.737515153943684e+01
236, 1.500000000001885e-04, 9.799999999999188e-03, 1.166022032342668e-03, -1.037823671099987e-04, 2.406046112904998e+01, 7.638973703386142e+00, 1.705013238507706e+01, 3.784829331245795e+01
237, 2.000000000000778e-04, 9.799999999999188e-03, 1.165378639490132e-03, -1.117789331430985e-04, 2.188485331120292e+01, 2.143666898724021e+00, 8.956183518724872e+00, 2.665646889324536e+01
238, -1.999999999998966e-04, 9.699999999999027e-03, 1.154535490146516e-03, -4.652402760818130e-05, 6.765517053307522e+00, 1.086143899494174e+02, 2.032035595743422e+01, 1.096579243609657e+02
239, -1.499999999997756e-04, 9.699999999998999e-03, 1.153890464600152e-03, -5.452049476921985e-05, 1.153346965044349e+01, 9.013597176771250e+01, 2.857036652083625e+01, 9.717724379521660e+01
240, -9.999999999960846e-05, 9.699999999998973e-03, 1.153245777746242e-03, -6.251650392856378e-05, 1.602394118721531e+01, 7.136548125103758e+01, 3.402559988884281e+01, 8.771346446138200e+01
241, -4.999999999948794e-05, 9.699999999998947e-03, 1.152601427742569e-03, -7.051219115611365e-05, 1.983525559938482e+01, 5.275856186849955e+01, 3.665397313363223e+01, 8.036167669737898e+01
242, 6.026266725217555e-16, 9.699999999998920e-03, 1.151957401148925e-03, -7.850769880275738e-05, 2.303814362065086e+01, 3.524938471954221e+01, 3.647137790273575e+01, 7.395782604749751e+01
243, 5.000000000044535e-05, 9.699999999998892e-03, 1.151313671504250e-03, -8.650317122641980e-05, 2.527574711189374e+01, 1.925200752757504e+01, 3.350096131012766e+01, 6.727215674698093e+01
244, 1.000000000003228e-04, 9.699999999998864e-03, 1.150670200884464e-03, -9.449875596153834e-05, 2.617098305254784e+01, 5.052927005347440e+00, 2.778137135941508e+01, 5.944064829434156e+01
245, 1.500000000001842e-04, 9.699999999998836e-03, 1.150026941021229e-03, -1.024946012686670e-04, 2.537561453734550e+01, -7.042601896457227e+00, 1.940079539189314e+01, 5.056188489466435e+01
246, 2.000000000000759e-04, 9.699999999998809e-03, 1.149383832277779e-03, -1.104908546698359e-04, 2.269419329459937e+01, -1.648600034152044e+01, 8.477860165548007e+00, 4.269173251708329e+01
247, -1.999999999998985e-04, 9.599999999999352e-03, 1.138540686992646e-03, -4.524087869383898e-05, 8.695599561249914e+00, 1.344431656779331e+02, 2.810475087351664e+01, 1.377387326459748e+02
248, -1.499999999997800e-04, 9.599999999999241e-03, 1.137895420368924e-03, -5.323663103167920e-05, 1.346468309739591e+01, 1.093733688830556e+02, 3.713591291045021e+01, 1.213044934035940e+02
249, -9.999999999961608e-05, 9.599999999999132e-03, 1.137250584381625e-03, -6.123187830183383e-05, 1.804422428803262e+01, 8.419008377676383e+01, 4.274096794257370e+01, 1.080853185690611e+02
250, -4.999999999949810e-05, 9.599999999999024e-03, 1.136606177814228e-03, -6.922678450199415e-05, 2.202136697780522e+01, 5.941787797747237e+01, 4.495264524639135e+01, 9.737279031402906e+01
251, 5.898059818321144e-16, 9.599999999998917e-03, 1.135962185277512e-03, -7.722151719049068e-05, 2.505806787435385e+01, 3.556403477415922e+01, 4.380504915679703e+01, 8.823777347042152e+01
252, 5.000000000043517e-05, 9.599999999998809e-03, 1.135318578831605e-03, -8.521624628805652e-05, 2.691048841428818e+01, 1.318169878038630e+01, 3.935137926541081e+01, 7.989120017356571e+01
253, 1.000000000003152e-04, 9.599999999998698e-03, 1.134675318327553e-03, -9.321114259128550e-05, 2.728169381885780e+01, -7.269483944379250e+00, 3.166099771769233e+01, 7.213500530772616e+01
254, 1.500000000001798e-04, 9.599999999998591e-03, 1.134032351789686e-03, -1.012063774573651e-04, 2.590952387895699e+01, -2.532143066667934e+01, 2.081620469243884e+01, 6.601415162559546e+01
255, 2.000000000000740e-04, 9.599999999998483e-03, 1.133389615861365e-03, -1.092021221875854e-04, 2.258817802225622e+01, -4.046481286343975e+01, 6.904202616334786e+00, 6.454728278325335e+01
256, -1.999999999999004e-04, 9.499999999999719e-03, 1.122546686728487e-03, -4.395891295513529e-05, 1.023760268829831e+01, 1.645554325734213e+02, 3.647699261013891e+01, 1.706935165141730e+02
257, -1.499999999997843e-04, 9.499999999999528e-03, 1.121901155161237e-03, -5.195372446265897e-05, 1.534113112786354e+01, 1.320027682334685e+02, 4.617819331508872e+01, 1.487939505609777e+02
258, -9.999999999962368e-05, 9.499999999999330e-03, 1.121256165129945e-03, -5.994797533089364e-05, 2.001809779216667e+01, 9.927089641663247e+01, 5.180782224277615e+01, 1.304500205901344e+02
259, -4.999999999950831e-05, 9.499999999999136e-03, 1.120611714016805e-03, -6.794186035261614e-05, 2.395934079311682e+01, 6.698232750306630e+01, 5.344404481039508e+01, 1.152217040675348e+02
260, 5.769988436696294e-16, 9.499999999998942e-03, 1.119967785077318e-03, -7.593557503073663e-05, 2.684301736160818e+01, 3.568956140726788e+01, 5.116230912435405e+01, 1.027063232780516e+02
261, 5.000000000042495e-05, 9.499999999998747e-03, 1.119324348187040e-03, -8.392931554882877e-05, 2.836997232270669e+01, 5.920416435409209e+00, 4.504187483592386e+01, 9.283891702555034e+01
262, 1.000000000003075e-04, 9.499999999998551e-03, 1.118681360525197e-03, -9.192327833115373e-05, 2.827655468585545e+01, -2.179629763533495e+01, 3.517127614856147e+01, 8.634445670251922e+01
263, 1.500000000001755e-04, 9.499999999998359e-03, 1.118038767040763e-03, -9.991765942104118e-05, 2.631306292682289e+01, -4.695029256194218e+01, 2.164893418418128e+01, 8.510126122871043e+01
264, 2.000000000000721e-04, 9.499999999998164e-03, 1.117396500943158e-03, -1.079126539652436e-04, 2.226446883870787e+01, -6.903682792925490e+01, 4.587933156982895e+00, 9.176122990742539e+01
265, -1.999999999999023e-04, 9.400000000000087e-03, 1.106553963579430e-03, -4.267837224025274e-05, 1.146753738952934e+01, 1.989066288286617e+02, 4.545527190135036e+01, 2.083222023069797e+02
266, -1.499999999997887e-04, 9.399999999999811e-03, 1.105908152733209e-03, -5.067197030828472e-05, 1.701159007492757e+01, 1.576400113805485e+02, 5.568229492729219e+01, 1.793834572985788e+02
267, -9.999999999963125e-05, 9.399999999999530e-03, 1.105263014024702e-03, -5.866494936568303e-05, 2.192021282594149e+01, 1.162559209625600e+02, 6.120813046043615e+01, 1.545476197405976e+02
268, -4.999999999951849e-05, 9.399999999999249e-03, 1.104618542041745e-03, -6.665753435382457e-05, 2.588444299953328e+01, 7.534850129934564e+01, 6.214200531517789e+01, 1.337654976511269e+02
269, 5.641646004528322e-16, 9.399999999998968e-03, 1.103974717439741e-03, -7.464994969739499e-05, 2.861697913447936e+01, 3.550540320323334e+01, 5.858610291793976e+01, 1.173745125936492e+02
270, 5.000000000041476e-05, 9.399999999998687e-03, 1.103331507358385e-03, -8.264241929314395e-05, 2.983470143715671e+01, -2.710701834189875e+00, 5.064337831336103e+01, 1.063870778903876e+02
271, 1.000000000003000e-04, 9.399999999998406e-03, 1.102688865848261e-03, -9.063516628234404e-05, 2.926545080545264e+01, -3.875523021171890e+01, 3.842250286150794e+01, 1.026253767379694e+02
272, 1.500000000001711e-04, 9.399999999998125e-03, 1.102046734294832e-03, -9.862841262848786e-05, 2.665180509245128e+01, -7.209699743120562e+01, 2.204237786348324e+01, 1.081424601503151e+02
273, 2.000000000000702e-04, 9.399999999997844e-03, 1.101405041827515e-03, -1.066223784332902e-04, 2.173411090646003e+01, -1.022329357463312e+02, 1.636026826375538e+00, 1.240102213163165e+02
274, -1.999999999999042e-04, 9.300000000000464e-03, 1.090563068279590e-03, -4.139950601203064e-05, 1.315296401524983e+01, 2.380591651372929e+02, 5.505043553175413e+01, 2.504096665707859e+02
275, -1.499999999997930e-04, 9.300000000000100e-03, 1.089916974997267e-03, -4.939157391124845e-05, 1.902708791144197e+01, 1.867261816094953e+02, 6.564976359282370e+01, 2.129848629981085e+02
276, -9.999999999963886e-05, 9.299999999999729e-03, 1.089271702246867e-03, -5.738296339715367e-05, 2.407087853731617e+01, 1.353820976062158e+02, 7.094083287459777e+01, 1.803346737773161e+02
277, -4.999999999952863e-05, 9.299999999999361e-03, 1.088627241476341e-03, -6.537392926979258e-05, 2.801127467516317e+01, 8.463920616227111e+01, 7.104516104098799e+01, 1.529587599775451e+02
278, 5.513303572360351e-16, 9.299999999998993e-03, 1.087983570201884e-03, -7.336472517190542e-05, 3.055811848471764e+01, 3.508399778907648e+01, 6.608080328592763e+01, 1.322390783207879e+02
279, 5.000000000040461e-05, 9.299999999998625e-03, 1.087340652257451e-03, -8.135560350324858e-05, 3.142646442418811e+01, -1.270975184950059e+01, 5.616794681230320e+01, 1.206953130133756e+02
280, 1.000000000002923e-04, 9.299999999998258e-03, 1.086698438073639e-03, -8.934681520853920e-05, 3.033744143017024e+01, -5.818159542424151e+01, 4.143208882235957e+01, 1.212521827530056e+02
281, 1.500000000001668e-04, 9.299999999997890e-03, 1.086056864953320e-03, -9.733860941656029e-05, 2.701692280880420e+01, -1.007847416938383e+02, 2.200730952207008e+01, 1.351686063375915e+02
282, 2.000000000000683e-04, 9.299999999997520e-03, 1.085415857290498e-03, -1.053312329716713e-04, 2.119740298173678e+01, -1.399808118652584e+02, -1.960635872581251e+00, 1.612259076989910e+02
283, -1.999999999999061e-04, 9.200000000000841e-03, 1.074574652198476e-03, -4.012258124626784e-05, 1.464618411629650e+01, 2.815160803230455e+02, 6.533185446164282e+01, 2.971406171007089e+02
284, -1.499999999997973e-04, 9.200000000000397e-03, 1.073928275949788e-03, -4.811275774808069e-05, 2.093545808876776e+01, 2.189473426134204e+02, 7.613989641650068e+01, 2.497955998777123e+02
285, -9.999999999964642e-05, 9.199999999999951e-03, 1.073282887501817e-03, -5.610219665862183e-05, 2.620445287271735e+01, 1.564943600731283e+02, 8.104890177694099e+01, 2.079691271205527e+02
286, -4.999999999953884e-05, 9.199999999999505e-03, 1.072638474486089e-03, -6.409118253009491e-05, 3.017268246042705e+01, 9.476736458648345e+01, 8.017867996325441e+01, 1.728784423852962e+02
287, 5.385367716007061e-16, 9.199999999999058e-03, 1.071995010597974e-03, -7.207999844898519e-05, 3.255704737444650e+01, 3.436344675185941e+01, 7.365694185445706e+01, 1.473249585512047e+02
288, 5.000000000039439e-05, 9.199999999998614e-03, 1.071352455720864e-03, -8.006892587008953e-05, 3.307418738215814e+01, -2.413115723615680e+01, 6.161498057543419e+01, 1.358604974896850e+02
289, 1.000000000002848e-04, 9.199999999998171e-03, 1.070710756084470e-03, -8.805824438583172e-05, 3.144255269226183e+01, -8.013975020128012e+01, 4.418930689173841e+01, 1.423425083849343e+02
290, 1.500000000001625e-04, 9.199999999997726e-03, 1.070069844409105e-03, -9.604823144092708e-05, 2.738301419814372e+01, -1.330933958373566e+02, 2.152357525352655e+01, 1.661497377207045e+02
291, 2.000000000000664e-04, 9.199999999997280e-03, 1.069429640018043e-03, -1.040391619747557e-04, 2.061886246950632e+01, -1.824285234788122e+02, -6.229421851987597e+00, 2.034292597609437e+02
292, -1.999999999999080e-04, 9.100000000001274e-03, 1.058589431840064e-03, -3.884787877197066e-05, 1.650930912438347e+01, 3.297512850519041e+02, 7.633636290298381e+01, 3.484673538339017e+02
293, -1.499999999998017e-04, 9.100000000000802e-03, 1.057942780884558e-03, -4.683575937735469e-05, 2.311172683736356e+01, 2.546418891401996e+02, 8.720426925073899e+01, 2.898698921209292e+02
294, -9.999999999965405e-05, 9.100000000000334e-03, 1.057297302510635e-03, -5.482284391804196e-05, 2.854258120566584e+01, 1.798239161730702e+02, 9.156931020829742e+01, 2.375411471674194e+02
295, -4.999999999954905e-05, 9.099999999999862e-03, 1.056652980442429e-03, -6.280944688089430e-05, 3.249513611289918e+01, 1.058914446665501e+02, 8.956289299126020e+01, 1.935796097556724e+02
296, 5.257025283839090e-16, 9.099999999999390e-03, 1.056009784278909e-03, -7.079588113501593e-05, 3.467914068913663e+01, 3.344440032062970e+01, 8.131847602254267e+01, 1.626416390543732e+02
297, 5.000000000038422e-05, 9.099999999998916e-03, 1.055367669625592e-03, -7.878245767835322e-05, 3.480729319947006e+01, -3.692249980471186e+01, 6.697399054581336e+01, 1.519448085422650e+02
298, 1.000000000002772e-04, 9.099999999998446e-03, 1.054726578192083e-03, -8.676948543802228e-05, 3.259394623532347e+01, -1.046196596410530e+02, 4.667214310239263e+01, 1.659539978568713e+02
299, 1.500000000001581e-04, 9.099999999997978e-03, 1.054086437868076e-03, -9.475727104089071e-05, 2.775434074876305e+01, -1.690618544730864e+02, 2.056142022575776e+01, 2.010664136756956e+02
300, 2.000000000000645e-04, 9.099999999997506e-03, 1.053447162763877e-03, -1.027461185573521e-04, 2.000318636293012e+01, -2.296672253259798e+02, -1.120265513102675e+01, 2.506737170124715e+02
301, -1.999999999999099e-04, 9.000000000001736e-03, 1.042608213863415e-03, -3.757569331842460e-05, 1.860739071384444e+01, 3.827245798633674e+02, 8.805178522965161e+01, 4.044672977666604e+02
302, -1.499999999998060e-04, 9.000000000001264e-03, 1.041961302180815e-03, -4.556083116940604e-05, 2.551952068542801e+01, 2.938531545794949e+02, 9.882677105988765e+01, 3.332714536099498e+02
303, -9.999999999966160e-05, 9.000000000000792e-03, 1.041315765485278e-03, -5.354511517876598e-05, 3.107027438449016e+01, 2.054303797650587e+02, 1.024921638559152e+02, 2.691096820179350e+02
304, -4.999999999955923e-05, 9.000000000000320e-03, 1.040671583365520e-03, -6.152889034770051e-05, 3.496447256972725e+01, 1.180672648807518e+02, 9.918607511240147e+01, 2.150757635687970e+02
305, 5.128818376942679e-16, 8.999999999999852e-03, 1.040028721129572e-03, -6.951249972549289e-05, 3.690564765398658e+01, 3.236702679100031e+01, 8.904818721007733e+01, 1.781541963046110e+02
306, 5.000000000037403e-05, 8.999999999999380e-03, 1.039387129902869e-03, -7.749628432993455e-05, 3.660147040422599e+01, -5.106844954135060e+01, 7.222100145830176e+01, 1.689659938266393e+02
307, 1.000000000002695e-04, 8.999999999998908e-03, 1.038746746693744e-03, -8.548058298989541e-05, 3.376141612616415e+01, -1.316396582643215e+02, 4.885094818126066e+01, 1.921019936449381e+02
308, 1.500000000001538e-04, 8.999999999998436e-03, 1.038107494433992e-03, -9.346573217550992e-05, 2.809576954922625e+01, -2.087490108026691e+02, 1.908890961612341e+01, 2.399020547249808e+02
309, 2.000000000000626e-04, 8.999999999997964e-03, 1.037469281991422e-03, -1.014520658196407e-04, 1.931398927002722e+01, -2.818002681294544e+02, -1.690965920695608e+01, 3.030074954637638e+02
310, -1.999999999999118e-04, 8.900000000002187e-03, 1.026631893729696e-03, -3.630633861181124e-05, 2.083432266512106e+01, 4.404640169405801e+02, 1.005012041321580e+02, 4.652859856537373e+02
311, -1.499999999998104e-04, 8.900000000001712e-03, 1.025984740002282e-03, -4.428824298869342e-05, 2.805077804335905e+01, 3.365924878180265e+02, 1.110181670108910e+02, 3.801290837288137e+02
312, -9.999999999966923e-05, 8.900000000001240e-03, 1.025339181671617e-03, -5.226923730081409e-05, 3.371373463432446e+01, 2.333418216470553e+02, 1.138176675062192e+02, 3.027692502064692e+02
313, -4.999999999956943e-05, 8.900000000000770e-03, 1.024695193907680e-03, -6.024969718489770e-05, 3.752676833616381e+01, 1.313247227073441e+02, 1.090412173022120e+02, 2.373984088556848e+02
314, 5.000475944774707e-16, 8.900000000000293e-03, 1.024052737524618e-03, -6.822999622038425e-05, 3.919501310640618e+01, 3.115326779966808e+01, 9.683188895930955e+01, 1.938306697746532e+02
315, 5.000000000036387e-05, 8.899999999999823e-03, 1.023411759006680e-03, -7.621050584758907e-05, 3.842358199361327e+01, -6.656295325152057e+01, 7.733522888930558e+01, 1.869361470990104e+02
316, 1.000000000002620e-04, 8.899999999999349e-03, 1.022772190538807e-03, -8.419159525826261e-05, 3.491858474409714e+01, -1.612155717627245e+02, 5.069993021294572e+01, 2.207952423469144e+02
317, 1.500000000001494e-04, 8.899999999998874e-03, 1.022133950026957e-03, -9.217363126321463e-05, 2.838690603824592e+01, -2.521969966144429e+02, 1.707818464293797e+01, 2.826552387460857e+02
318, 2.000000000000606e-04, 8.899999999998404e-03, 1.021496941105481e-03, -1.001569781625712e-04, 1.853678691344479e+01, -3.388990827340320e+02, -2.337441142720780e+01, 3.604800318310594e+02
319, -1.999999999999137e-04, 8.800000000002590e-03, 1.010661451287789e-03, -3.504014569459657e-05, 2.322584783145189e+01, 5.030845783746759e+02, 1.137082603842116e+02, 5.310204093977642e+02
320, -1.499999999998147e-04, 8.800000000002060e-03, 1.010014079945600e-03, -4.301828198915855e-05, 3.071654037407751e+01, 3.829558221018356e+02, 1.237943959979030e+02, 4.305493252973804e+02
321, -9.999999999967683e-05, 8.800000000001532e-03, 1.009368542344247e-03, -5.099545386532717e-05, 3.646152525645401e+01, 2.636256636759738e+02, 1.255538043761625e+02, 3.386127241513429e+02
322, -4.999999999957961e-05, 8.800000000001001e-03, 1.008724809165498e-03, -5.897206774143905e-05, 4.016527439495638e+01, 1.457124938505491e+02, 1.191287878576650e+02, 2.605895007872598e+02
323, 4.872540088421418e-16, 8.800000000000474e-03, 1.008082836626674e-03, -6.694852797476265e-05, 4.153066289637538e+01, 2.983363477183976e+01, 1.046637029925983e+02, 2.096539610010684e+02
324, 5.000000000035368e-05, 8.799999999999947e-03, 1.007442566481568e-03, -7.492523676380843e-05, 4.026057795069763e+01, -8.339428039274692e+01, 8.230562311589236e+01, 2.058819719594666e+02
325, 1.000000000002544e-04, 8.799999999999419e-03, 1.006803926027738e-03, -8.290259403814720e-05, 3.605817045547176e+01, -1.933554160250044e+02, 5.220460543394327e+01, 2.520553053912766e+02
326, 1.500000000001451e-04, 8.799999999998892e-03, 1.006166828116811e-03, -9.088099733969902e-05, 2.862746700252179e+01, -2.994341684978979e+02, 1.451387497564813e+01, 3.293433572344297e+02
327, 2.000000000000587e-04, 8.799999999998365e-03, 1.005531171165592e-03, -9.886084169811839e-05, 1.767406318110765e+01, -4.010146164108346e+02, -3.061008395760863e+01, 4.231407796206973e+02
328, -1.999999999999156e-04, 8.700000000002964e-03, 9.946979535431053e-04, -3.377746239846319e-05, 2.572136617673419e+01, 5.706077032030948e+02, 1.276922337528460e+02, 6.017660230697397e+02
329, -1.499999999998191e-04, 8.700000000002345e-03, 9.940503945512214e-04, -4.175125200126960e-05, 3.346639321544356e+01, 4.329696257615982e+02, 1.371718390410990e+02, 4.846310829058488e+02
330, -9.999999999968445e-05, 8.700000000001731e-03, 9.934049257699369e-04, -4.972402477127050e-05, 3.927428550924638e+01, 2.963088921547661e+02, 1.377126158597962e+02, 3.767304703381560e+02
331, -4.999999999958977e-05, 8.700000000001117e-03, 9.927615133521305e-04, -5.769621811565115e-05, 4.284718019399979e+01, 1.612500218275564e+02, 1.294556726991943e+02, 2.847003998643219e+02
332, 4.743926605710325e-16, 8.700000000000502e-03, 9.921201088593816e-04, -6.566826742546045e-05, 4.388581647238799e+01, 2.841674549306555e+01, 1.125457176792306e+02, 2.256223535660764e+02
333, 5.000000000034347e-05, 8.699999999999888e-03, 9.914806492512852e-04, -7.364060595248072e-05, 4.209049481906244e+01, -1.015678507015511e+02, 8.713058449948799e+01, 2.258421467720532e+02
334, 1.000000000002468e-04, 8.699999999999274e-03, 9.908430568878672e-04, -8.161366468498290e-05, 3.716178801756011e+01, -2.280810561157808e+02, 5.336121620460926e+01, 2.859081040182037e+02
335, 1.500000000001407e-04, 8.699999999998657e-03, 9.902072395356356e-04, -8.958787222525759e-05, 2.880067970259647e+01, -3.505005588018769e+02, 1.139170200882733e+01, 3.799848852647419e+02
336, 2.000000000000568e-04, 8.699999999998044e-03, 9.895730903749301e-04, -9.756365466301122e-05, 1.670865035707522e+01, -4.682044447343769e+02, -3.862049473394610e+01, 4.910263539212032e+02
337, -1.999999999999175e-04, 8.600000000003331e-03, 9.787425529182905e-04, -3.251865270409321e-05, 2.833726952025062e+01, 6.431043752527233e+02, 1.424680474431967e+02, 6.775892357909688e+02
338, -1.499999999998235e-04, 8.600000000002632e-03, 9.780948424116505e-04, -4.048747282386613e-05, 3.630613006182008e+01, 4.866876435880463e+02, 1.511662356162972e+02, 5.424467078780937e+02
339, -9.999999999969208e-05, 8.600000000001931e-03, 9.774494968014500e-04, -4.845522557816809e-05, 4.215033774727213e+01, 3.314302129247947e+02, 1.503067149158111e+02, 4.171945354122639e+02
340, -4.999999999959999e-05, 8.600000000001230e-03, 9.768064777170105e-04, -5.642237964683052e-05, 4.556642521403645e+01, 1.779619727836016e+02, 1.400306182872165e+02, 3.097787553203827e+02
341, 4.615584173542353e-16, 8.600000000000526e-03, 9.761657320320379e-04, -6.438940174793509e-05, 4.625097905891135e+01, 2.691226615872188e+01, 1.204828674886206e+02, 2.417405039494996e+02
342, 5.000000000033329e-05, 8.599999999999825e-03, 9.755271918723628e-04, -7.235675647954236e-05, 4.390114335768694e+01, -1.210896913031358e+02, 9.181185461135887e+01, 2.468595594883539e+02
343, 1.000000000002392e-04, 8.599999999999124e-03, 9.748907746210528e-04, -8.032490618789855e-05, 3.821444292271433e+01, -2.654149698968264e+02, 5.416917120167710e+01, 3.223786853435654e+02
344, 1.500000000001364e-04, 8.599999999998423e-03, 9.742563829248814e-04, -8.829431084057791e-05, 2.888877236654626e+01, -4.054349344592825e+02, 7.709531377510025e+00, 4.345973191440230e+02
345, 2.000000000000548e-04, 8.599999999997722e-03, 9.736239046991257e-04, -9.626542790567845e-05, 1.562150442000828e+01, -5.405218551929433e+02, -4.740925516804102e+01, 5.641684024685666e+02
346, -1.999999999999195e-04, 8.500000000003703e-03, 9.627964890593355e-04, -3.126409622664146e-05, 3.106662121132145e+01, 7.206130376307460e+02, 1.580454743264176e+02, 7.585431749196085e+02
347, -1.499999999998278e-04, 8.500000000002915e-03, 9.621486695603907e-04, -3.922727962885379e-05, 3.923764982037751e+01, 5.441455938903147e+02, 1.657859816399615e+02, 6.040463548588249e+02
348, -9.999999999969967e-05, 8.500000000002127e-03, 9.615035080356250e-04, -4.718934691015733e-05, 4.509398094261429e+01, 3.690187084479733e+02, 1.633428989752782e+02, 4.600552571941905e+02
349, -4.999999999961013e-05, 8.500000000001340e-03, 9.608609615547155e-04, -5.515079840724789e-05, 4.832621931549286e+01, 1.958675924186703e+02, 1.508581091672863e+02, 3.358587994727642e+02
350, 4.487512791917503e-16, 8.500000000000552e-03, 9.602209722777194e-04, -6.311213247748233e-05, 4.862776075046130e+01, 2.532817240478808e+01, 1.284772695538780e+02, 2.580087323815943e+02
351, 5.000000000032310e-05, 8.499999999999765e-03, 9.595834674690332e-04, -7.107384536739395e-05, 4.569254262571619e+01, -1.419641385827695e+02, 9.634927754211404e+01, 2.689753950340672e+02
352, 1.000000000002316e-04, 8.499999999998977e-03, 9.589483595089565e-04, -7.903643107789039e-05, 3.921502638801307e+01, -3.053742269259520e+02, 5.462621715523285e+01, 3.614939112934528e+02
353, 1.500000000001320e-04, 8.499999999998190e-03, 9.583155459013071e-04, -8.700038123905252e-05, 2.889014458408106e+01, -4.642671731589543e+02, 3.463259562753272e+00, 4.932059576999259e+02
354, 2.000000000000531e-04, 8.499999999997402e-03, 9.576849092800327e-04, -9.496618499000863e-05, 1.441367008886461e+01, -6.180077936651185e+02, -5.698161343030842e+01, 6.426075979112097e+02
355, -1.999999999999213e-04, 8.400000000004074e-03, 9.468610898713932e-04, -3.001418791029161e-05, 3.397240528006431e+01, 8.032356868326650e+02, 1.744192044799916e+02, 8.446621998827745e+02
356, -1.499999999998322e-04, 8.400000000003200e-03, 9.462132107050452e-04, -3.797102252830265e-05, 4.230758502066978e+01, 6.054181655388248e+02, 1.810273830126787e+02, 6.694603643929713e+02
357, -9.999999999970726e-05, 8.400000000002326e-03, 9.455683010286860e-04, -4.592669407059358e-05, 4.813670359163547e+01, 4.091252853440395e+02, 1.768180860541198e+02, 5.053427533654565e+02
358, -4.999999999962035e-05, 8.400000000001451e-03, 9.449263133510834e-04, -5.388173485777222e-05, 5.114868227674682e+01, 2.149994150871786e+02, 1.619355704960685e+02, 3.629594724071329e+02
359, 4.359305885021092e-16, 8.400000000000581e-03, 9.442871851129475e-04, -6.183667521837066e-05, 5.103242745231573e+01, 2.368143080767808e+01, 1.365264132481634e+02, 2.744192469107955e+02
360, 5.000000000031294e-05, 8.399999999999703e-03, 9.436508387164786e-04, -6.979204335201825e-05, 4.747818872782123e+01, -1.641878458041710e+02, 1.007402022945874e+02, 2.922274176183955e+02
361, 1.000000000002240e-04, 8.399999999998832e-03, 9.430171815404500e-04, -7.774836521227266e-05, 4.017698543693115e+01, -3.479676725714317e+02, 5.472946450450011e+01, 4.032834396305238e+02
362, 1.500000000001277e-04, 8.399999999997958e-03, 9.423861059500029e-04, -8.570616438634737e-05, 2.882050080610993e+01, -5.270172714763312e+02, -1.350265925942580e+00, 5.558443324962394e+02
363, 2.000000000000511e-04, 8.399999999997083e-03, 9.417574893042796e-04, -9.366596197454686e-05, 1.310186941880761e+01, -7.006952369537992e+02, -6.734025481584301e+01, 7.263918699576401e+02
364, -1.999999999999233e-04, 8.300000000004210e-03, 9.309377755139129e-04, -2.876933882570847e-05, 3.698372932815354e+01, 8.909649937444583e+02, 1.915931775151316e+02, 9.360105675981706e+02
365, -1.499999999998365e-04, 8.300000000003279e-03, 9.302898921211268e-04, -3.671906718912565e-05, 4.546932967739009e+01, 6.705066971181508e+02, 1.968887667818081e+02, 7.387370686764821e+02
366, -9.999999999971485e-05, 8.300000000002344e-03, 9.296453084917315e-04, -4.466758738278695e-05, 5.125235091541116e+01, 4.517565449613994e+02, 1.907293464655143e+02, 5.530952394127754e+02
367, -4.999999999963053e-05, 8.300000000001409e-03, 9.290039724807044e-04, -5.261546404507949e-05, 5.401869255775584e+01, 2.353621372135930e+02, 1.732595285193952e+02, 3.911021628816403e+02
368, 4.231098978124681e-16, 8.300000000000474e-03, 9.283658167673716e-04, -6.056325975417106e-05, 5.345606295850281e+01, 2.197082755256374e+01, 1.446270239110218e+02, 2.909625821819783e+02
369, 5.000000000030276e-05, 8.299999999999542e-03, 9.277307588711331e-04, -6.851153494701116e-05, 4.925259636179404e+01, -1.877704854495450e+02, 1.049819780869112e+02, 3.166461814131153e+02
370, 1.000000000002164e-04, 8.299999999998609e-03, 9.270987011638775e-04, -7.646084781110018e-05, 4.109670822207459e+01, -3.932152466871341e+02, 5.447724741698895e+01, 4.477699812644723e+02
371, 1.500000000001233e-04, 8.299999999997672e-03, 9.264695308768087e-04, -8.441175417542892e-05, 2.867706327626529e+01, -5.937169407520488e+02, -6.731466842875131e+00, 6.225395945912388e+02
372, 2.000000000000492e-04, 8.299999999996739e-03, 9.258431201021711e-04, -9.236480739452924e-05, 1.168189040798217e+01, -7.886294377947529e+02, -7.848530323786918e+01, 8.155599262757992e+02
373, -1.999999999999252e-04, 8.200000000004194e-03, 9.150280561143795e-04, -2.752997574791050e-05, 4.018666760335850e+01, 9.839267272363136e+02, 2.095584464283459e+02, 1.032620099568985e+03
374, -1.499999999998408e-04, 8.200000000003217e-03, 9.143802307959964e-04, -3.547179456018129e-05, 4.877582363961260e+01, 7.394980016263942e+02, 2.133637539007220e+02, 8.119073180340442e+02
375, -9.999999999972244e-05, 8.200000000002240e-03, 9.137360542161560e-04, -4.341236214292189e-05, 5.446891847916642e+01, 4.969682201260638e+02, 2.050697510632588e+02, 6.033407355405233e+02
376, -4.999999999964069e-05, 8.200000000001265e-03, 9.130954695805415e-04, -5.135227564343490e-05, 5.694981929411353e+01, 2.569886250779658e+02, 1.848234884492875e+02, 4.203027615299303e+02
377, 4.102892071228270e-16, 8.200000000000287e-03, 9.124584048026635e-04, -5.929213015461118e-05, 5.590336784079952e+01, 2.021117604647882e+01, 1.527732440749109e+02, 3.076241033725604e+02
378, 5.000000000029257e-05, 8.199999999999309e-03, 9.118247725186559e-04, -6.723251860978893e-05, 5.101437371600785e+01, -2.127129954244336e+02, 1.090696782144625e+02, 3.422526903575256e+02
379, 1.000000000002088e-04, 8.199999999998328e-03, 9.111944700999778e-04, -7.517403169151039e-05, 4.196804454388493e+01, -4.411327157184171e+02, 5.386581672286911e+01, 4.949671195250258e+02
380, 1.500000000001190e-04, 8.199999999997352e-03, 9.105673796575172e-04, -8.311725773790827e-05, 2.844955036657653e+01, -6.643966825979206e+02, -1.268281832723852e+01, 6.933104052702377e+02
381, 2.000000000000473e-04, 8.199999999996377e-03, 9.099433680355399e-04, -9.106278264676291e-05, 1.014350129807644e+01, -8.818532646394456e+02, -9.041812369936335e+01, 9.101428342937453e+02
382, -1.999999999999271e-04, 8.100000000004175e-03, 8.991335365491707e-04, -2.629654163413327e-05, 4.348680878537920e+01, 1.082098911216900e+03, 2.283175785859903e+02, 1.134561926949209e+03
383, -1.499999999998452e-04, 8.100000000003150e-03, 8.984858375592096e-04, -3.422960141376089e-05, 5.216363058734346e+01, 8.123863088673027e+02, 2.304489465273400e+02, 8.890249650000824e+02
384, -9.999999999973005e-05, 8.100000000002133e-03, 8.978421553005624e-04, -4.216136896892750e-05, 5.774418293383675e+01, 5.447598737698236e+02, 2.198349697742685e+02, 6.561203691877486e+02
385, -4.999999999965090e-05, 8.100000000001112e-03, 8.972024282662386e-04, -5.009247421865114e-05, 5.991430563770665e+01, 2.798795780448503e+02, 1.966220557619059e+02, 4.505836795904852e+02
386, 3.974685164331859e-16, 8.100000000000092e-03, 8.965665795535172e-04, -5.802354499046967e-05, 5.835556015391909e+01, 1.840007493086837e+01, 1.609593029762366e+02, 3.243887014952790e+02
387, 5.000000000028236e-05, 8.099999999999071e-03, 8.959345168907650e-04, -6.595520693824513e-05, 5.275069044705398e+01, -2.390233570556175e+02, 1.129976966361691e+02, 3.690609876110044e+02
388, 1.000000000002012e-04, 8.099999999998051e-03, 8.953061326455226e-04, -7.388808346745264e-05, 4.278259934000369e+01, -4.917351756000363e+02, 5.289018089746200e+01, 5.448841497679266e+02
389, 1.500000000001146e-04, 8.099999999997031e-03, 8.946813038243146e-04, -8.182279565974392e-05, 2.813413995222876e+01, -7.390792699749545e+02, -1.920824860926306e+01, 7.681746179291771e+02
390, 2.000000000000454e-04, 8.099999999996011e-03, 8.940598920633135e-04, -8.975996220060220e-05, 8.487834765763850e+00, -9.803987225746021e+02, -1.031404858528523e+02, 1.010172491496542e+03
391, -1.999999999999291e-04, 8.000000000004158e-03, 8.832559131244612e-04, -2.506949546681826e-05, 4.688767015884684e+01, 1.185514089877036e+03, 2.478787055124668e+02, 1.241871786565105e+03
392, -1.499999999998495e-04, 8.000000000003093e-03, 8.826084153249564e-04, -3.299289998474552e-05, 5.562745218165041e+01, 8.891911490622477e+02, 2.481494910291081e+02, 9.701242788165185e+02
393, -9.999999999973761e-05, 8.000000000002028e-03, 8.819653213671302e-04, -4.091497356271463e-05, 6.107684156414481e+01, 5.951515505822766e+02, 2.350248275349570e+02, 7.114650188478329e+02
394, -4.999999999966106e-05, 8.000000000000966e-03, 8.813265649398516e-04, -4.883637906811307e-05, 6.291048871518146e+01, 3.040494640007043e+02, 2.086522357001055e+02, 4.819657946912432e+02
395, 3.846478257435448e-16, 7.999999999999901e-03, 8.806920642935500e-04, -5.675777722891079e-05, 6.081104415831294e+01, 1.654496424536538e+01, 1.691809809356320e+02, 3.412452242482380e+02
396, 5.000000000027218e-05, 7.999999999998840e-03, 8.800617222425600e-04, -6.467982659620248e-05, 5.446052106045427e+01, -2.667022118233974e+02, 1.167617257916930e+02, 3.970877779947933e+02
397, 1.000000000001936e-04, 7.999999999997775e-03, 8.794354261656495e-04, -7.260318348511417e-05, 4.354062915104423e+01, -5.450319764262047e+02, 5.154682017837459e+01, 5.975332716410011e+02
398, 1.500000000001103e-04, 7.999999999996709e-03, 8.788130479986860e-04, -8.052850191480746e-05, 2.773270083049069e+01, -8.177836148339819e+02, -2.630957948777677e+01, 8.471520618791639e+02
399, 2.000000000000435e-04, 7.999999999995648e-03, 8.781944442235093e-04, -8.845643354558324e-05, 6.717861374749774e+00, -1.084295378953231e+03, -1.166515072362710e+02, 1.115679249216788e+03
400, -1.999999999999309e-04, 7.900000000004136e-03, 8.673969741567530e-04, -2.384931023697370e-05, 5.053088326657021e+01, 1.294327592976093e+03, 2.682143294378239e+02, 1.354542712928374e+03
401, -1.499999999998538e-04, 7.900000000003030e-03, 8.667497598582339e-04, -3.176211675588355e-05, 5.927363124988064e+01, 9.700354821630845e+02, 2.664436134337600e+02, 1.055204219872817e+03
402, -9.999999999974523e-05, 7.900000000001926e-03, 8.661073553044939e-04, -3.967355595846476e-05, 6.452701359303207e+01, 6.482218673662510e+02, 2.506226773663386e+02, 7.693806521887764e+02
403, -4.999999999967128e-05, 7.900000000000816e-03, 8.654696894837131e-04, -4.758432376124551e-05, 6.597263907761943e+01, 3.295480698318540e+02, 2.209015694715677e+02, 5.144531283579561e+02
404, 3.718271350539037e-16, 7.899999999999709e-03, 8.648366758678242e-04, -5.549511395182290e-05, 6.328881127750782e+01, 1.467439650608455e+01, 1.774291487744595e+02, 3.581728251317863e+02
405, 5.000000000026201e-05, 7.899999999998603e-03, 8.642082124207162e-04, -6.340661813963218e-05, 5.615456482350319e+01, -2.957373513184331e+02, 1.203555641219087e+02, 4.263446585879258e+02
406, 1.000000000001860e-04, 7.899999999997496e-03, 8.635841815924528e-04, -7.131952571858440e-05, 4.424888219467375e+01, -6.010243131137297e+02, 4.983238296937093e+01, 6.529246221066726e+02
407, 1.500000000001060e-04, 7.899999999996389e-03, 8.629644503105216e-04, -7.923452381759804e-05, 2.725038552720551e+01, -9.005227288390395e+02, -3.398720418671543e+01, 9.302598948329221e+02
408, 2.000000000000416e-04, 7.899999999995286e-03, 8.623488699668185e-04, -8.715229724599540e-05, 4.837589923751700e+00, -1.193567586705004e+03, -1.309481749315636e+02, 1.226688495683492e+03
409, -1.999999999999328e-04, 7.800000000004094e-03, 8.515586081492683e-04, -2.263647534855807e-05, 5.419153987952178e+01, 1.408409045172098e+03, 2.893282465348884e+02, 1.472667100404114e+03
410, -1.499999999998583e-04, 7.800000000002947e-03, 8.509117648059375e-04, -3.053769406843221e-05, 6.293790765281732e+01, 1.054832563436739e+03, 2.853266660943539e+02, 1.144333969482153e+03
411, -9.999999999975283e-05, 7.800000000001799e-03, 8.502701564586947e-04, -3.843751150465807e-05, 6.799110459109221e+01, 7.039236836964187e+02, 2.666241972962562e+02, 8.299181257829259e+02
412, -4.999999999968147e-05, 7.800000000000654e-03, 8.496337073150897e-04, -4.633665674221348e-05, 6.903367200010499e+01, 3.563478948250216e+02, 2.333663820128320e+02, 5.480774905545037e+02
413, 3.590064443642627e-16, 7.799999999999507e-03, 8.490023260536761e-04, -5.423585672128752e-05, 6.574523751633390e+01, 1.276963249228403e+01, 1.857014133359353e+02, 3.751619308878763e+02
414, 5.000000000025183e-05, 7.799999999998360e-03, 8.483759057949555e-04, -6.213583624267436e-05, 5.780444017825324e+01, -3.261454443612820e+02, 1.237784677627766e+02, 4.568390856359878e+02
415, 1.000000000001784e-04, 7.799999999997211e-03, 8.477543240839725e-04, -7.003731792412941e-05, 4.488920321784491e+01, -6.597307095800747e+02, 4.774818065673337e+01, 7.110617248421264e+02
416, 1.500000000001016e-04, 7.799999999996065e-03, 8.471374428762505e-04, -7.794102215356536e-05, 2.667688614398851e+01, -9.873185615348384e+02, -4.223729766402839e+01, 1.017508095874044e+03
417, 2.000000000000397e-04, 7.799999999994919e-03, 8.465251085244216e-04, -8.584766704418922e-05, 2.843167926816953e+00, -1.308241376243214e+03, -1.460242250430713e+02, 1.343218142804532e+03
418, -1.999999999999347e-04, 7.700000000003952e-03, 8.357427937874703e-04, -2.143149554069878e-05, 5.797398827485951e+01, 1.527875543613974e+03, 3.112206922864806e+02, 1.596259333447248e+03
419, -1.499999999998626e-04, 7.700000000002785e-03, 8.350964157171945e-04, -2.932008930006353e-05, 6.667743091206150e+01, 1.143657498115735e+03, 3.048055275011228e+02, 1.237542606755412e+03
420, -9.999999999976044e-05, 7.700000000001617e-03, 8.344557170334857e-04, -3.720725039062478e-05, 7.149533769965413e+01, 7.623038029828313e+02, 2.830335377846509e+02, 8.931115662393362e+02
421, -4.999999999969162e-05, 7.700000000000449e-03, 8.338206172606682e-04, -4.509374101242695e-05, 7.210388961444461e+01, 3.844762353222242e+02, 2.460501079555247e+02, 5.828714308170215e+02
422, 3.461857536746216e-16, 7.699999999999279e-03, 8.331910203420741e-04, -5.298032135954075e-05, 6.818226572550749e+01, 1.084327741284763e+01, 1.940010667278077e+02, 3.922160312210970e+02
423, 5.000000000024164e-05, 7.699999999998113e-03, 8.325668146007733e-04, -6.086774954449211e-05, 5.940750204463410e+01, -3.579261923847311e+02, 1.270341092663483e+02, 4.885878346566161e+02
424, 1.000000000001708e-04, 7.699999999996944e-03, 8.319478727162234e-04, -6.875678154492103e-05, 4.545566851514110e+01, -7.211622904836377e+02, 4.529862535317650e+01, 7.719526908399264e+02
425, 1.500000000000973e-04, 7.699999999995776e-03, 8.313340517082570e-04, -7.664817114752233e-05, 2.600225132517502e+01, -1.078194123480922e+03, -5.105429597480619e+01, 1.108907479767748e+03
426, 2.000000000000377e-04, 7.699999999994609e-03, 8.307251929265557e-04, -8.454266989385757e-05, 7.228308181182683e-01, -1.428349307765083e+03, -1.618722818766685e+02, 1.465284177159709e+03
427, -1.999999999999367e-04, 7.600000000003967e-03, 8.199516048966518e-04, -2.023488933282988e-05, 6.186501752420541e+01, 1.652744500379080e+03, 3.338819010520736e+02, 1.725342291943596e+03
428, -1.499999999998669e-04, 7.600000000002791e-03, 8.193057928460219e-04, -2.810977406589907e-05, 7.049285465622756e+01, 1.236539189618444e+03, 3.248717424058840e+02, 1.334852295699474e+03
429, -9.999999999976803e-05, 7.600000000001615e-03, 8.186661237512623e-04, -3.598319699108218e-05, 7.503758056979534e+01, 8.233813927132031e+02, 2.998485427602063e+02, 9.589864730823920e+02
430, -4.999999999970180e-05, 7.600000000000435e-03, 8.180325125860363e-04, -4.385595361895235e-05, 7.518232499575934e+01, 4.139459063771162e+02, 2.589537268541859e+02, 6.188609655463919e+02
431, 3.333650629849805e-16, 7.599999999999259e-03, 8.174048586402881e-04, -5.172883752962231e-05, 7.060165582497544e+01, 8.902534845536280e+00, 2.023313479651883e+02, 4.093393201334022e+02
432, 5.000000000023146e-05, 7.599999999998081e-03, 8.167830455026888e-04, -5.960264029223573e-05, 6.096986099978295e+01, -3.910771181684332e+02, 1.301275325208628e+02, 5.216120879111052e+02
433, 1.000000000001632e-04, 7.599999999996904e-03, 8.161669410431945e-04, -6.747815139124505e-05, 4.596062209648137e+01, -7.853201775303492e+02, 4.249034617577987e+01, 8.356132394240611e+02
434, 1.500000000000929e-04, 7.599999999995727e-03, 8.155563973994245e-04, -7.535615815946090e-05, 2.524735229014532e+01, -1.173152400455414e+03, -6.043026286899824e+01, 1.204478822587712e+03
435, 2.000000000000358e-04, 7.599999999994550e-03, 8.149512509677909e-04, -8.323744571297981e-05, -1.495523588847774e+00, -1.553897637165129e+03, -1.784822022658472e+02, 1.592914281541469e+03
436, -1.999999999999386e-04, 7.500000000004145e-03, 8.041872108377253e-04, -1.904719029135501e-05, 6.578214233637735e+01, 1.782973052008052e+03, 3.573138229215126e+02, 1.859956260900287e+03
437, -1.499999999998712e-04, 7.500000000002950e-03, 8.035420714523163e-04, -2.690723442420428e-05, 7.431530363447078e+01, 1.333435854882648e+03, 3.455306645278833e+02, 1.436297435454034e+03
438, -9.999999999977570e-05, 7.500000000001755e-03, 8.029035580868692e-04, -3.476578980967366e-05, 7.858001638520821e+01, 8.871356331481423e+02, 3.170740706673172e+02, 1.027572893062609e+03
439, -4.999999999971198e-05, 7.500000000000564e-03, 8.022715811657823e-04, -4.262368544933116e-05, 7.824713605488731e+01, 4.447443439055124e+02, 2.720826887926230e+02, 6.560763381839020e+02
440, 3.205443722953394e-16, 7.499999999999370e-03, 8.016460353535672e-04, -5.048174847340787e-05, 7.299087878550057e+01, 6.937125343070676e+00, 2.106989293215279e+02, 4.265433783483060e+02
441, 5.000000000022125e-05, 7.499999999998177e-03, 8.010267995424467e-04, -5.834080405284689e-05, 6.248441612140317e+01, -4.256102219011691e+02, 1.330673157696654e+02, 5.559352640109829e+02
442, 1.000000000001556e-04, 7.499999999996980e-03, 8.004137368390473e-04, -6.620167532437450e-05, 4.640017982721933e+01, -8.522207345440195e+02, 3.933436190648830e+01, 9.020578228981575e+02
443, 1.500000000000885e-04, 7.499999999995787e-03, 7.998066945483224e-04, -7.406518332027469e-05, 2.440982947702541e+01, -1.272216275596873e+03, -7.035135550205800e+01, 1.304237903621505e+03
444, 2.000000000000339e-04, 7.499999999994593e-03, 7.992055041579803e-04, -8.193214689069682e-05, -3.816377271166147e+00, -1.684918122577300e+03, -1.958389216126875e+02, 1.726127055272876e+03
445, -1.999999999999404e-04, 7.400000000004559e-03, 7.884518724644272e-04, -1.786894488011646e-05, 6.988519770189259e+01, 1.918711522316987e+03, 3.814917401814699e+02, 2.000075641043734e+03
446, -1.499999999998756e-04, 7.400000000003323e-03, 7.878075197602696e-04, -2.571296948814992e-05, 7.826674180748458e+01, 1.434459823080988e+03, 3.667671240427171e+02, 1.541859969909195e+03
447, -9.999999999978329e-05, 7.400000000002085e-03, 7.871702953300137e-04, -3.355548046634575e-05, 8.219747242882229e+01, 9.536363121921660e+02, 3.347001352353714e+02, 1.098864128795906e+03
448, -4.999999999972218e-05, 7.400000000000849e-03, 7.865401051722735e-04, -4.139734052997950e-05, 8.134382284096884e+01, 4.769137641994551e+02, 2.854315370389961e+02, 6.945215819916120e+02
449, 3.077507866600104e-16, 7.399999999999613e-03, 7.859168394264984e-04, -4.923941053857527e-05, 7.537565986016185e+01, 4.968975026964642e+00, 2.191024794719544e+02, 4.438250638621415e+02
450, 5.000000000021107e-05, 7.399999999998373e-03, 7.853003723799646e-04, -5.708254942371099e-05, 6.396316083396607e+01, -4.615195840886962e+02, 1.358559349483458e+02, 5.915737109221575e+02
451, 1.000000000001480e-04, 7.399999999997137e-03, 7.846905624576206e-04, -6.492761412836440e-05, 4.677594647148410e+01, -9.218720117897766e+02, 3.583670210019761e+01, 9.712960125077125e+02
452, 1.500000000000842e-04, 7.399999999995899e-03, 7.840872522050633e-04, -7.277545954481727e-05, 2.348258444759711e+01, -1.375407086248234e+03, -8.080850144119971e+01, 1.408194718922131e+03
453, 2.000000000000320e-04, 7.399999999994663e-03, 7.834902682632078e-04, -8.062693845281373e-05, -6.250034698902056e+00, -1.821442357814800e+03, -2.139309072548690e+02, 1.864936701932389e+03
454, -1.999999999999424e-04, 7.300000000004963e-03, 7.727479511259163e-04, -1.670071361542786e-05, 7.406476205794510e+01, 2.059912758886424e+03, 4.063952586372421e+02, 2.145744787126142e+03
455, -1.499999999998800e-04, 7.300000000003675e-03, 7.721045048226876e-04, -2.452749205073875e-05, 8.228114882670246e+01, 1.539590262351997e+03, 3.885584562225107e+02, 1.651563062063318e+03
456, -9.999999999979085e-05, 7.300000000002383e-03, 7.714687085338419e-04, -3.235273402596556e-05, 8.585202658992642e+01, 1.022875907550091e+03, 3.527099433330374e+02, 1.172872955606713e+03
457, -4.999999999973237e-05, 7.300000000001096e-03, 7.708404638348600e-04, -4.017733616500771e-05, 8.444990690357838e+01, 5.104512107467553e+02, 2.989888805451253e+02, 7.342033190027103e+02
458, 2.949029909160572e-16, 7.299999999999806e-03, 7.702196563921016e-04, -4.800219321122391e-05, 7.774313738693820e+01, 2.995690445695516e+00, 2.275355275153036e+02, 4.611689993385331e+02
459, 5.000000000020089e-05, 7.299999999998517e-03, 7.696061559556093e-04, -5.582819800904989e-05, 6.539974181519037e+01, -4.988093938823284e+02, 1.384913163962210e+02, 6.285310872766549e+02
460, 1.000000000001404e-04, 7.299999999997227e-03, 7.689998163455929e-04, -6.365624145964628e-05, 4.708706381831220e+01, -9.942810725094316e+02, 3.199920307154790e+01, 1.043332828654200e+03
461, 1.500000000000799e-04, 7.299999999995936e-03, 7.684004754319322e-04, -7.148721247320947e-05, 2.247160065594527e+01, -1.482734482175115e+03, -9.179621554056438e+01, 1.516361280349081e+03
462, 2.000000000000302e-04, 7.299999999994650e-03, 7.678079551082640e-04, -7.932199792270780e-05, -8.781299803854637e+00, -1.963482789514186e+03, -2.327487468851234e+02, 2.009364534021184e+03
463, -1.999999999999443e-04, 7.200000000005343e-03, 7.570779050562247e-04, -1.554307174263441e-05, 7.830624507111378e+01, 2.206600722161192e+03, 4.320183472104200e+02, 2.296997342296640e+03
464, -1.499999999998843e-04, 7.200000000003976e-03, 7.564354907001439e-04, -2.335132900487972e-05, 8.633084770158425e+01, 1.648834531627882e+03, 4.108981798657233e+02, 1.765436778576652e+03
465, -9.999999999979844e-05, 7.200000000002606e-03, 7.558012676854508e-04, -3.115802925240172e-05, 8.952255432414029e+01, 1.094861185170616e+03, 3.710959957133625e+02, 1.249621828718686e+03
466, -4.999999999974257e-05, 7.200000000001237e-03, 7.551751331825599e-04, -3.896410303860653e-05, 8.755026516586531e+01, 5.453613409163098e+02, 3.127488173536028e+02, 7.751375826936068e+02
467, 2.821094052807283e-16, 7.199999999999870e-03, 7.545569684280169e-04, -4.677047909409156e-05, 8.008282721808609e+01, 1.018271784784332e+00, 2.359948752530354e+02, 4.785661171757238e+02
468, 5.000000000019069e-05, 7.199999999998501e-03, 7.539466386990447e-04, -5.457808429408209e-05, 6.678732261692062e+01, -5.374835896848490e+02, 1.409735791740478e+02, 6.668114692734214e+02
469, 1.000000000001328e-04, 7.199999999997132e-03, 7.533439932898457e-04, -6.238784362657901e-05, 4.732955512870423e+01, -1.069458084491160e+03, 2.782566397581112e+01, 1.118173377571872e+03
470, 1.500000000000756e-04, 7.199999999995762e-03, 7.527488654851162e-04, -7.020068015468888e-05, 2.137404367164572e+01, -1.594217195001668e+03, -1.033066432509334e+02, 1.628749244247583e+03
471, 2.000000000000282e-04, 7.199999999994395e-03, 7.521610725311094e-04, -7.801751497416673e-05, -1.141515314267740e+01, -2.111070221252312e+03, -2.522795548776330e+02, 2.159428466116787e+03
472, -1.999999999999461e-04, 7.100000000005715e-03, 7.414442885315701e-04, -1.439660741739660e-05, 8.267393546090696e+01, 2.358856509133589e+03, 4.583383083631571e+02, 2.453834372638870e+03
473, -1.499999999998886e-04, 7.100000000004259e-03, 7.408030379759520e-04, -2.218502038071525e-05, 9.045922760006266e+01, 1.762255624396330e+03, 4.337697130151226e+02, 1.883488212879993e+03
474, -9.999999999980600e-05, 7.100000000002804e-03, 7.401705395210865e-04, -2.997185797888976e-05, 9.323095638196034e+01, 1.169633099031095e+03, 3.898465078104755e+02, 1.329121052164828e+03
475, -4.999999999975274e-05, 7.100000000001348e-03, 7.395466860590475e-04, -3.775808477184107e-05, 9.065647259445086e+01, 5.816707649441053e+02, 3.267037860034707e+02, 8.173349927952665e+02
476, 2.692616095367750e-16, 7.099999999999895e-03, 7.389313545028398e-04, -4.554466355613996e-05, 8.240214560457889e+01, -9.470813729839165e-01, 2.444773422458290e+02, 4.960078397808790e+02
477, 5.000000000018050e-05, 7.099999999998441e-03, 7.383244057618958e-04, -5.333255533767000e-05, 6.813339687474613e+01, -5.775336990123724e+02, 1.433041262977104e+02, 7.064207592979598e+02
478, 1.000000000001252e-04, 7.099999999996985e-03, 7.377256847133549e-04, -6.112271930198584e-05, 4.751432427209977e+01, -1.147400257167951e+03, 2.332236313544266e+01, 1.195824647440810e+03
479, 1.500000000000712e-04, 7.099999999995530e-03, 7.371350201732878e-04, -6.891611278106506e-05, 2.020775481744164e+01, -1.709855733666836e+03, -1.153283473035155e+02, 1.745371646656788e+03
480, 2.000000000000263e-04, 7.099999999994075e-03, 7.365522248658822e-04, -7.671369121958181e-05, -1.412526862816766e+01, -2.264207357076897e+03, -2.725067066803855e+02, 2.315147732975361e+03
481, -1.999999999999481e-04, 7.000000000006086e-03, 7.258497555539612e-04, -1.326192219302930e-05, 8.707549418546867e+01, 2.516638279847593e+03, 4.853381466420321e+02, 2.616292758048684e+03
482, -1.499999999998929e-04, 7.000000000004546e-03, 7.252098059945429e-04, -2.102911938338655e-05, 9.460470142715855e+01, 1.879832583546235e+03, 4.571589308206832e+02, 2.005745682585856e+03
483, -9.999999999981362e-05, 7.000000000003004e-03, 7.245791889108717e-04, -2.879472503620655e-05, 9.693678797669185e+01, 1.247182805936886e+03, 4.089516790078836e+02, 1.411393568387908e+03
484, -4.999999999976293e-05, 7.000000000001462e-03, 7.239577929862135e-04, -3.655973778088380e-05, 9.373963482669785e+01, 6.193738390507581e+02, 3.408482883809374e+02, 8.608144628310562e+02
485, 2.564544713742900e-16, 6.999999999999921e-03, 7.233454908973449e-04, -4.432515455394121e-05, 8.467919674009465e+01, -2.907144825152500e+00, 2.529818114816603e+02, 5.134886123284074e+02
486, 5.000000000017032e-05, 6.999999999998381e-03, 7.227421392761281e-04, -5.209197057865395e-05, 6.941946477144481e+01, -6.189710254904335e+02, 1.454864549290819e+02, 7.473598205378157e+02
487, 1.000000000001176e-04, 6.999999999996837e-03, 7.221475786777119e-04, -5.986117933295249e-05, 4.762291922524921e+01, -1.228126427387946e+03, 1.849771279355159e+01, 1.276285648629791e+03
488, 1.500000000000668e-04, 6.999999999995296e-03, 7.215616335481323e-04, -6.763377251863768e-05, 1.895053098335896e+01, -1.829679705973176e+03, -1.278475694460096e+02, 1.866229824282900e+03
489, 2.000000000000244e-04, 6.999999999993755e-03, 7.209841121911517e-04, -7.541074002928984e-05, -1.693877222354740e+01, -2.422935192033101e+03, -2.934113618754805e+02, 2.476525727959814e+03
490, -1.999999999999499e-04, 6.900000000006458e-03, 7.102970566817869e-04, -1.213963037591342e-05, 9.154928713471622e+01, 2.680006191393679e+03, 5.130009093598737e+02, 2.784383033496311e+03
491, -1.499999999998973e-04, 6.900000000004828e-03, 7.096585510811060e-04, -1.988419186716328e-05, 9.878448220671038e+01, 2.001604724906177e+03, 4.810537184274982e+02, 2.132223158132972e+03
492, -9.999999999982122e-05, 6.900000000003202e-03, 7.090299778897462e-04, -2.762714778335231e-05, 1.006464044188976e+02, 1.327535919381505e+03, 4.284032787665251e+02, 1.496454262233503e+03
493, -4.999999999977310e-05, 6.900000000001573e-03, 7.084112217188319e-04, -3.536953086724439e-05, 9.680224006230756e+01, 6.584875684991446e+02, 3.551781884052210e+02, 9.055918452903913e+02
494, 2.436337806846489e-16, 6.899999999999946e-03, 7.078021511228746e-04, -4.311237227677089e-05, 8.691560461966736e+01, -4.851720621959231e+00, 2.615082946068236e+02, 5.310062095443701e+02
495, 5.000000000016015e-05, 6.899999999998319e-03, 7.072026185697970e-04, -5.085670153597866e-05, 7.064864543389174e+01, -6.617908393796451e+02, 1.475247933743844e+02, 7.896340022786117e+02
496, 1.000000000001100e-04, 6.899999999996692e-03, 7.066124604069926e-04, -5.860354650554258e-05, 4.766199400826082e+01, -1.311636120500737e+03, 1.336015585373728e+01, 1.359560715512720e+03
497, 1.500000000000625e-04, 6.899999999995065e-03, 7.060314968269651e-04, -6.635393335184394e-05, 1.761475926757132e+01, -1.953691353211105e+03, -1.408518185459250e+02, 1.991332400240243e+03
498, 2.000000000000225e-04, 6.899999999993437e-03, 7.054595318325932e-04, -7.410888651880375e-05, -1.983458097618038e+01, -2.587257122634788e+03, -3.149759512598096e+02, 2.643576726124066e+03
499, -1.999999999999519e-04, 6.800000000006828e-03, 6.947890410913731e-04, -1.103035846302141e-05, 9.605714491070754e+01, 2.848952357921133e+03, 5.413071604064994e+02, 2.958122009222254e+03
500, -1.499999999999017e-04, 6.800000000005111e-03, 6.941521277551928e-04, -1.875081583288675e-05, 1.029720294068008e+02, 2.127569829116390e+03, 5.054399103420110e+02, 2.262934878085331e+03
501, -9.999999999982880e-05, 6.800000000003401e-03, 6.935257664184119e-04, -2.646965559027817e-05, 1.043441069343228e+02, 1.410695370870217e+03, 4.481923646943264e+02, 1.584316637502768e+03
502, -4.999999999978328e-05, 6.800000000001686e-03, 6.929098377178469e-04, -3.418794471246175e-05, 9.983498112458673e+01, 6.990157432035526e+02, 3.696894767628129e+02, 9.516821016296250e+02
503, 2.308130899950078e-16, 6.799999999999972e-03, 6.923042062013200e-04, -4.190674864841055e-05, 8.910698932627420e+01, -6.778416234952800e+00, 2.700579689042735e+02, 5.485610606618438e+02
504, 5.000000000014997e-05, 6.799999999998255e-03, 6.917087202946324e-04, -4.962713130161801e-05, 7.182113035854144e+01, -7.059934230574016e+02, 1.494256854147117e+02, 8.332512354339885e+02
505, 1.000000000001024e-04, 6.799999999996542e-03, 6.911232122642680e-04, -5.735015500036333e-05, 4.763670467964764e+01, -1.397932861951454e+03, 7.921778214048025e+00, 1.445656387337711e+03
506, 1.500000000000582e-04, 6.799999999994830e-03, 6.905474981795286e-04, -6.507688046736931e-05, 1.621141621150437e+01, -2.081897557867333e+03, -1.543231899834890e+02, 2.120689476320584e+03
507, 2.000000000000206e-04, 6.799999999993115e-03, 6.899813778769001e-04, -7.280836678524267e-05, -2.279877754983232e+01, -2.757185904781159e+03, -3.371770461113107e+02, 2.816314329627604e+03
508, -1.999999999999538e-04, 6.700000000007203e-03, 6.793286554854748e-04, -9.934744519948344e-06, 1.006277150617096e+02, 3.023524149262029e+03, 5.702293958310569e+02, 3.137510130747047e+03
509, -1.499999999999060e-04, 6.700000000005407e-03, 6.786934882751479e-04, -1.762958072239908e-05, 1.071913850403442e+02, 2.257767637763214e+03, 5.302979919478951e+02, 2.397882828628500e+03
510, -9.999999999983645e-05, 6.700000000003612e-03, 6.780695122159060e-04, -2.532278925585646e-05, 1.080429440488456e+02, 1.496688917423156e+03, 4.683057272530964e+02, 1.674986165937167e+03
511, -4.999999999979346e-05, 6.700000000001816e-03, 6.774566041172942e-04, -3.301547136769505e-05, 1.028436166674499e+02, 7.409757096474818e+02, 3.843757172871755e+02, 9.990952588473226e+02
512, 2.179923993053667e-16, 6.700000000000018e-03, 6.768546246718498e-04, -4.070872687234040e-05, 9.125473374493151e+01, -8.678860710243100e+00, 2.786309868151920e+02, 5.661515967964431e+02
513, 5.000000000013978e-05, 6.699999999998221e-03, 6.762634184109018e-04, -4.840365413112941e-05, 7.293557614365858e+01, -7.515787956296953e+02, 1.511957619140882e+02, 8.782167061403096e+02
514, 1.000000000000948e-04, 6.699999999996424e-03, 6.756828136623000e-04, -5.610135002672344e-05, 4.754351434728324e+01, -1.487025208544758e+03, 2.195625272095789e+00, 1.534575005778425e+03
515, 1.500000000000538e-04, 6.699999999994629e-03, 6.751126225095087e-04, -6.380290993144528e-05, 1.473395440012882e+01, -2.214316463648845e+03, -1.682423473877398e+02, 2.254304264295849e+03
516, 2.000000000000187e-04, 6.699999999992831e-03, 6.745526407504965e-04, -7.150942767198303e-05, -2.583977867799541e+01, -2.932748246934282e+03, -3.599895012278871e+02, 2.994743162075392e+03
517, -1.999999999999557e-04, 6.600000000007607e-03, 6.639189467075821e-04, -8.853437915015517e-06, 1.052422254486567e+02, 3.203742047398048e+03, 5.997390240392797e+02, 3.322566588413657e+03
518, -1.499999999999103e-04, 6.600000000005753e-03, 6.632856843754901e-04, -1.652108728894146e-05, 1.114245707777801e+02, 2.392216076087021e+03, 5.556037752672892e+02, 2.537083386697380e+03
519, -9.999999999984406e-05, 6.600000000003900e-03, 6.626642719477411e-04, -2.418710078847036e-05, 1.117271435519797e+02, 1.585528855209262e+03, 4.887279105082089e+02, 1.768477132258943e+03
520, -4.999999999980367e-05, 6.600000000002050e-03, 6.620545825756561e-04, -3.185261398666423e-05, 1.058159991276533e+02, 7.843754299850568e+02, 3.992292469881967e+02, 1.047844868197852e+03
521, 2.051717086157256e-16, 6.600000000000198e-03, 6.614564732539059e-04, -3.951876113495543e-05, 9.335036065107263e+01, -1.054932778260243e+01, 2.872269127383427e+02, 5.837742225050819e+02
522, 5.000000000012958e-05, 6.599999999998345e-03, 6.608697847698166e-04, -4.718667514018511e-05, 7.398722704398617e+01, -7.985474231122683e+02, 1.528413448765933e+02, 9.245315692490118e+02
523, 1.000000000000872e-04, 6.599999999996491e-03, 6.602943416591534e-04, -5.485748753287255e-05, 4.738165112318310e+01, -1.578917707627670e+03, -3.805589412653461e+00, 1.626317169040697e+03
524, 1.500000000000495e-04, 6.599999999994639e-03, 6.597299521633538e-04, -6.253232843476898e-05, 1.318684601502162e+01, -2.350955833602560e+03, -1.825905347191973e+02, 2.392180558207421e+03
525, 2.000000000000168e-04, 6.599999999992787e-03, 6.591764081867099e-04, -7.021232652809425e-05, -2.894597091844139e+01, -3.113954419797456e+03, -3.833885709686379e+02, 3.178871547428804e+03
526, -1.999999999999576e-04, 6.500000000008018e-03, 6.485630615032334e-04, -7.787099739049487e-06, 1.098252520522024e+02, 3.389576964901549e+03, 6.298184805069974e+02, 3.513325571519212e+03
527, -1.499999999999147e-04, 6.500000000006126e-03, 6.479318671060329e-04, -1.542594765809124e-05, 1.156078670073488e+02, 2.530889321932505e+03, 5.813463902850405e+02, 2.680566919234654e+03
528, -9.999999999985163e-05, 6.500000000004228e-03, 6.473132011622448e-04, -2.306315328491972e-05, 1.153541112077569e+02, 1.677200879370386e+03, 5.094521763010135e+02, 1.864814040855390e+03
529, -4.999999999981387e-05, 6.500000000002332e-03, 6.467069332913456e-04, -3.069988656217831e-05, 1.087240521724917e+02, 8.292062722992877e+02, 4.142481917765349e+02, 1.097953044114070e+03
530, 1.923510179260846e-16, 6.500000000000438e-03, 6.461129169145549e-04, -3.833731625296228e-05, 9.537585351876743e+01, -1.239669884043769e+01, 2.958492326114259e+02, 6.014332854017110e+02
531, 5.000000000011942e-05, 6.499999999998543e-03, 6.455309892067041e-04, -4.597660989004029e-05, 7.496516535710802e+01, -8.469072800590018e+02, 1.543716488788837e+02, 9.721991717378800e+02
532, 1.000000000000796e-04, 6.499999999996646e-03, 6.449609710495376e-04, -5.361893374066495e-05, 4.714542829786660e+01, -1.673621467874470e+03, -1.006673415841657e+01, 1.720884675830732e+03
533, 1.500000000000451e-04, 6.499999999994751e-03, 6.444026669848666e-04, -6.126545277333837e-05, 1.156794900438376e+01, -2.491831979688012e+03, -1.973465401982288e+02, 2.534323150407213e+03
534, 2.000000000000149e-04, 6.499999999992855e-03, 6.438558651686268e-04, -6.891733062199085e-05, -3.211766795929995e+01, -3.300827914264221e+03, -4.073468475021908e+02, 3.368707836987154e+03
535, -1.999999999999595e-04, 6.400000000008258e-03, 6.332642431283755e-04, -6.736400990031078e-06, 1.144439671004507e+02, 3.581100449945278e+03, 6.604402670919869e+02, 3.709775270233523e+03
536, -1.499999999999190e-04, 6.400000000006336e-03, 6.326352848056360e-04, -1.434478397817538e-05, 1.197917676889504e+02, 2.673842171234648e+03, 6.075079607687939e+02, 2.828327624841537e+03
537, -9.999999999985919e-05, 6.400000000004416e-03, 6.320195531340456e-04, -2.195151985234709e-05, 1.189546647399694e+02, 1.771741422886127e+03, 5.304674136781447e+02, 1.963997651679045e+03
538, -4.999999999982406e-05, 6.400000000002495e-03, 6.314169143866614e-04, -2.955781304860110e-05, 1.115870409957254e+02, 8.754919823619017e+02, 4.294279441850998e+02, 1.149427769123326e+03
539, 1.795438797635995e-16, 6.400000000000575e-03, 6.308272185865142e-04, -3.716486692380874e-05, 9.734437746385834e+01, -1.420675289459149e+01, 3.045000366449909e+02, 6.191322507764000e+02
540, 5.000000000010922e-05, 6.399999999998654e-03, 6.302502994685002e-04, -4.477388371857446e-05, 7.588051137542698e+01, -8.966515149995578e+02, 1.557956204086166e+02, 1.021228497290913e+03
541, 1.000000000000720e-04, 6.399999999996736e-03, 6.296859744317020e-04, -5.238606452474286e-05, 4.684704382380303e+01, -1.771135530456976e+03, -1.657188383720886e+01, 1.818284672355850e+03
542, 1.500000000000408e-04, 6.399999999994814e-03, 6.291340444901448e-04, -6.000260925248101e-05, 9.893277689049881e+00, -2.636948538279262e+03, -2.124874878861318e+02, 2.680741563222958e+03
543, 2.000000000000129e-04, 6.399999999992895e-03, 6.285942942225668e-04, -6.762471659735925e-05, -3.533373004085109e+01, -3.493376828173251e+03, -4.318343654381947e+02, 3.564265105913807e+03
544, -1.999999999999615e-04, 6.300000000008254e-03, 6.180258355136210e-04, -5.702022054296774e-06, 1.190814333228279e+02, 3.778323876529872e+03, 6.915661023644561e+02, 3.911918960551984e+03
545, -1.499999999999234e-04, 6.300000000006307e-03, 6.173992858373768e-04, -1.327822773048539e-05, 1.239724715481232e+02, 2.821092303745986e+03, 6.340577608696251e+02, 2.980364468602965e+03
546, -9.999999999986685e-05, 6.300000000004357e-03, 6.167866806722054e-04, -2.085278294745555e-05, 1.225278147209469e+02, 1.869166010310719e+03, 5.517530541035801e+02, 2.066027762916948e+03
547, -4.999999999983422e-05, 6.300000000002410e-03, 6.161878831121889e-04, -2.842692673497249e-05, 1.144039572522998e+02, 9.232431134628773e+02, 4.447575896649940e+02, 1.202272030315061e+03
548, 1.667096365468024e-16, 6.300000000000461e-03, 6.156027399697130e-04, -3.600189713026377e-05, 9.925488452057999e+01, -1.597455346426563e+01, 3.131775127978809e+02, 6.368661095296019e+02
549, 5.000000000009904e-05, 6.299999999998514e-03, 6.150310817260544e-04, -4.357893116876417e-05, 7.673230078002246e+01, -9.477814055955080e+02, 1.571201773607511e+02, 1.071622757824237e+03
550, 1.000000000000644e-04, 6.299999999996569e-03, 6.144727224815468e-04, -5.115926485744125e-05, 4.648557731996965e+01, -1.871468125553212e+03, -2.330561765865059e+01, 1.918520006052258e+03
551, 1.500000000000364e-04, 6.299999999994618e-03, 6.139274599039087e-04, -5.874413314555090e-05, 8.161701560117933e+00, -2.786321647811926e+03, -2.279895070331578e+02, 2.831440278583761e+03
552, 2.000000000000111e-04, 6.299999999992672e-03, 6.133950751752765e-04, -6.633476989258421e-05, -3.859527920059986e+01, -3.691625496333403e+03, -4.568195353857624e+02, 3.765549909233124e+03
553, -1.999999999999633e-04, 6.200000000008235e-03, 6.028512839055006e-04, -4.684652950145846e-06, 1.237155043264519e+02, 3.981267084397826e+03, 7.231608287072989e+02, 4.119775543596721e+03
554, -1.499999999999277e-04, 6.200000000006244e-03, 6.022273192810270e-04, -1.222691977050222e-05, 1.281244682474916e+02, 2.972650747278040e+03, 6.609676911969234e+02, 3.136692989012496e+03
555, -9.999999999987445e-05, 6.200000000004252e-03, 6.016180367526421e-04, -1.976753422612738e-05, 1.260536068420028e+02, 1.969482693909508e+03, 5.732895547925236e+02, 2.170915579561623e+03
556, -4.999999999984441e-05, 6.200000000002263e-03, 6.010232964163921e-04, -2.730776996500647e-05, 1.171605963727555e+02, 9.724649945328545e+02, 4.602264870974249e+02, 1.256494843290713e+03
557, 1.538618408028491e-16, 6.200000000000271e-03, 6.004429420544338e-04, -3.484889978095287e-05, 1.010979052214440e+02, -1.769821214945227e+01, 3.218797699294134e+02, 6.546287976110187e+02
558, 5.000000000008886e-05, 6.199999999998280e-03, 5.998768010782111e-04, -4.239219558854689e-05, 7.751508839662657e+01, -1.000299201784433e+03, 1.583519799766108e+02, 1.123381076201906e+03
559, 1.000000000000568e-04, 6.199999999996288e-03, 5.993246844751015e-04, -4.993892839980608e-05, 4.605917405819196e+01, -1.974626309722907e+03, -3.025292880484041e+01, 2.021591151338157e+03
560, 1.500000000000321e-04, 6.199999999994299e-03, 5.987863867539092e-04, -5.749036829851898e-05, 6.374637328118240e+00, -2.939963875026822e+03, -2.438295185217803e+02, 2.986422938198167e+03
561, 2.000000000000091e-04, 6.199999999992307e-03, 5.982616858879671e-04, -6.504778441464527e-05, -4.189620275543635e+01, -3.895591812236290e+03, -4.822707966469395e+02, 3.972569739567312e+03
562, -1.999999999999653e-04, 6.100000000008216e-03, 5.877441342304413e-04, -3.684992852378769e-06, 1.283067771606721e+02, 4.189929212587913e+03, 7.551949506116315e+02, 4.333365258281737e+03
563, -1.499999999999321e-04, 6.100000000006179e-03, 5.871229345478789e-04, -1.119150995906672e-05, 1.322142236166323e+02, 3.128516786692285e+03, 6.882163228772349e+02, 3.297331629938422e+03
564, -9.999999999988203e-05, 6.100000000004146e-03, 5.865171743598775e-04, -1.869637411951283e-05, 1.295079155328940e+02, 2.072692831687671e+03, 5.950624146401658e+02, 2.278676090988139e+03
565, -4.999999999985460e-05, 6.100000000002112e-03, 5.859267109407317e-04, -2.620089365922291e-05, 1.198411157568779e+02, 1.023159696428379e+03, 4.758274372701835e+02, 1.312109545130595e+03
566, 1.410275975860520e-16, 6.100000000000079e-03, 5.853513852168119e-04, -3.370637618834056e-05, 1.028646227759203e+02, -1.937651330611891e+01, 3.306074967820034e+02, 6.724196331640512e+02
567, 5.000000000007866e-05, 6.099999999998046e-03, 5.847910217134367e-04, -4.121412857106334e-05, 7.822655306674505e+01, -1.054205604166282e+03, 1.595000024781872e+02, 1.176504821026082e+03
568, 1.000000000000492e-04, 6.099999999996011e-03, 5.842454284981668e-04, -4.872545690320537e-05, 4.557229071503508e+01, -2.080613194601318e+03, -3.739630806014468e+01, 2.127500564840361e+03
569, 1.500000000000277e-04, 6.099999999993980e-03, 5.837143971219109e-04, -5.624166649068853e-05, 4.544517488484701e+00, -3.097880607194664e+03, -2.599812632878605e+02, 3.145695898097631e+03
570, 2.000000000000072e-04, 6.099999999991945e-03, 5.831977025590555e-04, -6.376406182602147e-05, -4.521681931817085e+01, -4.105284905974214e+03, -5.081530709101825e+02, 4.185335236535378e+03
571, -1.999999999999672e-04, 6.000000000008407e-03, 5.727080317500492e-04, -2.703748753572167e-06, 1.328803253116470e+02, 4.404352325860864e+03, 7.876312639945313e+02, 4.552683283906582e+03
572, -1.499999999999365e-04, 6.000000000006308e-03, 5.720897805943228e-04, -1.017265597262222e-05, 1.362612432025489e+02, 3.288724635688206e+03, 7.157768720593269e+02, 3.462278377493975e+03
573, -9.999999999988962e-05, 6.000000000004209e-03, 5.714877460617122e-04, -1.763991085062106e-05, 1.329017243837495e+02, 2.178821231295849e+03, 6.170535441936106e+02, 2.389310974814922e+03
574, -4.999999999986476e-05, 6.000000000002106e-03, 5.709017828079071e-04, -2.510685646796866e-05, 1.224507544203984e+02, 1.075343563349888e+03, 4.915512189680395e+02, 1.369122021145447e+03
575, 1.282204594235670e-16, 6.000000000000007e-03, 5.703317291131262e-04, -3.257483530871681e-05, 1.045572341979154e+02, -2.100071009218686e+01, 3.393606032479152e+02, 6.902371139843988e+02
576, 5.000000000006848e-05, 5.999999999997906e-03, 5.697774068292524e-04, -4.004518924687753e-05, 7.886762591657333e+01, -1.109499185766063e+03, 1.605735314518374e+02, 1.230995985013928e+03
577, 1.000000000000416e-04, 5.999999999995806e-03, 5.692386213185640e-04, -4.751925953168951e-05, 4.502550126810269e+01, -2.189434938369461e+03, -4.471688340134368e+01, 2.236249506416896e+03
578, 1.500000000000234e-04, 5.999999999993707e-03, 5.687151613901377e-04, -5.499838676967142e-05, 2.671413508670582e+00, -3.260086586338235e+03, -2.764161057648027e+02, 3.309261733328099e+03
579, 2.000000000000053e-04, 5.999999999991606e-03, 5.682067992349248e-04, -6.248391090383088e-05, -4.855732079844958e+01, -4.320728408716339e+03, -5.344280685765532e+02, 4.403850502273140e+03
580, -1.999999999999690e-04, 5.900000000008779e-03, 5.577467233888147e-04, -1.741634688270832e-06, 1.374338177904360e+02, 4.624563279994853e+03, 8.204233803955523e+02, 4.777730518036945e+03
581, -1.499999999999408e-04, 5.900000000006594e-03, 5.571316075452517e-04, -9.171022522113336e-06, 1.402666977712991e+02, 3.453300946491031e+03, 7.436124641002942e+02, 3.631533274011291e+03
582, -9.999999999989724e-05, 5.900000000004408e-03, 5.565335051399466e-04, -1.659875969233551e-05, 1.362344552281486e+02, 2.287888876689594e+03, 6.392378166585811e+02, 2.502821746425483e+03
583, -4.999999999987495e-05, 5.900000000002220e-03, 5.559522684321893e-04, -2.402622407770099e-05, 1.249878510297071e+02, 1.129031458342348e+03, 5.073841699366370e+02, 1.427535761021258e+03
584, 1.153862162067698e-16, 5.900000000000033e-03, 5.553877332933304e-04, -3.145479308493971e-05, 1.061744263243210e+02, -2.256184890861323e+01, 3.481364667412386e+02, 7.080741673448792e+02
585, 5.000000000005830e-05, 5.899999999997847e-03, 5.548397191385697e-04, -3.888584365854595e-05, 7.943868346872364e+01, -1.166176607013947e+03, 1.615806133714306e+02, 1.286852994849909e+03
586, 1.000000000000340e-04, 5.899999999995659e-03, 5.543080288592534e-04, -4.632075227123312e-05, 4.442201013140726e+01, -2.301093562938499e+03, -5.219621868968264e+01, 2.347837533666982e+03
587, 1.500000000000191e-04, 5.899999999993472e-03, 5.537924487553391e-04, -5.376089490854492e-05, 7.626682216653649e-01, -3.426588688612101e+03, -2.931054479963256e+02, 3.477122450787542e+03
588, 2.000000000000034e-04, 5.899999999991286e-03, 5.532927484675305e-04, -6.120764705191022e-05, -5.190415543612210e+01, -4.541933129517161e+03, -5.610569980896112e+02, 4.628120569789483e+03
589, -1.999999999999710e-04, 5.800000000009150e-03, 5.428640589190260e-04, -7.993717472653694e-07, 1.419236657519118e+02, 4.850566288151749e+03, 8.535281189562321e+02, 5.008528361193163e+03
590, -1.499999999999452e-04, 5.800000000006880e-03, 5.422522675653510e-04, -8.187281195238140e-06, 1.441912029053680e+02, 3.622248971364457e+03, 7.716895381976016e+02, 3.805115611146806e+03
591, -9.999999999990477e-05, 5.800000000004606e-03, 5.416583062159155e-04, -1.557354264893078e-05, 1.394761785447081e+02, 2.399899859063539e+03, 6.615926131948970e+02, 2.619223999352959e+03
592, -4.999999999988512e-05, 5.800000000002332e-03, 5.410820249718759e-04, -2.295956876444533e-05, 1.274308329411522e+02, 1.184226673386353e+03, 5.233147954641009e+02, 1.487363758126711e+03
593, 1.025655255171287e-16, 5.800000000000059e-03, 5.405232575325889e-04, -3.034677191030397e-05, 1.077016779000148e+02, -2.405882473976845e+01, 3.569345290798279e+02, 7.259268986982382e+02
594, 5.000000000004811e-05, 5.799999999997786e-03, 5.399818211129485e-04, -3.773656416037514e-05, 7.993129554259593e+01, -1.224240060998173e+03, 1.625314425662311e+02, 1.344071726699148e+03
595, 1.000000000000264e-04, 5.799999999995513e-03, 5.394575163697390e-04, -4.513035728090375e-05, 4.375888208930166e+01, -2.415595423554746e+03, -5.981350813094373e+01, 2.462262013618705e+03
596, 1.500000000000147e-04, 5.799999999993240e-03, 5.389501273305815e-04, -5.252956271415395e-05, -1.179582388130257e+00, -3.597398224482496e+03, -3.100179221217353e+02, 3.649278417700375e+03
597, 2.000000000000015e-04, 5.799999999990969e-03, 5.384594213243031e-04, -5.993559156037381e-05, -5.525120590755324e+01, -4.768916675896511e+03, -5.879978702193358e+02, 4.858148633429831e+03
598, -1.999999999999729e-04, 5.700000000009518e-03, 5.280639895433586e-04, 1.223126182179721e-07, 1.463179200342535e+02, 5.082370011856896e+03, 8.869077945917700e+02, 5.245095995081237e+03
599, -1.499999999999495e-04, 5.700000000007160e-03, 5.274557139161040e-04, -7.222109864888288e-06, 1.480036078670986e+02, 3.795573962183512e+03, 7.999816821820860e+02, 3.983045600667343e+03
600, -9.999999999991239e-05, 5.700000000004800e-03, 5.268661046601814e-04, -1.456488782983980e-05, 1.426017234980524e+02, 2.514858355877569e+03, 6.841013118406083e+02, 2.738536096040506e+03
601, -4.999999999989533e-05, 5.700000000002444e-03, 5.262950099773766e-04, -2.190746872838426e-05, 1.297612916932902e+02, 1.240932206082540e+03, 5.393362583087595e+02, 1.548623646691027e+03
602, 8.974483482748763e-17, 5.700000000000083e-03, 5.257422616346262e-04, -2.925129993216653e-05, 1.091268535566176e+02, -2.549078267317344e+01, 3.657580158060610e+02, 7.437994437277050e+02
603, 5.000000000003792e-05, 5.699999999997726e-03, 5.252076748848661e-04, -3.659782870084200e-05, 8.033917502010706e+01, -1.283691722055652e+03, 1.634395475520739e+02, 1.402651143725127e+03
604, 1.000000000000188e-04, 5.699999999995369e-03, 5.246910483908859e-04, -4.394850216109382e-05, 4.303547272260221e+01, -2.532946448809721e+03, -6.754475077067983e+01, 2.579521667574835e+03
605, 1.500000000000104e-04, 5.699999999993010e-03, 5.241921641508892e-04, -5.130476728721588e-05, -3.150453354726096e+00, -3.772525493046868e+03, -3.271189734362197e+02, 3.825730712031625e+03
606, 1.999999999999996e-04, 5.699999999990651e-03, 5.237107874253136e-04, -5.866807088059681e-05, -5.858808738474886e+01, -5.001694067261843e+03, -6.152055798835240e+02, 5.093938392872060e+03
607, -1.999999999999748e-04, 5.600000000009672e-03, 5.133505669191065e-04, 1.022685959323157e-06, 1.506139008221409e+02, 5.319994731785153e+03, 9.205210217153857e+02, 5.487434189237042e+03
608, -1.499999999999538e-04, 5.600000000007281e-03, 5.127460002827324e-04, -6.276191413101070e-06, 1.517030271759367e+02, 3.973293969108684e+03, 8.284602552255540e+02, 4.165326266382500e+03
609, -9.999999999991998e-05, 5.600000000004890e-03, 5.121609561664060e-04, -1.357342830731886e-05, 1.456094458526783e+02, 2.632778639279974e+03, 7.067460595904945e+02, 2.860763983225556e+03
610, -4.999999999990553e-05, 5.600000000002499e-03, 5.115952811365379e-04, -2.087050705536338e-05, 1.319773184850736e+02, 1.299157957763966e+03, 5.554412847168250e+02, 1.611325767118181e+03
611, 7.692414413784654e-17, 5.600000000000110e-03, 5.110488052865369e-04, -2.816891008959120e-05, 1.104489207159099e+02, -2.685241938319535e+01, 3.746104122932547e+02, 7.616977760155921e+02
612, 5.000000000002774e-05, 5.599999999997718e-03, 5.105213421650287e-04, -3.547011991374565e-05, 8.066314506743828e+01, -1.344531183346405e+03, 1.643193890607483e+02, 1.462594379938668e+03
613, 1.000000000000112e-04, 5.599999999995330e-03, 5.100126886989841e-04, -4.277561908090574e-05, 4.225524179699818e+01, -2.653151487654095e+03, -7.536435784198245e+01, 2.699617858679628e+03
614, 1.500000000000060e-04, 5.599999999992939e-03, 5.095226251156766e-04, -5.008689017308208e-05, -5.143210267316874e+00, -3.951980966891817e+03, -3.443718330317957e+02, 4.006481762676505e+03
615, 1.999999999999977e-04, 5.599999999990549e-03, 5.090509148646259e-04, -5.740541577948395e-05, -6.190430544736176e+01, -5.240281766367862e+03, -6.426323370984833e+02, 5.335494204898744e+03
616, -1.999999999999767e-04, 5.500000000009695e-03, 4.987279440861178e-04, 1.901012073305566e-06, 1.548319111866558e+02, 5.563480087488089e+03, 9.543149090452166e+02, 5.735533355975950e+03
617, -1.499999999999582e-04, 5.500000000007305e-03, 4.981272815163098e-04, -5.350212485932590e-06, 1.553068849686894e+02, 4.155442011114282e+03, 8.570855964718130e+02, 4.351949437452323e+03
618, -9.999999999992762e-05, 5.500000000004914e-03, 4.975470173235934e-04, -1.259980096256097e-05, 1.485106137707137e+02, 2.753685102079677e+03, 7.295007630186871e+02, 2.985903475920690e+03
619, -4.999999999991570e-05, 5.500000000002524e-03, 4.969869967183515e-04, -1.984927065539983e-05, 1.340859074769438e+02, 1.358920582599118e+03, 5.716170146226635e+02, 1.675471285043747e+03
620, 6.410345344820545e-17, 5.500000000000133e-03, 4.964470484077357e-04, -2.710013912545220e-05, 1.116728371761357e+02, -2.813399182479930e+01, 3.834917506317526e+02, 7.796214726684495e+02
621, 5.000000000001756e-05, 5.499999999997745e-03, 4.959269845218810e-04, -3.435392418610858e-05, 8.090803358272171e+01, -1.406755101346597e+03, 1.651836414405899e+02, 1.523904243916271e+03
622, 1.000000000000036e-04, 5.499999999995354e-03, 4.954266005349781e-04, -4.161214388762686e-05, 4.142441218330583e+01, -2.776213365329332e+03, -8.324720393802774e+01, 2.822552574022378e+03
623, 1.500000000000017e-04, 5.499999999992964e-03, 4.949456751841167e-04, -4.887631649940893e-05, -7.148945709926807e+00, -4.135773584074546e+03, -3.617391085710663e+02, 4.191534579982675e+03
624, 1.999999999999958e-04, 5.499999999990576e-03, 4.944839703867448e-04, -5.614796049054688e-05, -6.518686859699551e+01, -5.484694755939629e+03, -6.702286933353882e+02, 5.582821127928895e+03
625, -1.999999999999786e-04, 5.400000000009719e-03, 4.842003776767968e-04, 2.756551396757354e-06, 1.589433220186965e+02, 5.812836433585644e+03, 9.882334736330944e+02, 5.989401381662437e+03
626, -1.499999999999625e-04, 5.400000000007331e-03, 4.836038152347507e-04, -4.444862948171129e-06, 1.587929320817144e+02, 4.342028354668424e+03, 8.858139937511536e+02, 4.542920242188462e+03
627, -9.999999999993521e-05, 5.400000000004939e-03, 4.830285467688157e-04, -1.164464581792497e-05, 1.512894437294971e+02, 2.877587170421915e+03, 7.523357915789413e+02, 3.113958231532834e+03
628, -4.999999999992589e-05, 5.400000000002551e-03, 4.824744164102460e-04, -1.884434951762589e-05, 1.360763345089906e+02, 1.420227237386031e+03, 5.878479470109933e+02, 1.741064150621704e+03
629, 5.128276275856436e-17, 5.400000000000158e-03, 4.819412517691021e-04, -2.604552679505838e-05, 1.127921317647786e+02, -2.933170681726489e+01, 3.924003980955006e+02, 7.975659691808097e+02
630, 5.000000000000737e-05, 5.399999999997771e-03, 4.814288638499487e-04, -3.324973083956375e-05, 8.107133717724457e+01, -1.470363871926746e+03, 1.660442500160102e+02, 1.586579332999475e+03
631, 9.999999999999598e-05, 5.399999999995381e-03, 4.809370469678962e-04, -4.045851527197747e-05, 4.054450518841929e+01, -2.902137326936318e+03, -9.116801207630449e+01, 2.948325421458896e+03
632, 1.499999999999973e-04, 5.399999999992991e-03, 4.804655786635871e-04, -4.767343413066318e-05, -9.161787936274095e+00, -4.323913986745968e+03, -3.791823735850027e+02, 4.380890734415014e+03
633, 1.999999999999938e-04, 5.399999999990601e-03, 4.800142196170925e-04, -5.489604185572368e-05, -6.842503418409052e+01, -5.734949643248528e+03, -6.979431711568357e+02, 5.835923219662053e+03
634, -1.999999999999805e-04, 5.300000000009745e-03, 4.697722275786994e-04, 3.588561559204179e-06, 1.629206657301597e+02, 6.068077841371143e+03, 1.022223452185008e+03, 6.249051481129944e+03
635, -1.499999999999669e-04, 5.300000000007331e-03, 4.691799617424321e-04, -3.560835317958849e-06, 1.621345044823703e+02, 4.533062899669222e+03, 9.146051888509634e+02, 4.738251327414274e+03
636, -9.999999999994280e-05, 5.300000000004915e-03, 4.686099052553742e-04, -1.070860539261465e-05, 1.539247741654248e+02, 3.004492994384689e+03, 7.752238855499153e+02, 3.244938746576344e+03
637, -4.999999999993605e-05, 5.300000000002501e-03, 4.680619014628233e-04, -1.785633598914416e-05, 1.379331878993341e+02, 1.483083822760669e+03, 6.041202058592064e+02, 1.808113691939014e+03
638, 3.846207206892327e-17, 5.300000000000087e-03, 4.675357771718428e-04, -2.500561508593899e-05, 1.137967481381751e+02, -3.044277191753696e+01, 4.013360354656166e+02, 8.155289649049487e+02
639, 4.999999999999720e-05, 5.299999999997673e-03, 4.670313425596742e-04, -3.215803130754846e-05, 8.114805579420766e+01, -1.535358626665270e+03, 1.669144907559247e+02, 1.650616746350704e+03
640, 9.999999999998842e-05, 5.299999999995259e-03, 4.665483910836862e-04, -3.931517391567658e-05, 3.961546133487053e+01, -3.030929164990972e+03, -9.909994105386271e+01, 3.076934756462350e+03
641, 1.499999999999930e-04, 5.299999999992844e-03, 4.660866993915315e-04, -4.647863279718233e-05, -1.117688551412624e+01, -4.516413367215959e+03, -3.966612566798974e+02, 4.574550946952128e+03
642, 1.999999999999920e-04, 5.299999999990430e-03, 4.656460272313275e-04, -5.364999844983008e-05, -7.160894602759680e+01, -5.991063696736216e+03, -7.257218276930494e+02, 6.094803789331319e+03
643, -1.999999999999824e-04, 5.200000000009989e-03, 4.554479563778298e-04, 4.396298567751351e-06, 1.667508498538501e+02, 6.329225559051749e+03, 1.056229762175580e+03, 6.514489986447569e+03
644, -1.499999999999712e-04, 5.200000000007502e-03, 4.548601836924175e-04, -2.698823709059049e-06, 1.653195135857611e+02, 4.728564089540123e+03, 9.434186261414013e+02, 4.937950574537884e+03
645, -9.999999999995044e-05, 5.200000000005017e-03, 4.542955554875895e-04, -9.792323710929312e-06, 1.564053135684043e+02, 3.134416822970767e+03, 7.981382059949066e+02, 3.378853493954423e+03
646, -4.999999999994625e-05, 5.200000000002529e-03, 4.537539146408590e-04, -1.688582381334817e-05, 1.396473438744719e+02, 1.547500335005052e+03, 6.204206861988037e+02, 1.876629253765617e+03
647, 2.564138137928218e-17, 5.200000000000042e-03, 4.532350874708605e-04, -2.398094726585884e-05, 1.146807500126049e+02, -3.146160371340221e+01, 4.102994439165253e+02, 8.335107211460549e+02
648, 4.999999999998700e-05, 5.199999999997556e-03, 4.527388836425367e-04, -3.107931818296610e-05, 8.113621744646161e+01, -1.601738435235648e+03, 1.678091377909363e+02, 1.716014779523906e+03
649, 9.999999999998081e-05, 5.199999999995069e-03, 4.522650960720103e-04, -3.818256153419260e-05, 3.863992531363965e+01, -3.162592901843891e+03, -1.070141709589599e+02, 3.208379613576787e+03
650, 1.499999999999887e-04, 5.199999999992581e-03, 4.518135008320988e-04, -4.529230313211510e-05, -1.318638557225296e+01, -4.713281018851146e+03, -4.141328871422466e+02, 4.772516501242101e+03
651, 1.999999999999900e-04, 5.199999999990096e-03, 4.513838570582950e-04, -5.241016961844176e-05, -7.472531252247603e+01, -6.253052031974642e+03, -7.535077290633100e+02, 6.359466694883238e+03
652, -1.999999999999843e-04, 5.100000000010360e-03, 4.412321297421517e-04, 5.179017994929807e-06, 1.704240746390680e+02, 6.596302451926700e+03, 1.090192633566559e+03, 6.785719772641949e+03
653, -1.499999999999755e-04, 5.100000000007788e-03, 4.406490463656608e-04, -1.859522655876798e-06, 1.683399243859652e+02, 4.928552496227408e+03, 9.722097882358523e+02, 5.142022094320846e+03
654, -9.999999999995803e-05, 5.100000000005215e-03, 4.400900623343664e-04, -8.896445183015908e-06, 1.587233419359872e+02, 3.267374821980578e+03, 8.210494835156012e+02, 3.515708042757301e+03
655, -4.999999999995644e-05, 5.100000000002642e-03, 4.395550203952960e-04, -1.593340705312590e-05, 1.412121823395951e+02, 1.613488070672632e+03, 6.367351633680513e+02, 1.946618340724290e+03
656, 1.282069068964109e-17, 5.100000000000066e-03, 4.390437467151441e-04, -2.297206683357878e-05, 1.154397351708317e+02, -3.238186108312220e+01, 4.192913343927150e+02, 8.515116656314001e+02
657, 4.999999999997683e-05, 5.099999999997495e-03, 4.385560507806760e-04, -3.001408418544596e-05, 8.103453970299677e+01, -1.669502110583428e+03, 1.687438035780436e+02, 1.782772124804502e+03
658, 9.999999999997324e-05, 5.099999999994921e-03, 4.380917253003837e-04, -3.706111985275745e-05, 3.762047006194354e+01, -3.297132799321522e+03, -1.148801947217104e+02, 3.342659002085152e+03
659, 1.499999999999843e-04, 5.099999999992348e-03, 4.376505461061676e-04, -4.411483565084796e-05, -1.518324231184727e+01, -4.914527014524838e+03, -4.315518747331047e+02, 4.974788184502416e+03
660, 1.999999999999881e-04, 5.099999999989774e-03, 4.372322720549270e-04, -5.117689445262194e-05, -7.776203409161934e+01, -6.520930825900463e+03, -7.812407581579414e+02, 6.629914974459946e+03
661, -1.999999999999862e-04, 5.000000000010596e-03, 4.271294170933340e-04, 5.935975944320811e-06, 1.739232454345802e+02, 6.869328613875062e+03, 1.124049097417216e+03, 7.062747237538624e+03
662, -1.499999999999799e-04, 5.000000000007969e-03, 4.265512181803928e-04, -1.043626100468143e-06, 1.711797448149266e+02, 5.133044202114740e+03, 1.000931558522372e+03, 5.350472393349887e+03
663, -9.999999999996564e-05, 5.000000000005344e-03, 4.259980932143496e-04, -8.021613562350815e-06, 1.608655637755004e+02, 3.403379515179327e+03, 8.439266422663525e+02, 3.655508916027465e+03
664, -4.999999999996662e-05, 5.000000000002718e-03, 4.254698851622622e-04, -1.499967903868920e-05, 1.426176361179543e+02, 1.681055918480035e+03, 6.530484139253941e+02, 2.018088519455745e+03
665, 0.000000000000000e+00, 5.000000000000093e-03, 4.249664203850506e-04, -2.197951646779578e-05, 1.160670319329517e+02, -3.319881874332492e+01, 4.283121879729584e+02, 8.695318370495953e+02
666, 4.999999999996663e-05, 4.999999999997467e-03, 4.244875085374006e-04, -2.896282111636307e-05, 8.084000035316137e+01, -1.738649658924471e+03, 1.697345975627733e+02, 1.850886802226820e+03
667, 9.999999999996559e-05, 4.999999999994841e-03, 4.240329424668465e-04, -3.595128957027668e-05, 3.655801431236296e+01, -3.434554183374234e+03, -1.226663219293424e+02, 3.479771256141898e+03
668, 1.499999999999799e-04, 4.999999999992216e-03, 4.236024981117509e-04, -4.294661972460410e-05, -1.716226757576385e+01, -5.120162579268182e+03, -4.488710073183667e+02, 5.181365930522272e+03
669, 1.999999999999863e-04, 4.999999999989590e-03, 4.231959343983834e-04, -4.995051077246414e-05, -8.070907327342206e+01, -6.794717666334146e+03, -8.088582295080038e+02, 6.906150731736496e+03
670, -1.999999999999881e-04, 4.900000000010410e-03, 4.131445917791418e-04, 6.666430020950909e-06, 1.772192687233471e+02, 7.148312432310569e+03, 1.157736488585908e+03, 7.345580644402824e+03
671, -1.499999999999843e-04, 4.900000000007836e-03, 4.125714708755716e-04, -2.518263740349642e-07, 1.738150541668842e+02, 5.342046724627373e+03, 1.029537156481391e+03, 5.563308873849623e+03
672, -9.999999999997321e-05, 4.900000000005265e-03, 4.120244182923372e-04, -7.168470880975899e-06, 1.628146888540720e+02, 3.542438662946421e+03, 8.667385477075259e+02, 3.798262898561442e+03
673, -4.999999999997681e-05, 4.900000000002690e-03, 4.115032775598759e-04, -1.408523128167478e-05, 1.438517247829679e+02, 1.750210242434458e+03, 6.693451093279646e+02, 2.091047390366022e+03
674, -1.282069068964109e-17, 4.900000000000120e-03, 4.110078755832764e-04, -2.100383693364702e-05, 1.165553378900865e+02, -3.390885626577960e+01, 4.373626765563212e+02, 8.875719222130740e+02
675, 4.999999999995644e-05, 4.899999999997547e-03, 4.105380225410413e-04, -2.792601876461197e-05, 8.054987473220422e+01, -1.809181202825188e+03, 1.707982976388139e+02, 1.920357200989308e+03
676, 9.999999999995801e-05, 4.899999999994974e-03, 4.100935117796520e-04, -3.485350926715328e-05, 3.545465192361678e+01, -3.574861673469450e+03, -1.303396292601587e+02, 3.619715133159293e+03
677, 1.499999999999756e-04, 4.899999999992402e-03, 4.096741197065433e-04, -4.178804249168785e-05, -1.911607773550622e+01, -5.330197424343641e+03, -4.660412058461887e+02, 5.392250243866205e+03
678, 1.999999999999843e-04, 4.899999999989829e-03, 4.092796056824370e-04, -4.873135403710885e-05, -8.355307942244207e+01, -7.074427818246011e+03, -8.362949034209657e+02, 7.188176839496440e+03
679, -1.999999999999901e-04, 4.800000000010084e-03, 3.992825306853639e-04, 7.369640760317048e-06, 1.803152256054751e+02, 7.433284099412520e+03, 1.191186366338316e+03, 7.634216221840651e+03
680, -1.499999999999886e-04, 4.800000000007600e-03, 3.987146793960259e-04, 5.151871697596684e-07, 1.762479752823152e+02, 5.555586134601404e+03, 1.057975260717903e+03, 5.780529875493330e+03
681, -9.999999999998080e-05, 4.800000000005114e-03, 3.981739105097000e-04, -6.337656162824733e-06, 1.645699598743483e+02, 3.684572323812233e+03, 8.894506340641324e+02, 3.943970887807951e+03
682, -4.999999999998701e-05, 4.800000000002629e-03, 3.976600684892575e-04, -1.319065224007295e-05, 1.449125412429022e+02, 1.820965182440033e+03, 6.856077298522850e+02, 2.165498624565875e+03
683, -2.564138137928218e-17, 4.800000000000143e-03, 3.971729811628082e-04, -2.004556587997781e-05, 1.169034037548695e+02, -3.450350977732080e+01, 4.464424226226996e+02, 9.056309404687124e+02
684, 4.999999999994627e-05, 4.799999999997659e-03, 3.967124596140974e-04, -2.690416372302315e-05, 8.016499227614781e+01, -1.881093940479914e+03, 1.719516861497650e+02, 1.991182093831309e+03
685, 9.999999999995042e-05, 4.799999999995174e-03, 3.962782980710148e-04, -3.376821423165786e-05, 3.431441756431860e+01, -3.718058299103758e+03, -1.378661934560984e+02, 3.762489781246888e+03
686, 1.499999999999713e-04, 4.799999999992687e-03, 3.958702737933743e-04, -4.063948768607387e-05, -2.103658081128418e+01, -5.544640777563605e+03, -4.830114516693922e+02, 5.607441802832638e+03
687, 1.999999999999824e-04, 4.799999999990203e-03, 3.954881469600577e-04, -4.751975617722529e-05, -8.628156957507855e+01, -7.360077488428901e+03, -8.634826662678563e+02, 7.475996009155884e+03
688, -1.999999999999919e-04, 4.700000000009747e-03, 3.855482156140098e-04, 8.044872892591183e-06, 1.832071672712980e+02, 7.724274895597537e+03, 1.224322424674700e+03, 7.928654619886580e+03
689, -1.499999999999929e-04, 4.700000000007334e-03, 3.849858228825442e-04, 1.256729355950582e-06, 1.784727856913921e+02, 5.773688870574630e+03, 1.086187487080924e+03, 6.002137624621813e+03
690, -9.999999999998839e-05, 4.700000000004922e-03, 3.844515462949898e-04, -5.529804244637461e-06, 1.661238580412924e+02, 3.829800013293423e+03, 9.120237859077257e+02, 4.092636377056833e+03
691, -4.999999999999717e-05, 4.700000000002511e-03, 3.839452316526782e-04, -1.231652614643529e-05, 1.457931441101646e+02, 1.893334302215922e+03, 7.018161240211384e+02, 2.241446762030682e+03
692, -3.846207206892327e-17, 4.700000000000096e-03, 3.834667081113639e-04, -1.910523666713236e-05, 1.171064170778062e+02, -3.497473720386949e+01, 4.555499017638244e+02, 9.237053261055536e+02
693, 4.999999999993608e-05, 4.699999999997685e-03, 3.830157880624665e-04, -2.589773821342601e-05, 7.968382117178874e+01, -1.954385234270760e+03, 1.732116113055239e+02, 2.063357935859206e+03
694, 9.999999999994281e-05, 4.699999999995272e-03, 3.825922670164442e-04, -3.269583528235731e-05, 3.313998232259462e+01, -3.864146924232092e+03, -1.452109650429099e+02, 3.908092901848339e+03
695, 1.499999999999669e-04, 4.699999999992859e-03, 3.821959234864288e-04, -3.950133445893365e-05, -2.291595011531740e+01, -5.763501098595933e+03, -4.997285987648272e+02, 5.826940237950793e+03
696, 1.999999999999805e-04, 4.699999999990447e-03, 3.818265188717119e-04, -4.631604441207554e-05, -8.888052976736901e+01, -7.651680772696700e+03, -8.903504701394725e+02, 7.769610244610875e+03
697, -1.999999999999939e-04, 4.600000000009572e-03, 3.719467342063479e-04, 8.691396005855068e-06, 1.858383478367371e+02, 8.021277974748962e+03, 1.257072209040343e+03, 8.228914649086639e+03
698, -1.499999999999973e-04, 4.600000000007185e-03, 3.713899852861879e-04, 1.972120006220411e-06, 1.804419871453003e+02, 5.996350513104624e+03, 1.114119368370648e+03, 6.228148990690638e+03
699, -9.999999999999598e-05, 4.600000000004799e-03, 3.708624059936353e-04, -4.745544819644897e-06, 1.674419521891537e+02, 3.978121464973233e+03, 9.344217409927040e+02, 4.244273119076062e+03
700, -5.000000000000737e-05, 4.600000000002412e-03, 3.703638438663405e-04, -1.146343195330857e-05, 1.464693219587301e+02, 1.967318547578242e+03, 7.179523118674149e+02, 2.318903618286503e+03
701, -5.126921023140829e-17, 4.600000000000025e-03, 3.698941297852659e-04, -1.818337724767980e-05, 1.171482736103993e+02, -3.532268038778102e+01, 4.646854940276287e+02, 9.417950017131757e+02
702, 4.999999999992590e-05, 4.599999999997638e-03, 3.694530778505900e-04, -2.490721892620086e-05, 7.909698386227421e+01, -2.029058101611319e+03, 1.745968664290038e+02, 2.136879530407712e+03
703, 9.999999999993524e-05, 4.599999999995251e-03, 3.690404852601292e-04, -3.163679758281291e-05, 3.192781812041619e+01, -4.013134900707668e+03, -1.523367160752028e+02, 4.056520467039598e+03
704, 1.499999999999625e-04, 4.599999999992864e-03, 3.686561321880129e-04, -3.837395618092478e-05, -2.475263908522527e+01, -5.986791525169876e+03, -5.161369752583528e+02, 6.050743523576327e+03
705, 1.999999999999786e-04, 4.599999999990477e-03, 3.682997816632255e-04, -4.512054004954508e-05, -9.134333656791665e+01, -7.949257430239708e+03, -9.168241140814883e+02, 8.069019750141339e+03
706, -1.999999999999958e-04, 4.500000000009600e-03, 3.584832780904255e-04, 9.308486089412509e-06, 1.882016402064214e+02, 8.324317706562002e+03, 1.289363186070720e+03, 8.534999375957048e+03
707, -1.500000000000016e-04, 4.500000000007212e-03, 3.579323542379699e-04, 2.660685399642151e-06, 1.821469633440540e+02, 6.223590479479752e+03, 1.141718010193738e+03, 6.458569486957701e+03
708, -1.000000000000036e-04, 4.500000000004825e-03, 3.574116732097153e-04, -3.985501031787537e-06, 1.685152968614498e+02, 4.129551683614984e+03, 9.566095060028711e+02, 4.398888069169949e+03
709, -5.000000000001756e-05, 4.500000000002437e-03, 3.569210847019432e-04, -1.063194196355732e-05, 1.469336938559723e+02, 2.042928911261854e+03, 7.339994740204545e+02, 2.397877973516416e+03
710, -6.409667718462742e-17, 4.500000000000053e-03, 3.564604217394913e-04, -1.728050882068108e-05, 1.170245092956591e+02, -3.554038496740247e+01, 4.738508985759974e+02, 9.599035072790494e+02
711, 4.999999999991571e-05, 4.499999999997665e-03, 3.560295005525046e-04, -2.393307569004035e-05, 7.840412934195081e+01, -2.105109746025417e+03, 1.761279443352545e+02, 2.211745250933044e+03
712, 9.999999999992765e-05, 4.499999999995279e-03, 3.556281204510049e-04, -3.059151932095112e-05, 3.068290122050428e+01, -4.165023678122838e+03, -1.592039672159286e+02, 4.207771062291076e+03
713, 1.499999999999582e-04, 4.499999999992891e-03, 3.552560636987933e-04, -3.725771912530355e-05, -2.653486318755120e+01, -6.214517594658619e+03, -5.321780305244554e+02, 6.278852133127177e+03
714, 1.999999999999767e-04, 4.499999999990504e-03, 3.549130953868559e-04, -4.393355717710637e-05, -9.365089567464838e+01, -8.252817827555498e+03, -9.428258157615530e+02, 8.374227552303779e+03
715, -1.999999999999977e-04, 4.400000000009622e-03, 3.451631435516468e-04, 9.895427394799247e-06, 1.903038645003396e+02, 8.633426348479119e+03, 1.321113247437848e+03, 8.846902177016036e+03
716, -1.500000000000059e-04, 4.400000000007235e-03, 3.446182215190207e-04, 3.321760020433737e-06, 1.835935709196867e+02, 6.455437309056115e+03, 1.168921739446777e+03, 6.693394953788865e+03
717, -1.000000000000112e-04, 4.400000000004850e-03, 3.441046351451843e-04, -3.250287844571116e-06, 1.693454089025714e+02, 4.284112093967179e+03, 9.785461694428851e+02, 4.556480582142642e+03
718, -5.000000000002772e-05, 4.400000000002464e-03, 3.436222367317020e-04, -9.822620289196125e-06, 1.471854589554738e+02, 2.120180297077948e+03, 7.499371564865910e+02, 2.478372769777522e+03
719, -7.691736787426851e-17, 4.400000000000076e-03, 3.431708618959283e-04, -1.639714435317025e-05, 1.167339548750653e+02, -3.561908606841939e+01, 4.830460019278359e+02, 9.780312924434445e+02
720, 4.999999999990552e-05, 4.399999999997690e-03, 3.427503294459957e-04, -2.297577003528787e-05, 7.760516300353515e+01, -2.182537559299367e+03, 1.778250361010102e+02, 2.287953692502555e+03
721, 9.999999999991999e-05, 4.399999999995304e-03, 3.423604412520291e-04, -2.956041029824662e-05, 2.940717313558514e+01, -4.319817171809134e+03, -1.657722173946837e+02, 4.361842972288163e+03
722, 1.499999999999539e-04, 4.399999999992917e-03, 3.420009821156258e-04, -3.615298107209648e-05, -2.825816915037342e+01, -6.446690494969265e+03, -5.477908828815987e+02, 6.511265078814539e+03
723, 1.999999999999748e-04, 4.399999999990530e-03, 3.416717196385771e-04, -4.275540125469040e-05, -9.579550917882148e+01, -8.562380729371633e+03, -9.682746351589633e+02, 8.685233927025585e+03
724, -1.999999999999997e-04, 4.300000000009517e-03, 3.319917331574450e-04, 1.045151354655003e-05, 1.921177807337831e+02, 8.948614185093398e+03, 1.352236180771776e+03, 9.164627653861113e+03
725, -1.500000000000103e-04, 4.300000000007164e-03, 3.314529842225171e-04, 3.954687815183571e-06, 1.847593280878269e+02, 6.691900866124503e+03, 1.195664808980051e+03, 6.932629251429470e+03
726, -1.000000000000188e-04, 4.300000000004808e-03, 3.309466834302616e-04, -2.540510716527756e-06, 1.699158189825853e+02, 4.441812583170116e+03, 1.000187457994622e+03, 4.717054352919295e+03
727, -5.000000000003792e-05, 4.300000000002456e-03, 3.304726861340570e-04, -9.036021493025305e-06, 1.472128192884084e+02, 2.199080813426162e+03, 7.657426040190948e+02, 2.560392393326981e+03
728, -8.973805856390960e-17, 4.300000000000101e-03, 3.300308310009127e-04, -1.553378720784846e-05, 1.162690415715859e+02, -3.555367563748428e+01, 4.922694261354504e+02, 9.961761335685813e+02
729, 4.999999999989533e-05, 4.299999999997747e-03, 3.296209398784003e-04, -2.203575381994565e-05, 7.669678950285527e+01, -2.261340345755085e+03, 1.797079965648532e+02, 2.365501532859907e+03
730, 9.999999999991241e-05, 4.299999999995395e-03, 3.292428176602892e-04, -2.854387056426765e-05, 2.810191603264764e+01, -4.477518837839555e+03, -1.720005099580376e+02, 4.518733791608796e+03
731, 1.499999999999495e-04, 4.299999999993039e-03, 3.288962521510379e-04, -3.506008995873578e-05, -2.991625502861564e+01, -6.683318962868607e+03, -5.629136469261042e+02, 6.747981526966054e+03
732, 1.999999999999729e-04, 4.299999999990687e-03, 3.285810139290913e-04, -4.158636780969542e-05, -9.776473144752390e+01, -8.877960467179551e+03, -9.930875265772227e+02, 9.002040240942048e+03
733, -2.000000000000014e-04, 4.200000000009198e-03, 3.189745555141323e-04, 1.097604882705126e-05, 1.936219624953467e+02, 9.269896378037614e+03, 1.382645328424615e+03, 9.488181579369399e+03
734, -1.500000000000147e-04, 4.200000000006931e-03, 3.184421447227393e-04, 4.558823478996317e-06, 1.856242347590207e+02, 6.932994093706865e+03, 1.221881845938331e+03, 7.176279049421957e+03
735, -1.000000000000264e-04, 4.200000000004664e-03, 3.179433141988445e-04, -1.856764265934871e-06, 1.702100747506770e+02, 4.602664343753915e+03, 1.021489270540467e+03, 4.880615961753416e+03
736, -5.000000000004811e-05, 4.200000000002396e-03, 3.174779228143937e-04, -8.272689211945697e-06, 1.470034821413575e+02, 2.279639339298026e+03, 7.813933489869499e+02, 2.643943638316545e+03
737, -1.025587492535507e-16, 4.200000000000129e-03, 3.170458127582568e-04, -1.469092973377966e-05, 1.156219780484885e+02, -3.533828623422073e+01, 5.015205116533929e+02, 1.014337367855799e+03
738, 4.999999999988515e-05, 4.199999999997860e-03, 3.166468093943481e-04, -2.111346779419246e-05, 7.567621130965938e+01, -2.341515828457138e+03, 1.817980451711079e+02, 2.444385295738811e+03
739, 9.999999999990481e-05, 4.199999999995591e-03, 3.162807211207102e-04, -2.754228895690675e-05, 2.677003314846127e+01, -4.638130430790638e+03, -1.778457193731457e+02, 4.678441272267572e+03
740, 1.499999999999452e-04, 4.199999999993324e-03, 3.159473392285952e-04, -3.397938239655404e-05, -3.149945685740488e+01, -6.924409000190345e+03, -5.774812343823901e+02, 6.989001379083105e+03
741, 1.999999999999710e-04, 4.199999999991056e-03, 3.156464377616019e-04, -4.042674090593605e-05, -9.954203365376907e+01, -9.199568277924918e+03, -1.017177558887251e+03, 9.324648968815880e+03
742, -2.000000000000034e-04, 4.100000000008875e-03, 3.061172251914170e-04, 1.146834986938510e-05, 1.948080902322118e+02, 9.597297337959006e+03, 1.412249588824229e+03, 9.817565872361376e+03
743, -1.500000000000190e-04, 4.100000000006694e-03, 3.055913106641908e-04, 5.133534046686886e-06, 1.861787341436790e+02, 7.178737945636656e+03, 1.247504564698466e+03, 7.424348785045684e+03
744, -1.000000000000340e-04, 4.100000000004513e-03, 3.051001281223374e-04, -1.199630731972000e-06, 1.702175588843477e+02, 4.766683297066436e+03, 1.042406009797354e+03, 5.047171330490811e+03
745, -5.000000000005830e-05, 4.100000000002334e-03, 3.046435404572705e-04, -7.533154638448235e-06, 1.465478090619246e+02, 2.361867176068419e+03, 7.968664414243997e+02, 2.729033601791594e+03
746, -1.153726636796137e-16, 4.100000000000152e-03, 3.042213938765620e-04, -1.386905175541995e-05, 1.147853852217497e+02, -3.496626024699196e+01, 5.107989869622227e+02, 1.032515363395203e+03
747, 4.999999999987496e-05, 4.099999999997971e-03, 3.038335177570975e-04, -2.020934009114300e-05, 7.453910218286967e+01, -2.423062362491963e+03, 1.841176375800445e+02, 2.524601016837728e+03
748, 9.999999999989721e-05, 4.099999999995790e-03, 3.034797244990095e-04, -2.655604159297277e-05, 2.541073227844026e+01, -4.801655934910235e+03, -1.832626055830996e+02, 4.840962026282009e+03
749, 1.499999999999408e-04, 4.099999999993610e-03, 3.031598093798232e-04, -3.291118215888858e-05, -3.300498557834476e+01, -7.169971187192152e+03, -5.914255720062376e+02, 7.234322593848676e+03
750, 1.999999999999691e-04, 4.099999999991429e-03, 3.028735504084347e-04, -3.927679164676834e-05, -1.011203337929902e+02, -9.527221659478499e+03, -1.040453785635657e+03, 9.653059749233109e+03
751, -2.000000000000054e-04, 4.000000000008551e-03, 2.934254633624857e-04, 1.192774716589227e-05, 1.956506314419822e+02, 9.930828073722283e+03, 1.440955243153042e+03, 1.015278719779767e+04
752, -1.500000000000234e-04, 4.000000000006458e-03, 2.929061953877726e-04, 5.678200437549712e-06, 1.864008122918672e+02, 7.429142986965021e+03, 1.272462708842956e+03, 7.676845679728949e+03
753, -1.000000000000416e-04, 4.000000000004365e-03, 2.924228307117085e-04, -5.696784176816111e-07, 1.699208189231247e+02, 4.933879384472238e+03, 1.062890951275147e+03, 5.216727893179700e+03
754, -5.000000000006849e-05, 4.000000000002271e-03, 2.919752367552568e-04, -6.817934961232130e-06, 1.458325408253068e+02, 2.445772415686328e+03, 8.121385474523613e+02, 2.815670348071282e+03
755, -1.282069068964109e-16, 4.000000000000177e-03, 2.915632642544922e-04, -1.306861901436940e-05, 1.137502622212038e+02, -3.443227586045384e+01, 5.201049019589710e+02, 1.050711426015405e+03
756, 4.999999999986478e-05, 3.999999999998083e-03, 2.911867471106195e-04, -1.932378467311192e-05, 7.328102341464501e+01, -2.505978146649366e+03, 1.866902383504550e+02, 2.606144824590662e+03
757, 9.999999999988963e-05, 3.999999999995989e-03, 2.908455022396953e-04, -2.558549032271242e-05, 2.402461272119820e+01, -4.968097692507989e+03, -1.882042648347149e+02, 5.006292889112130e+03
758, 1.499999999999365e-04, 3.999999999993896e-03, 2.905393294218975e-04, -3.185579865112226e-05, -3.442646001699904e+01, -7.420012407247649e+03, -6.046763233597511e+02, 7.483943720262622e+03
759, 1.999999999999672e-04, 3.999999999991804e-03, 2.902680111504416e-04, -3.813677666082893e-05, -1.024869070487067e+02, -9.860932683720914e+03, -1.062822370016657e+03, 9.987273378509417e+03
760, -2.000000000000072e-04, 3.900000000008219e-03, 2.809050975740244e-04, 1.235358669240107e-05, 1.961314680958097e+02, 1.027050216869761e+04, 1.468666745804399e+03, 1.049384929632929e+04
761, -1.500000000000277e-04, 3.900000000006203e-03, 2.803926178485585e-04, 6.192219118648409e-06, 1.862748647012752e+02, 7.684221833526002e+03, 1.296684904052603e+03, 7.933774367153351e+03
762, -1.000000000000492e-04, 3.900000000004186e-03, 2.799172323155021e-04, 3.253997964140483e-08, 1.693069358524294e+02, 5.104263945442336e+03, 1.082896428367134e+03, 5.389291176470403e+03
763, -5.000000000007867e-05, 3.900000000002170e-03, 2.794788134462475e-04, -6.127531699636115e-06, 1.448475077884951e+02, 2.531364160389218e+03, 8.271859172391066e+02, 2.903860860966890e+03
764, -1.410275975860520e-16, 3.900000000000153e-03, 2.790772170303473e-04, -1.229008151024209e-05, 1.125095273641319e+02, -3.373031400595255e+01, 5.294385933766788e+02, 1.068927961946292e+03
765, 4.999999999985460e-05, 3.899999999998138e-03, 2.787122820223464e-04, -1.845719967690835e-05, 7.189849694674024e+01, -2.590260980848564e+03, 1.895404090369446e+02, 2.689013825149833e+03
766, 9.999999999988204e-05, 3.899999999996121e-03, 2.783838303866039e-04, -2.463098107580460e-05, 2.261239736014295e+01, -5.137457998313434e+03, -1.926218073246437e+02, 5.174431285748697e+03
767, 1.499999999999321e-04, 3.899999999994104e-03, 2.780916669412826e-04, -3.081352525050570e-05, -3.575833044396461e+01, -7.674540111686653e+03, -6.171601871020537e+02, 7.737863651397626e+03
768, 1.999999999999652e-04, 3.899999999992088e-03, 2.778355792020914e-04, -3.700693642605645e-05, -1.036309159079873e+02, -1.020071470298180e+04, -1.084185654285887e+03, 1.032729079357341e+04
769, -2.000000000000091e-04, 3.800000000007874e-03, 2.685620619119793e-04, 1.274523183253815e-05, 1.962513447484249e+02, 1.061634620335023e+04, 1.495282211952787e+03, 1.084074962517766e+04
770, -1.500000000000321e-04, 3.800000000005924e-03, 2.680565028097620e-04, 6.675003957497002e-06, 1.857992197387221e+02, 7.943997113585355e+03, 1.320094314474809e+03, 8.195134566102084e+03
771, -1.000000000000568e-04, 3.800000000003971e-03, 2.675892483117104e-04, 6.064891715154204e-07, 1.683717022668978e+02, 5.277854617227867e+03, 1.102370961327433e+03, 5.564863215191360e+03
772, -5.000000000008884e-05, 3.800000000002021e-03, 2.671601764867149e-04, -5.462428938561010e-06, 1.435878192953172e+02, 2.618655458659467e+03, 8.419824494876809e+02, 2.993609460235039e+03
773, -1.538415120121150e-16, 3.800000000000070e-03, 2.667691487291770e-04, -1.153387176308455e-05, 1.110591521023559e+02, -3.285184160951269e+01, 5.387993646922677e+02, 1.087165762743797e+03
774, 4.999999999984441e-05, 3.799999999998119e-03, 2.664160096005455e-04, -1.760996569628058e-05, 7.038960091726540e+01, -2.675907036946397e+03, 1.926928734695395e+02, 2.773205256933761e+03
775, 9.999999999987444e-05, 3.799999999996168e-03, 2.661005866689017e-04, -2.369284215837435e-05, 2.117527239283254e+01, -5.309738128039429e+03, -1.964650807100799e+02, 5.345374803946112e+03
776, 1.499999999999278e-04, 3.799999999994218e-03, 2.658226903474526e-04, -2.978463761492028e-05, -3.699554997228768e+01, -7.933561281736655e+03, -6.288015913874378e+02, 7.996081297823379e+03
777, 1.999999999999633e-04, 3.799999999992265e-03, 2.655821137324877e-04, -3.588749359298349e-05, -1.045423135177067e+02, -1.054658066191405e+04, -1.104442627019812e+03, 1.067311289806744e+04
778, -2.000000000000110e-04, 3.700000000007529e-03, 2.564023980766316e-04, 1.310206501233801e-05, 1.959885906977377e+02, 1.096837051878735e+04, 1.520695276731710e+03, 1.119349225681280e+04
779, -1.500000000000364e-04, 3.700000000005644e-03, 2.559038816078661e-04, 7.125987901363943e-06, 1.849553813250679e+02, 8.208479634802636e+03, 1.342610355784572e+03, 8.460930901265099e+03
780, -1.000000000000644e-04, 3.700000000003758e-03, 2.554448996577637e-04, 1.151652980057290e-06, 1.671000759483152e+02, 5.454661740991886e+03, 1.121260334250498e+03, 5.743449077887999e+03
781, -5.000000000009902e-05, 3.700000000001873e-03, 2.550253364527408e-04, -4.823091610661226e-06, 1.420416741377330e+02, 2.707654998404936e+03, 8.565003855387092e+02, 3.084921939266736e+03
782, -1.666825314924902e-16, 3.699999999999988e-03, 2.546450595582994e-04, -1.080040308646897e-05, 1.093907492359511e+02, -3.179070971515114e+01, 5.481859191080063e+02, 1.105424539253911e+03
783, 4.999999999983423e-05, 3.699999999998102e-03, 2.543039197131621e-04, -1.678244405022344e-05, 6.874976342328739e+01, -2.762913472833079e+03, 1.961728045077722e+02, 2.858715054089801e+03
784, 9.999999999986681e-05, 3.699999999996217e-03, 2.540017506631837e-04, -2.277138251851416e-05, 1.971307709757195e+01, -5.484939227892160e+03, -1.996824361604467e+02, 5.519120337524147e+03
785, 1.499999999999234e-04, 3.699999999994331e-03, 2.537383689941297e-04, -2.876939194534226e-05, -3.813311802156591e+01, -8.197081682423426e+03, -6.395224372021355e+02, 8.258595368904753e+03
786, 1.999999999999614e-04, 3.699999999992445e-03, 2.535135739630489e-04, -3.477865124243525e-05, -1.052107573432496e+02, -1.089854215156598e+04, -1.123488744611905e+03, 1.102474083244556e+04
787, -2.000000000000130e-04, 3.600000000007325e-03, 2.444322553069848e-04, 1.342348941497631e-05, 1.953270872013361e+02, 1.132658963105665e+04, 1.544797537274898e+03, 1.155208221685245e+04
788, -1.500000000000407e-04, 3.600000000005489e-03, 2.439408921862259e-04, 7.544624693139783e-06, 1.837266440646725e+02, 8.477681625410773e+03, 1.364151309155292e+03, 8.731169704551399e+03
789, -1.000000000000720e-04, 3.600000000003653e-03, 2.434903129784701e-04, 1.667536078727687e-06, 1.654771684973680e+02, 5.634695986679073e+03, 1.139509536113880e+03, 5.925055477607848e+03
790, -5.000000000010923e-05, 3.600000000001818e-03, 2.430804086474118e-04, -4.209963736721708e-06, 1.401967528217529e+02, 2.798371511373883e+03, 8.707116172529306e+02, 3.177805520902833e+03
791, -1.794761171278192e-16, 3.599999999999982e-03, 2.427110535116121e-04, -1.009006781516898e-05, 1.074950057913502e+02, -3.054077467405511e+01, 5.575972336631136e+02, 1.123704844095513e+03
792, 4.999999999982404e-05, 3.599999999998146e-03, 2.423821050737595e-04, -1.597497500302936e-05, 6.697316654558756e+01, -2.851277399746114e+03, 2.000064268521022e+02, 2.945538431389144e+03
793, 9.999999999985923e-05, 3.599999999996311e-03, 2.420934038492236e-04, -2.186688996160322e-05, 1.822409607581960e+01, -5.663062310272378e+03, -2.022202447197909e+02, 5.695663906908039e+03
794, 1.499999999999191e-04, 3.599999999994474e-03, 2.418447731933277e-04, -2.776802319573903e-05, -3.916778526849612e+01, -8.465106763338246e+03, -6.492415351079944e+02, 8.525403564981112e+03
795, 1.999999999999595e-04, 3.599999999992638e-03, 2.416360191269337e-04, -3.368059108081434e-05, -1.056268717194358e+02, -1.125660945410384e+04, -1.141215322893082e+03, 1.138217475728888e+04
796, -2.000000000000149e-04, 3.500000000007369e-03, 2.326578904264615e-04, 1.370893093559466e-05, 1.942530773617622e+02, 1.169101663000903e+04, 1.567476991875495e+03, 1.191652250724660e+04
797, -1.500000000000451e-04, 3.500000000005565e-03, 2.321737791660325e-04, 7.930390797826742e-06, 1.821001185704498e+02, 8.751615697085143e+03, 1.384632928981864e+03, 9.005855353184927e+03
798, -1.000000000000796e-04, 3.500000000003764e-03, 2.317317206586274e-04, 2.153665895808445e-06, 1.634908798115541e+02, 5.817968514890754e+03, 1.157061817072082e+03, 6.109687841429826e+03
799, -5.000000000011939e-05, 3.500000000001962e-03, 2.313316132019468e-04, -3.623466538470224e-06, 1.380422585607778e+02, 2.890814024485252e+03, 8.845870254346199e+02, 3.272266678854281e+03
800, -1.923239128717724e-16, 3.500000000000160e-03, 2.309733384677855e-04, -9.403235431335209e-06, 1.053629395911843e+02, -2.909586707451888e+01, 5.670320106813199e+02, 1.142007169521788e+03
801, 4.999999999981385e-05, 3.499999999998358e-03, 2.306567613276294e-04, -1.518787590316231e-05, 6.505306098110680e+01, -2.940996326716668e+03, 2.042204379955966e+02, 3.033670527670832e+03
802, 9.999999999985163e-05, 3.499999999996555e-03, 2.303817296759188e-04, -2.097962930360061e-05, 1.670409988001654e+01, -5.844109511092286e+03, -2.040236621480826e+02, 5.875001174589113e+03
803, 1.499999999999148e-04, 3.499999999994753e-03, 2.301480742517361e-04, -2.678074324549104e-05, -4.010120184319931e+01, -8.737644461923563e+03, -6.578757283606725e+02, 8.796502751482187e+03
804, 1.999999999999576e-04, 3.499999999992950e-03, 2.299556084590773e-04, -3.259347163733228e-05, -1.057887955835805e+02, -1.162079687338983e+04, -1.157510580529649e+03, 1.174541331789118e+04
805, -2.000000000000167e-04, 3.400000000007423e-03, 2.210856680927184e-04, 1.395784022121016e-05, 1.927583812583059e+02, 1.206166605599818e+04, 1.588617103586717e+03, 1.228681352502479e+04
806, -1.500000000000494e-04, 3.400000000005649e-03, 2.206088940737062e-04, 8.282787436276455e-06, 1.800679541763424e+02, 9.030296221769233e+03, 1.403966997288832e+03, 9.284989698777546e+03
807, -1.000000000000872e-04, 3.400000000003875e-03, 2.201754610465568e-04, 2.609594623466992e-06, 1.611332617818174e+02, 6.004492252926706e+03, 1.173857581091201e+03, 6.297349504524500e+03
808, -5.000000000012958e-05, 3.400000000002102e-03, 2.197852752589814e-04, -3.063996450939599e-06, 1.355709549573506e+02, 2.984993480306887e+03, 8.980957973861744e+02, 3.368310106433219e+03
809, -2.051242747706794e-16, 3.400000000000329e-03, 2.194382263593379e-04, -8.740250592152829e-06, 1.029890935067033e+02, -2.744742190758177e+01, 5.764883590999702e+02, 1.160331416994527e+03
810, 4.999999999980369e-05, 3.399999999998554e-03, 2.191341872166245e-04, -1.442143922124332e-05, 6.298690570395047e+01, -3.032064423246965e+03, 2.088419895867103e+02, 3.123107848810055e+03
811, 9.999999999984403e-05, 3.399999999996781e-03, 2.188730137382690e-04, -2.010984041625960e-05, 1.515467534061713e+01, -6.028078048421234e+03, -2.050363896442350e+02, 6.057129801965569e+03
812, 1.499999999999104e-04, 3.399999999995008e-03, 2.186545446864291e-04, -2.580773895113580e-05, -4.092630442562654e+01, -9.014695247113850e+03, -6.653394865712885e+02, 9.071892612146570e+03
813, 1.999999999999557e-04, 3.399999999993234e-03, 2.184786014933709e-04, -3.151742633312501e-05, -1.056835849962395e+02, -1.199110915790629e+04, -1.172259422030742e+03, 1.211445870269669e+04
814, -2.000000000000187e-04, 3.300000000007353e-03, 2.097220612766559e-04, 1.416969469845080e-05, 1.908341938916257e+02, 1.243855091059121e+04, 1.608096449745987e+03, 1.266295627171101e+04
815, -1.500000000000538e-04, 3.300000000005614e-03, 2.092526957109911e-04, 8.601342610397892e-06, 1.776203055369049e+02, 9.313735519710051e+03, 1.422061405492185e+03, 9.568575430575216e+03
816, -1.000000000000948e-04, 3.300000000003875e-03, 2.088279787280181e-04, 3.034901241357725e-06, 1.583945685263973e+02, 6.194278503879982e+03, 1.189834561057951e+03, 6.488044390400805e+03
817, -5.000000000013977e-05, 3.300000000002137e-03, 2.084478251633391e-04, -2.531923100278396e-06, 1.327740081808720e+02, 3.080919631874585e+03, 9.112057103437870e+02, 3.465940854191960e+03
818, -2.179652942510546e-16, 3.300000000000398e-03, 2.081121332866697e-04, -8.101431107249382e-06, 1.003663425427018e+02, -2.558780878102755e+01, 5.859642479320462e+02, 1.178677584267197e+03
819, 4.999999999979350e-05, 3.299999999998659e-03, 2.078207846149286e-04, -1.367593052373628e-05, 6.077009028315263e+01, -3.124476787291915e+03, 2.138993980296088e+02, 3.213846524184288e+03
820, 9.999999999983644e-05, 3.299999999996922e-03, 2.075736437243848e-04, -1.925773619201863e-05, 1.357454204850592e+01, -6.214966378947933e+03, -2.051995920634912e+02, 6.242046899444063e+03
821, 1.499999999999061e-04, 3.299999999995182e-03, 2.073705580615199e-04, -2.484917009669380e-05, -4.164029902734842e+01, -9.296261644893359e+03, -6.715432593008350e+02, 9.351571934803706e+03
822, 1.999999999999538e-04, 3.299999999993444e-03, 2.072113577528906e-04, -3.045256140545260e-05, -1.053039351607082e+02, -1.236755365100423e+04, -1.185341724530663e+03, 1.248931175483092e+04
823, -2.000000000000206e-04, 3.200000000007042e-03, 1.985736515667444e-04, 1.434400059405439e-05, 1.884666604731387e+02, 1.282167917284354e+04, 1.625789983199899e+03, 1.304495422225025e+04
824, -1.500000000000580e-04, 3.200000000005365e-03, 1.981117503965655e-04, 8.885613120980417e-06, 1.747429336264357e+02, 9.601941860860919e+03, 1.438821586454036e+03, 9.856617566094134e+03
825, -1.000000000001024e-04, 3.200000000003689e-03, 1.976958247140876e-04, 3.429193544761954e-06, 1.552615464951250e+02, 6.387335636714473e+03, 1.204928843160315e+03, 6.681778321248164e+03
826, -5.000000000014997e-05, 3.200000000002012e-03, 1.973257986002662e-04, -2.027587269260899e-06, 1.296396187243752e+02, 3.178600193705546e+03, 9.238837181154124e+02, 3.565165506141973e+03
827, -2.307656561499616e-16, 3.200000000000335e-03, 1.970015796083493e-04, -7.487065904037981e-06, 9.748466617416216e+01, -2.351084908156906e+01, 5.954577032498295e+02, 1.197046122816597e+03
828, 4.999999999978330e-05, 3.199999999998658e-03, 1.967230585712934e-04, -1.295158644414082e-05, 5.839471520027178e+01, -3.218229674425406e+03, 2.194219548750622e+02, 3.305881329965524e+03
829, 9.999999999982882e-05, 3.199999999996980e-03, 1.964901094079971e-04, -1.842350052762496e-05, 1.195825103893242e+01, -6.404774125222553e+03, -2.044525278377063e+02, 6.429747874770774e+03
830, 1.499999999999017e-04, 3.199999999995303e-03, 1.963025889282625e-04, -2.390516739545199e-05, -4.224586809529183e+01, -9.582347589138482e+03, -6.763947186036505e+02, 9.635537354463990e+03
831, 1.999999999999519e-04, 3.199999999993626e-03, 1.961603366362667e-04, -2.939895393903467e-05, -1.046485207816448e+02, -1.275013888638246e+04, -1.196633388508519e+03, 1.286997095771691e+04
832, -2.000000000000225e-04, 3.100000000006703e-03, 1.876471291528805e-04, 1.448029509215511e-05, 1.856449704555945e+02, 1.321105803630906e+04, 1.641569445805406e+03, 1.343281007524910e+04
833, -1.500000000000624e-04, 3.100000000005093e-03, 1.871927319920273e-04, 9.135186714134688e-06, 1.714247150938037e+02, 9.894923563570595e+03, 1.454150668296790e+03, 1.014912048015795e+04
834, -1.000000000001100e-04, 3.100000000003483e-03, 1.867856564920380e-04, 3.792110281589852e-06, 1.517232326441028e+02, 6.583672372473808e+03, 1.219074942636443e+03, 6.878556869025091e+03
835, -5.000000000016015e-05, 3.100000000001875e-03, 1.864258366556091e-04, -1.551298768973671e-06, 1.261575200035732e+02, 3.278043500542464e+03, 9.360959630736481e+02, 3.665990704113791e+03
836, -2.436134518939148e-16, 3.100000000000265e-03, 1.861131900019144e-04, -6.897412908213279e-06, 9.433513969624642e+01, -2.120930935282399e+01, 6.049667494455948e+02, 1.215438024518375e+03
837, 4.999999999977311e-05, 3.099999999998656e-03, 1.858476173686183e-04, -1.224861257335802e-05, 5.585389671634152e+01, -3.313317635238779e+03, 2.254397885563531e+02, 3.399207143554824e+03
838, 9.999999999982122e-05, 3.099999999997047e-03, 1.856290027120783e-04, -1.760728622544586e-05, 1.030172715710285e+01, -6.597498268471283e+03, -2.027327840768793e+02, 6.620228327571847e+03
839, 1.499999999998973e-04, 3.099999999995438e-03, 1.854572129061616e-04, -2.297583040448130e-05, -4.274336211507932e+01, -9.872953062821522e+03, -6.797989980019861e+02, 9.923786045184623e+03
840, 1.999999999999499e-04, 3.099999999993829e-03, 1.853320975399340e-04, -2.835664978216284e-05, -1.037132649939549e+02, -1.313886871293632e+04, -1.206006876824892e+03, 1.325643571627824e+04
841, -2.000000000000244e-04, 3.000000000006373e-03, 1.769492929398604e-04, 1.457814864231068e-05, 1.823653716681849e+02, 1.360669669932286e+04, 1.655301821922377e+03, 1.382652407806420e+04
842, -1.500000000000668e-04, 3.000000000004845e-03, 1.765024220104183e-04, 9.349684368669550e-06, 1.676602598452871e+02, 1.019269094041072e+04, 1.467947963024453e+03, 1.044608658947785e+04
843, -1.000000000001176e-04, 3.000000000003318e-03, 1.761042381176271e-04, 4.123323411729280e-06, 1.477724750295074e+02, 6.783298823186813e+03, 1.232204755004447e+03, 7.078384289519192e+03
844, -5.000000000017031e-05, 3.000000000001789e-03, 1.757546858861529e-04, -1.103334200626690e-06, 1.223198043006789e+02, 3.379258958782206e+03, 9.478071574249178e+02, 3.768422254294025e+03
845, -2.564273663199779e-16, 3.000000000000262e-03, 1.754536935078355e-04, -6.332696820398750e-06, 9.091014219257590e+01, -1.867496243551579e+01, 6.144891301948419e+02, 1.233854310551616e+03
846, 4.999999999976296e-05, 2.999999999998735e-03, 1.752011725375007e-04, -1.156718124554462e-05, 5.314127999133029e+01, -3.409734163042948e+03, 2.319838867951150e+02, 3.493819175186393e+03
847, 9.999999999981362e-05, 2.999999999997206e-03, 1.749970176874238e-04, -1.680921278312125e-05, 8.600832301548053e+00, -6.793134622695692e+03, -1.999759206998809e+02, 6.813484180300529e+03
848, 1.499999999998930e-04, 2.999999999995678e-03, 1.748411066203162e-04, -2.206122531033016e-05, -4.313384776076668e+01, -1.016807692754452e+04, -6.816580179741649e+02, 1.021631552873808e+04
849, 1.999999999999481e-04, 2.999999999994151e-03, 1.747332997408442e-04, -2.732566133328711e-05, -1.024957348315023e+02, -1.353374611465316e+04, -1.213330289242341e+03, 1.364870573822409e+04
850, -2.000000000000263e-04, 2.900000000006043e-03, 1.664870509564555e-04, 1.463716726450044e-05, 1.786233489009450e+02, 1.400860211187405e+04, 1.666849038941523e+03, 1.422609768906316e+04
851, -1.500000000000711e-04, 2.900000000004594e-03, 1.660477099111239e-04, 9.528762590191079e-06, 1.634423486409646e+02, 1.049525168003200e+04, 1.480108801109086e+03, 1.074751935623757e+04
852, -1.000000000001252e-04, 2.900000000003146e-03, 1.656584404210223e-04, 4.422540395804800e-06, 1.434006942611793e+02, 6.986223185879073e+03, 1.244247468440067e+03, 7.281265460252755e+03
853, -5.000000000018052e-05, 2.900000000001698e-03, 1.653191984555721e-04, -6.839346737748440e-07, 1.181174428200584e+02, 3.482254853307468e+03, 9.589805095622099e+02, 3.872466266802297e+03
854, -2.692480570096190e-16, 2.900000000000249e-03, 1.650299236071221e-04, -5.793106842052010e-06, 8.720097203138425e+01, -1.590001875297310e+01, 6.240222589319598e+02, 1.252295864750379e+03
855, 4.999999999975274e-05, 2.899999999998802e-03, 1.647905388816627e-04, -1.090742927176286e-05, 5.024928720366893e+01, -3.507472590238573e+03, 2.390860827981326e+02, 3.589712185841947e+03
856, 9.999999999980604e-05, 2.899999999997354e-03, 1.646009504880554e-04, -1.602936413436004e-05, 6.849944662613098e+00, -6.991678298260023e+03, -1.961154504911156e+02, 7.009510870714956e+03
857, 1.499999999998886e-04, 2.899999999995905e-03, 1.644610476254814e-04, -2.116138267773689e-05, -4.342004326955350e+01, -1.046771668468560e+04, -6.818703893453210e+02, 1.051312272256448e+04
858, 1.999999999999462e-04, 2.899999999994458e-03, 1.643707022691549e-04, -2.630596529180130e-05, -1.009944211136558e+02, -1.393477131326710e+04, -1.218467219729795e+03, 1.404678014934750e+04
859, -2.000000000000283e-04, 2.800000000005697e-03, 1.562674205617981e-04, 1.465699483165738e-05, 1.744078101223110e+02, 1.441677317565494e+04, 1.676069845910098e+03, 1.463153483810909e+04
860, -1.500000000000755e-04, 2.800000000004316e-03, 1.558355932539196e-04, 9.672115716519933e-06, 1.587591467506502e+02, 1.080260740344543e+04, 1.490526308219836e+03, 1.105342392263710e+04
861, -1.000000000001328e-04, 2.800000000002934e-03, 1.554552411196537e-04, 4.689506516424304e-06, 1.385964219734042e+02, 7.192449759453269e+03, 1.255130641863172e+03, 7.487206329416284e+03
862, -5.000000000019071e-05, 2.800000000001552e-03, 1.551263322089388e-04, -2.933034793333556e-07, 1.135392513878733e+02, 3.587037004878677e+03, 9.695783007011042e+02, 3.978129581633487e+03
863, -2.820416426449479e-16, 2.800000000000171e-03, 1.548488182581756e-04, -5.278794350142741e-06, 8.319685545598327e+01, -1.287821835126408e+01, 6.335634436637855e+02, 1.270763931025557e+03
864, 4.999999999974258e-05, 2.799999999998790e-03, 1.546226344762704e-04, -1.026945562155791e-05, 4.716781856079524e+01, -3.606527262147414e+03, 2.467790010056198e+02, 3.686880421730639e+03
865, 9.999999999979847e-05, 2.799999999997408e-03, 1.544476993283240e-04, -1.526778634186100e-05, 5.039957704919516e+00, -7.193125303173383e+03, -1.910831589611500e+02, 7.208303144115784e+03
866, 1.499999999998843e-04, 2.799999999996027e-03, 1.543239143172555e-04, -2.027629515723850e-05, -4.360981131611948e+01, -1.077187117871387e+04, -6.803320526730710e+02, 1.081420356636477e+04
867, 1.999999999999443e-04, 2.799999999994645e-03, 1.542511637632750e-04, -2.529750038512594e-05, -9.921549580422629e+01, -1.434194711331457e+04, -1.221277413883302e+03, 1.445065666380164e+04
868, -2.000000000000301e-04, 2.700000000005420e-03, 1.462975282551048e-04, 1.463731558278876e-05, 1.697194702988386e+02, 1.483121251645552e+04, 1.682819113952071e+03, 1.504283547153363e+04
869, -1.500000000000799e-04, 2.700000000004097e-03, 1.458731776120143e-04, 9.779478410700655e-06, 1.536090236540297e+02, 1.111476374861577e+04, 1.499090453885259e+03, 1.136380225365923e+04
870, -1.000000000001404e-04, 2.700000000002773e-03, 1.455017247857629e-04, 4.924007346758411e-06, 1.333551568245109e+02, 7.401985715183172e+03, 1.264779515928125e+03, 7.696210696800787e+03
871, -5.000000000020087e-05, 2.700000000001450e-03, 1.451831506648194e-04, 6.839635902275703e-08, 1.085788395965806e+02, 3.693613618442472e+03, 9.795614490042183e+02, 4.085417591267211e+03
872, -2.948962146524792e-16, 2.700000000000125e-03, 1.449174198971097e-04, -4.789870464946049e-06, 7.889057290194501e+01, -9.600803517994223e+00, 6.431096452533012e+02, 1.289259782577586e+03
873, 4.999999999973239e-05, 2.699999999998801e-03, 1.447044806705988e-04, -9.653319004597342e-06, 4.388991593644550e+01, -3.706889358977351e+03, 2.550959752152268e+02, 3.785319140496201e+03
874, 9.999999999979085e-05, 2.699999999997478e-03, 1.445442644913473e-04, -1.452448519095435e-05, 3.165354722382972e+00, -7.397467210275774e+03, -1.848090344320856e+02, 7.409856940517953e+03
875, 1.499999999998800e-04, 2.699999999996155e-03, 1.444366859594338e-04, -1.940591508953788e-05, -4.370580655390040e+01, -1.108053267205505e+04, -6.769360284285583e+02, 1.111955560287309e+04
876, 1.999999999999424e-04, 2.699999999994831e-03, 1.443816425430560e-04, -2.430016498218508e-05, -9.715761696036134e+01, -1.475526708007459e+04, -1.221616625423505e+03, 1.486033518298572e+04
877, -2.000000000000321e-04, 2.600000000005380e-03, 1.365846100166899e-04, 1.457785675132208e-05, 1.645658737038339e+02, 1.525192466088132e+04, 1.686945417601376e+03, 1.545999788295221e+04
878, -1.500000000000841e-04, 2.600000000004088e-03, 1.361676768113267e-04, 9.850628245406775e-06, 1.479939456064924e+02, 1.143172683723254e+04, 1.505685993760867e+03, 1.167865528289940e+04
879, -1.000000000001480e-04, 2.600000000002797e-03, 1.358050830007778e-04, 5.125871302211280e-06, 1.276743341387532e+02, 7.614838245397547e+03, 1.273115746268668e+03, 7.908281624199089e+03
880, -5.000000000021105e-05, 2.600000000001504e-03, 1.354968230970054e-04, 4.010446124237958e-07, 1.032304638086873e+02, 3.801992766543723e+03, 9.888887739472545e+02, 4.194335060660915e+03
881, -3.077169053421203e-16, 2.600000000000212e-03, 1.352428754524964e-04, -4.326403539874711e-06, 7.427431571826924e+01, -6.059255768846924e+00, 6.526571114454838e+02, 1.307783890093973e+03
882, 4.999999999972220e-05, 2.599999999998920e-03, 1.350432020351322e-04, -9.059035372818155e-06, 4.040665020406914e+01, -3.808550528646805e+03, 2.640709610497382e+02, 3.885023198708935e+03
883, 9.999999999978321e-05, 2.599999999997628e-03, 1.348977482005630e-04, -1.379942369983026e-05, 1.216858531898652e+00, -7.604696625179167e+03, -1.772211212535016e+02, 7.614167664621735e+03
884, 1.499999999998756e-04, 2.599999999996335e-03, 1.348064424624861e-04, -1.855015202064381e-05, -4.371715053474418e+01, -1.139369577633961e+04, -6.715720389076737e+02, 1.142917542170028e+04
885, 1.999999999999405e-04, 2.599999999995043e-03, 1.347691962611699e-04, -2.331381460988531e-05, -9.482905497336401e+01, -1.517472865461020e+04, -1.219336007140501e+03, 1.527581399233326e+04
886, -2.000000000000340e-04, 2.500000000005436e-03, 1.271360117865869e-04, 1.447839104424471e-05, 1.589404457799542e+02, 1.567890018430323e+04, 1.688293289972385e+03, 1.588302512801785e+04
887, -1.500000000000885e-04, 2.500000000004174e-03, 1.267264132450516e-04, 9.885388208833748e-06, 1.419054668670865e+02, 1.175349243260065e+04, 1.510194799483874e+03, 1.199798754759922e+04
888, -1.000000000001556e-04, 2.500000000002911e-03, 1.263726145538005e-04, 5.294972164157281e-06, 1.215449466674006e+02, 7.831008180742412e+03, 1.280058907720103e+03, 8.123424560275590e+03
889, -5.000000000022121e-05, 2.500000000001650e-03, 1.260746246478716e-04, 7.045663785422900e-07, 9.748434791892669e+01, 3.912178946827879e+03, 9.975179278588286e+02, 4.304888262027740e+03
890, -3.205375960317614e-16, 2.500000000000388e-03, 1.258324363950121e-04, -3.888416628884896e-06, 6.933773921277771e+01, -2.246520157392297e+00, 6.622019191880750e+02, 1.326336998388816e+03
891, 4.999999999971200e-05, 2.499999999999127e-03, 1.256460263636938e-04, -8.486575392331059e-06, 3.670756925650630e+01, -3.911502117310500e+03, 2.737387892034874e+02, 3.985986882562448e+03
892, 9.999999999977564e-05, 2.499999999997865e-03, 1.255153545895375e-04, -1.309251960054878e-05, -8.154213460786650e-01, -7.814804144223760e+03, -1.682455199504021e+02, 7.821230464651525e+03
893, 1.499999999998713e-04, 2.499999999996604e-03, 1.254403643396166e-04, -1.770887019617883e-05, -4.365233301532862e+01, -1.171135108821980e+04, -6.641268494279980e+02, 1.174305974313018e+04
894, 1.999999999999386e-04, 2.499999999995341e-03, 1.254209818746328e-04, -2.233825947314441e-05, -9.223611879665236e+01, -1.560032331739651e+04, -1.214282603993245e+03, 1.569709200867534e+04
895, -2.000000000000358e-04, 2.400000000005491e-03, 1.179591891067574e-04, 1.433873932587381e-05, 1.528502728759961e+02, 1.611213541760164e+04, 1.686703534674579e+03, 1.631191765508260e+04
896, -1.500000000000929e-04, 2.400000000004260e-03, 1.175568176535055e-04, 9.883629366205166e-06, 1.353455374059456e+02, 1.208006095166460e+04, 1.512496078031408e+03, 1.232180197340754e+04
897, -1.000000000001632e-04, 2.400000000003029e-03, 1.172117252916385e-04, 5.431231726717817e-06, 1.149640882524739e+02, 8.050498918106160e+03, 1.285526734192753e+03, 8.341644260762869e+03
898, -5.000000000023145e-05, 2.400000000001797e-03, 1.169239362062633e-04, 9.789347179240466e-07, 9.133406484494662e+01, 4.024178304060022e+03, 1.005405633751440e+03, 4.417083400100541e+03
899, -3.333650629849805e-16, 2.400000000000566e-03, 1.166934586151265e-04, -3.475884859545877e-06, 6.407190617090691e+01, 1.845782109805214e+00, 6.717402172300721e+02, 1.344920729371395e+03
900, 4.999999999970184e-05, 2.399999999999334e-03, 1.165202845317411e-04, -7.935861824835395e-06, 3.278217155285029e+01, -4.015734122955665e+03, 2.841354602508511e+02, 4.088204499042191e+03
901, 9.999999999976805e-05, 2.399999999998102e-03, 1.164043895261190e-04, -1.240364272681455e-05, -2.942603651347326e+00, -8.027778808117348e+03, -1.578059687983260e+02, 8.031040219278061e+03
902, 1.499999999998670e-04, 2.399999999996872e-03, 1.163457324832563e-04, -1.688188595246787e-05, -4.352204896156900e+01, -1.203348735719007e+04, -6.544835303699358e+02, 1.206120486761687e+04
903, 1.999999999999366e-04, 2.399999999995640e-03, 1.163442553592813e-04, -2.137326183325741e-05, -8.938824670377790e+01, -1.603204041569234e+04, -1.206298624255531e+03, 1.612416768905852e+04
904, -2.000000000000378e-04, 2.300000000005451e-03, 1.090617073390221e-04, 1.415877343977142e-05, 1.463033929152614e+02, 1.655162218949005e+04, 1.682011935066958e+03, 1.674667553325378e+04
905, -1.500000000000972e-04, 2.300000000004251e-03, 1.086664292363573e-04, 9.845273643251069e-06, 1.283166326915903e+02, 1.241142927074752e+04, 1.512464827031426e+03, 1.265010100715398e+04
906, -1.000000000001708e-04, 2.300000000003051e-03, 1.083299281597634e-04, 5.534622553066052e-06, 1.079294909966454e+02, 8.273311756025218e+03, 1.289434100571091e+03, 8.562945096922289e+03
907, -5.000000000024163e-05, 2.300000000001851e-03, 1.080522443923445e-04, 1.224173385581968e-06, 8.477326960365122e+01, 4.137995813626311e+03, 1.012506962642647e+03, 4.530926438265455e+03
908, -3.461857536746216e-16, 2.300000000000652e-03, 1.078334023596042e-04, -3.088732722922346e-06, 5.846716789903576e+01, 6.225588937615385e+00, 6.812676710341796e+02, 1.363536483178108e+03
909, 4.999999999969163e-05, 2.299999999999453e-03, 1.076734103875300e-04, -7.406766837616208e-06, 2.861824078005930e+01, -4.121236433550071e+03, 2.952976406079902e+02, 4.191669906404154e+03
910, 9.999999999976044e-05, 2.299999999998253e-03, 1.075722604580476e-04, -1.173261234409231e-05, -5.178769209564962e+00, -8.243609195108365e+03, -1.458243857371588e+02, 8.243591140290595e+03
911, 1.499999999998626e-04, 2.299999999997052e-03, 1.075299279619080e-04, -1.606896506636926e-05, -4.334159567641245e+01, -1.236009281786598e+04, -6.425221731114011e+02, 1.238360608389444e+04
912, 1.999999999999347e-04, 2.299999999995853e-03, 1.075463714490133e-04, -2.041853338391005e-05, -8.630061317652644e+01, -1.646986834491181e+04, -1.195221848557036e+03, 1.655703816174348e+04
913, -2.000000000000396e-04, 2.200000000005174e-03, 1.004512417685982e-04, 1.393841900039355e-05, 1.393075112295794e+02, 1.699734692454805e+04, 1.674049560334651e+03, 1.718729939760245e+04
914, -1.500000000001016e-04, 2.200000000004032e-03, 1.000628957091381e-04, 9.770296640075620e-06, 1.208212828713276e+02, 1.274759025798611e+04, 1.509972656459670e+03, 1.298288736930058e+04
915, -1.000000000001784e-04, 2.200000000002889e-03, 9.973484321291005e-05, 5.605170781735477e-06, 1.004391800068570e+02, 8.499445515280255e+03, 1.291693338655571e+03, 8.787331457528580e+03
916, -5.000000000025179e-05, 2.200000000001748e-03, 9.946714152833723e-05, 1.440359626639152e-06, 7.779589665293020e+01, 4.253635313679706e+03, 1.018775463682070e+03, 4.646423206983732e+03
917, -3.590132206278407e-16, 2.200000000000606e-03, 9.925983216755242e-05, -2.726831291505538e-06, 5.251395826068506e+01, 1.090089292004154e+01, 6.907794813785607e+02, 1.382185521115591e+03
918, 4.999999999968146e-05, 2.199999999999464e-03, 9.911294065926392e-05, -6.899109236267083e-06, 2.420342735868394e+01, -4.227997729380681e+03, 3.072626140523974e+02, 4.296377070666965e+03
919, 9.999999999975283e-05, 2.199999999998322e-03, 9.902647629873815e-05, -1.107919439800342e-05, -7.538258559048700e+00, -8.462281483326988e+03, -1.322209881226208e+02, 8.458877736175164e+03
920, 1.499999999998582e-04, 2.199999999997180e-03, 9.900043189507550e-05, -1.526982002210088e-05, -4.312645033001672e+01, -1.269115197965988e+04, -6.281200799592011e+02, 1.271025920781994e+04
921, 1.999999999999328e-04, 2.199999999996038e-03, 9.903478351600246e-05, -1.947373253589646e-05, -8.298933048285448e+01, -1.691379114906419e+04, -1.180886154579872e+03, 1.699570117108071e+04
922, -2.000000000000416e-04, 2.100000000004828e-03, 9.213557753102143e-05, 1.367765835226071e-05, 1.318784865969262e+02, 1.744929649637266e+04, 1.662642942028684e+03, 1.763378838298838e+04
923, -1.500000000001059e-04, 2.100000000003754e-03, 9.175397323822737e-05, 9.658730549760070e-06, 1.128680802974959e+02, 1.308853729372692e+04, 1.504887305916437e+03, 1.332016271486103e+04
924, -1.000000000001860e-04, 2.100000000002678e-03, 9.143419753899427e-05, 5.642959029798163e-06, 9.249500448269555e+01, 8.728899199370884e+03, 1.292214079899151e+03, 9.014807060089570e+03
925, -5.000000000026199e-05, 2.100000000001603e-03, 9.117632553881484e-05, 1.627627062956010e-06, 7.039816038667982e+01, 4.371101042703463e+03, 1.024163125622945e+03, 4.763579086517924e+03
926, -3.718339113174818e-16, 2.100000000000528e-03, 9.098041674004331e-05, -2.389995346748756e-06, 4.620387334815905e+01, 1.588061586115009e+01, 7.002704888506313e+02, 1.400869205231178e+03
927, 4.999999999967128e-05, 2.099999999999452e-03, 9.084651478958156e-05, -6.412651604129141e-06, 1.952573383451931e+01, -4.336005019235279e+03, 3.200685532666696e+02, 4.402320258238561e+03
928, 9.999999999974523e-05, 2.099999999998377e-03, 9.077464722351646e-05, -1.044309866291693e-05, -1.003559099915856e+01, -8.683779258651184e+03, -1.169137916589166e+02, 8.676894868030495e+03
929, 1.499999999998539e-04, 2.099999999997302e-03, 9.076482520891851e-05, -1.448410716471623e-05, -4.289252042064595e+01, -1.302664566161329e+04, -6.111509866294161e+02, 1.304116052141305e+04
930, 1.999999999999309e-04, 2.099999999996226e-03, 9.081704328307356e-05, -1.853846157667570e-05, -7.947080454921274e+01, -1.736378773958039e+04, -1.163120607722233e+03, 1.744015510547535e+04
931, -2.000000000000435e-04, 2.000000000004496e-03, 8.412260975498192e-05, 1.337653355581187e-05, 1.240311674873153e+02, 1.790745101705676e+04, 1.647613547819516e+03, 1.808614229618616e+04
932, -1.500000000001103e-04, 2.000000000003499e-03, 8.374752649099343e-05, 9.510667142740584e-06, 1.044646699189934e+02, 1.343425855049237e+04, 1.497072708641941e+03, 1.366192928097688e+04
933, -1.000000000001936e-04, 2.000000000002501e-03, 8.343582523534507e-05, 5.648129358648871e-06, 8.409818361948646e+01, 8.961668454335602e+03, 1.290903217804392e+03, 9.245376054139362e+03
934, -5.000000000027220e-05, 2.000000000001505e-03, 8.318759986346588e-05, 1.786168643978405e-06, 6.257535466894160e+01, 4.490395206323574e+03, 1.028620356787911e+03, 4.882399818972306e+03
935, -3.846512138753339e-16, 2.000000000000507e-03, 8.300292879378444e-05, -2.077980443853826e-06, 3.952691858669345e+01, 2.117267577462167e+01, 7.097351353561601e+02, 1.419588929114803e+03
936, 4.999999999966107e-05, 1.999999999999510e-03, 8.288187473002243e-05, -5.947097382889385e-06, 1.457055737970927e+01, -4.445245553027268e+03, 3.337544598830529e+02, 4.509493086435873e+03
937, 9.999999999973761e-05, 1.999999999998513e-03, 8.282448440044789e-05, -9.823975838385008e-06, -1.268928118601684e+01, -8.908085872009380e+03, -9.981871245581760e+01, 8.897636518169153e+03
938, 1.499999999998495e-04, 1.999999999997515e-03, 8.283078829408367e-05, -1.371142381332823e-05, -4.266157895440756e+01, -1.336655435081313e+04, -5.914852055132909e+02, 1.337630507985496e+04
939, 1.999999999999290e-04, 1.999999999996517e-03, 8.290080039391835e-05, -1.761226379703014e-05, -7.576892074808643e+01, -1.781983640292563e+04, -1.141749478121221e+03, 1.789039681771287e+04
940, -2.000000000000454e-04, 1.900000000004165e-03, 7.642034346130173e-05, 1.303514947244812e-05, 1.157865893943883e+02, 1.837178923060086e+04, 1.628778163964908e+03, 1.854436048143406e+04
941, -1.500000000001146e-04, 1.900000000003247e-03, 7.605152852990690e-05, 9.326260822057957e-06, 9.562292106299492e+01, 1.378474093178006e+04, 1.486389102083505e+03, 1.400818911074907e+04
942, -1.000000000002012e-04, 1.900000000002328e-03, 7.574766728490664e-05, 5.620886314852765e-06, 7.525249132253930e+01, 9.197747929091332e+03, 1.287665022469985e+03, 9.479042559904610e+03
943, -5.000000000028235e-05, 1.900000000001409e-03, 7.550887330830300e-05, 1.916239669941141e-06, 5.432407692466700e+01, 4.611519661281972e+03, 1.032095994131942e+03, 5.002891179957698e+03
944, -3.974685164331859e-16, 1.900000000000491e-03, 7.533524488406135e-05, -1.790479906655654e-06, 3.247335569292477e+01, 2.678546722728584e+01, 7.191673834028343e+02, 1.438346013126575e+03
945, 4.999999999965091e-05, 1.899999999999572e-03, 7.522686473541015e-05, -5.502087887035522e-06, 9.322673738545518e+00, -4.555705124995796e+03, 3.483599723308511e+02, 4.617888855798363e+03
946, 9.999999999973007e-05, 1.899999999998654e-03, 7.518379975890895e-05, -9.221414585080901e-06, -1.551916386703851e+01, -9.135182087898876e+03, -8.084988998565382e+01, 9.121096352237690e+03
947, 1.499999999998452e-04, 1.899999999997735e-03, 7.520610075524448e-05, -1.295130531933239e-05, -4.245710713023664e+01, -1.371085457387989e+04, -5.689901378654666e+02, 1.371568767568732e+04
948, 1.999999999999271e-04, 1.899999999996817e-03, 7.529380215660566e-05, -1.669462057526302e-05, -7.191004375433954e+01, -1.828191056119730e+04, -1.116592804036886e+03, 1.834642299755952e+04
949, -2.000000000000473e-04, 1.800000000003828e-03, 6.903689354429608e-05, 1.265367691793632e-05, 1.071659603358667e+02, 1.884228284566833e+04, 1.605948964976702e+03, 1.900844267738703e+04
950, -1.500000000001189e-04, 1.800000000002982e-03, 6.867406073545826e-05, 9.105731769948627e-06, 8.635567791299172e+01, 1.413996670969776e+04, 1.472693184655533e+03, 1.435894438659145e+04
951, -1.000000000002088e-04, 1.800000000002135e-03, 6.837777143102733e-05, 5.561500058227483e-06, 6.596257663903816e+01, 9.437129380707116e+03, 1.282401210753534e+03, 9.715810760355309e+03
952, -5.000000000029254e-05, 1.800000000001289e-03, 6.814815987762022e-05, 2.018160903437755e-06, 4.564133575831102e+01, 4.734474793279195e+03, 1.034537383839731e+03, 5.125058983720585e+03
953, -4.102858189910380e-16, 1.800000000000442e-03, 6.798534519678548e-05, -1.527121733184285e-06, 2.503325790723670e+01, 3.272722553789208e+01, 7.285608068378749e+02, 1.457141926573703e+03
954, 4.999999999964072e-05, 1.799999999999596e-03, 6.788943111757840e-05, -5.077199226329978e-06, 3.766027102171392e+00, -4.667368415622372e+03, 3.639255010185279e+02, 4.727500826353589e+03
955, 9.999999999972246e-05, 1.799999999998750e-03, 6.786050570584073e-05, -8.634938463155064e-06, -1.854650629902312e+01, -9.365046259891215e+03, -5.991946430168667e+01, 9.347267997265710e+03
956, 1.499999999998409e-04, 1.799999999997903e-03, 6.789864109002627e-05, -1.220322201947403e-05, -4.230453595693029e+01, -1.405951911760636e+04, -5.435298317774817e+02, 1.405930308870727e+04
957, 1.999999999999252e-04, 1.799999999997057e-03, 6.800389318359149e-05, -1.578494833515794e-05, -6.792259724498172e+01, -1.874997817807312e+04, -1.087466028552456e+03, 1.880823038401472e+04
958, -2.000000000000492e-04, 1.700000000003484e-03, 6.198048458304410e-05, 1.223235593622423e-05, 9.819855164543878e+01, 1.931890214606898e+04, 1.578933563998413e+03, 1.947838729111753e+04
959, -1.500000000001233e-04, 1.700000000002704e-03, 6.162331261221407e-05, 8.849369191955441e-06, 7.668110181544353e+01, 1.449991652423419e+04, 1.455837918985121e+03, 1.471419641828716e+04
960, -1.000000000002164e-04, 1.700000000001925e-03, 6.133429196497213e-05, 5.470309585655733e-06, 5.623644196858231e+01, 9.679803258556389e+03, 1.275010845974681e+03, 9.955684250856006e+03
961, -5.000000000030273e-05, 1.700000000001145e-03, 6.111357853464931e-05, 2.092321771850976e-06, 3.652584699405634e+01, 4.859260263796044e+03, 1.035890295169282e+03, 5.248908655092981e+03
962, -4.231031215488901e-16, 1.700000000000365e-03, 6.096131327631133e-05, -1.287465414035125e-06, 1.719687775729744e+01, 3.900614226549919e+01, 7.379085111603993e+02, 1.475978159523445e+03
963, 4.999999999963053e-05, 1.699999999999585e-03, 6.087762193513399e-05, -4.671939145328939e-06, -2.116783117814748e+00, -4.780219445091145e+03, 3.804921294951230e+02, 4.838322239246530e+03
964, 9.999999999971485e-05, 1.699999999998805e-03, 6.086261477150927e-05, -8.064002793743787e-06, -2.179557237550557e+01, -9.597655450811006e+03, -3.693771056593346e+01, 9.576144839614642e+03
965, 1.499999999998365e-04, 1.699999999998025e-03, 6.091638628265031e-05, -1.146657611956412e-05, -4.223429738868185e+01, -1.441251908970273e+04, -5.149652531534484e+02, 1.440714551394668e+04
966, 1.999999999999232e-04, 1.699999999997246e-03, 6.103901492024789e-05, -1.488259546209065e-05, -6.384228755176719e+01, -1.922400536939941e+04, -1.054180004292298e+03, 1.927581467146839e+04
967, -2.000000000000511e-04, 1.600000000003144e-03, 5.525945077020319e-05, 1.177149914417547e-05, 8.891660972630530e+01, 1.980161188137548e+04, 1.547534303671393e+03, 1.995419265610760e+04
968, -1.500000000001277e-04, 1.600000000002436e-03, 5.490758165289565e-05, 8.557534645777599e-06, 6.661980346063206e+01, 1.486456691387904e+04, 1.435672384013744e+03, 1.507394637975137e+04
969, -1.000000000002240e-04, 1.600000000001727e-03, 5.462548953617954e-05, 5.347726038211770e-06, 4.608401459017955e+01, 9.925757424109452e+03, 1.265390235139030e+03, 1.019866640632504e+04
970, -5.000000000031292e-05, 1.600000000001018e-03, 5.441335296555629e-05, 2.139183654769327e-06, 2.697757121015820e+01, 4.985874523154626e+03, 1.036098884043578e+03, 5.374445326735544e+03
971, -4.359339766338982e-16, 1.600000000000309e-03, 5.427133574918836e-05, -1.070998665219794e-06, 8.955002346791161e+00, 4.563056993884447e+01, 7.472031247086056e+02, 1.494856225713836e+03
972, 4.999999999962034e-05, 1.599999999999600e-03, 5.419958668246640e-05, -4.285743777601071e-06, -8.343248145215512e+00, -4.894240578832227e+03, 3.981016145276815e+02, 4.950346685634516e+03
973, 9.999999999970728e-05, 1.599999999998891e-03, 5.419823926997712e-05, -7.507991436263987e-06, -2.529110456697595e+01, -9.832983299722189e+03, -1.181304690848094e+01, 9.807720651977070e+03
974, 1.499999999998322e-04, 1.599999999998182e-03, 5.426741144422289e-05, -1.074069849781818e-05, -4.227715494222343e+01, -1.476981989101568e+04, -4.831542483825218e+02, 1.475920957076598e+04
975, 1.999999999999214e-04, 1.599999999997473e-03, 5.440720528055083e-05, -1.398683912804523e-05, -5.970496726865599e+01, -1.970395020029887e+04, -1.016541276770022e+03, 1.974917201922499e+04
976, -2.000000000000531e-04, 1.500000000002802e-03, 4.888223572879279e-05, 1.127149514679189e-05, 7.935583191318960e+01, 2.029037121943704e+04, 1.511549008944304e+03, 2.043585732531151e+04
977, -1.500000000001320e-04, 1.500000000002160e-03, 4.853527311593550e-05, 8.230665436351642e-06, 5.619546389308744e+01, 1.523389065048138e+04, 1.412042027090994e+03, 1.543819555265674e+04
978, -1.000000000002316e-04, 1.500000000001518e-03, 4.825973088731364e-05, 5.194236081538538e-06, 3.551724577928280e+01, 1.017497717845060e+04, 1.253433150468835e+03, 1.044476071420614e+04
979, -5.000000000032311e-05, 1.500000000000877e-03, 4.805581126978816e-05, 2.159283248469492e-06, 1.699734488512627e+01, 5.114314533518436e+03, 1.035105883081909e+03, 5.501674225024570e+03
980, -4.487512791917503e-16, 1.500000000000236e-03, 4.792370196794477e-05, -8.771340798182931e-07, 2.979927302885699e-01, 5.260829418622507e+01, 7.564369720772154e+02, 1.513778034765928e+03
981, 4.999999999961016e-05, 1.499999999999595e-03, 4.786357588443806e-05, -3.917974315785323e-06, -1.493277920157493e+01, -5.009413917689608e+03, 4.167965288378203e+02, 5.063567835875979e+03
982, 9.999999999969963e-05, 1.499999999998952e-03, 4.787559083912879e-05, -6.966213480740477e-06, -2.906150117048924e+01, -1.007100238609843e+04, 1.554808152293691e+01, 1.004198903144907e+04
983, 1.499999999998278e-04, 1.499999999998311e-03, 4.795988928775081e-05, -1.002484542240013e-05, -4.246967480647368e+01, -1.513138521022098e+04, -4.479514372328604e+02, 1.511548920793996e+04
984, 1.999999999999195e-04, 1.499999999997670e-03, 4.811659803720554e-05, -1.309688203836577e-05, -5.555418099953999e+01, -2.018976798922052e+04, -9.743517488591989e+02, 2.022829728368594e+04
985, -2.000000000000549e-04, 1.400000000002461e-03, 4.285739227955445e-05, 1.073281204178309e-05, 6.955804741037900e+01, 2.078513534480877e+04, 1.470770632490857e+03, 2.092337945404800e+04
986, -1.500000000001364e-04, 1.400000000001890e-03, 4.251489976019139e-05, 7.869278099026230e-06, 4.543585433605494e+01, 1.560785726883789e+04, 1.384788477913717e+03, 1.580694520762300e+04
987, -1.000000000002392e-04, 1.400000000001320e-03, 4.224548855030686e-05, 5.010405364539632e-06, 2.455077837172007e+01, 1.042744581856263e+04, 1.239030690366088e+03, 1.069397089129688e+04
988, -5.000000000033329e-05, 1.400000000000748e-03, 4.204938561373721e-05, 2.153236005818095e-06, 6.587517169521789e+00, 5.244576529826658e+03, 1.032852559196725e+03, 5.630600903356033e+03
989, -4.615719698813914e-16, 1.400000000000178e-03, 4.192680362247728e-05, -7.052057041802625e-07, -8.783305642292362e+00, 5.994765155679761e+01, 7.656020963852316e+02, 1.532745975181585e+03
990, 4.999999999959998e-05, 1.399999999999606e-03, 4.187794066787176e-05, -3.567913605549849e-06, -2.190531213350596e+01, -5.125719747026978e+03, 4.366202766198783e+02, 5.177979417654096e+03
991, 9.999999999969204e-05, 1.399999999999035e-03, 4.190297997751870e-05, -6.437899866629389e-06, -3.313674068668684e+01, -1.031168212772644e+04, 4.524111863753649e+01, 1.027894363778197e+04
992, 1.499999999998235e-04, 1.399999999998463e-03, 4.200208963634462e-05, -9.318195205974787e-06, -4.285094566055113e+01, -1.549717386240794e+04, -4.092084831605354e+02, 1.547597826135284e+04
993, 1.999999999999176e-04, 1.399999999997893e-03, 4.217542231088103e-05, -1.221184913117582e-05, -5.143686488307094e+01, -2.068140712673205e+04, -9.274090471314241e+02, 2.071318476641335e+04
994, -2.000000000000568e-04, 1.300000000002126e-03, 3.719358222469627e-05, 1.015600101661557e-05, 5.956848198908324e+01, 2.128585237035153e+04, 1.424987110418272e+03, 2.141675700867870e+04
995, -1.500000000001407e-04, 1.300000000001629e-03, 3.685508158050517e-05, 7.473971960088411e-06, 3.437051450879403e+01, 1.598643038230179e+04, 1.353749260005582e+03, 1.618019660762855e+04
996, -1.000000000002468e-04, 1.300000000001133e-03, 3.659134053243310e-05, 4.796882049388765e-06, 1.319966808644494e+01, 1.068314235897938e+04, 1.222070881989230e+03, 1.094630101857990e+04
997, -5.000000000034346e-05, 1.300000000000637e-03, 3.640261186342011e-05, 2.121739639789601e-06, -4.249809542148341e+00, 5.376654993504886e+03, 1.029278328412526e+03, 5.761231813493829e+03
998, -4.743892724392434e-16, 1.300000000000140e-03, 3.628913430997649e-05, -5.544655535630272e-07, -1.829837961688577e+01, 6.765827643246075e+01, 7.746900914492229e+02, 1.551762706691203e+03
999, 4.999999999958981e-05, 1.299999999999644e-03, 3.625113226353238e-05, -3.234762674850550e-06, -2.928136104081614e+01, -5.243134564571492e+03, 4.576173227582523e+02, 5.293573432410361e+03
1000, 9.999999999968445e-05, 1.299999999999148e-03, 3.628881547675024e-05, -5.922199925475352e-06, -3.754856502434563e+01, -1.055498711852598e+04, 7.736398914928810e+01, 1.051857663726185e+04
1001, 1.499999999998191e-04, 1.299999999998652e-03, 3.640237879284694e-05, -8.619844769604002e-06, -4.346407217214073e+01, -1.586714004604982e+04, -3.667733223174159e+02, 1.584066955674944e+04
1002, 1.999999999999157e-04, 1.299999999998155e-03, 3.659200188051347e-05, -1.133078417622992e-05, -4.740693813617008e+01, -2.117881172852259e+04, -8.755060566686903e+02, 2.120382776378407e+04
1003, -2.000000000000587e-04, 1.200000000001781e-03, 3.189957602923972e-05, 9.541700052804931e-06, 4.943864048154978e+01, 2.179246392234648e+04, 1.373981704065067e+03, 2.191598620414423e+04
1004, -1.500000000001450e-04, 1.200000000001350e-03, 3.156454548671520e-05, 7.045432821516039e-06, 2.302994131790001e+01, 1.636956318673135e+04, 1.318757443227332e+03, 1.655794775688331e+04
1005, -1.000000000002543e-04, 1.200000000000919e-03, 3.130597000222019e-05, 4.554400451513294e-06, 1.476000680043171e+00, 1.094203485300680e+04, 1.202437141618524e+03, 1.120175202008152e+04
1006, -5.000000000035367e-05, 1.200000000000488e-03, 3.112412924910397e-05, 2.065577692662753e-06, -1.551582896942637e+01, 5.510539317525609e+03, 1.024318319217267e+03, 5.893572563262509e+03
1007, -4.872353741173022e-16, 1.200000000000057e-03, 3.101928913110476e-05, -4.240801234897728e-07, -2.825785272327744e+01, 7.575439474423274e+01, 7.836899594446866e+02, 1.570827284509949e+03
1008, 4.999999999957962e-05, 1.199999999999626e-03, 3.099170147446833e-05, -2.917637299099261e-06, -3.708032310169551e+01, -5.361622029678223e+03, 4.798325080990392e+02, 5.410332829723819e+03
1009, 9.999999999967686e-05, 1.199999999999196e-03, 3.104160374435292e-05, -5.418177949905586e-06, -4.232784188050664e+01, -1.080086714106646e+04, 1.120183640272815e+02, 1.076087172619607e+04
1010, 1.499999999998148e-04, 1.199999999998765e-03, 3.116921873773742e-05, -7.928806180274851e-06, -4.435574464912997e+01, -1.624122888348845e+04, -3.204878580414878e+02, 1.620955117652129e+04
1011, 1.999999999999137e-04, 1.199999999998334e-03, 3.137475431491089e-05, -1.045264629654282e-05, -4.352832567488895e+01, -2.168192492941897e+04, -8.184290514642696e+02, 2.170021917009241e+04
1012, -2.000000000000607e-04, 1.100000000001707e-03, 2.698425242661856e-05, 8.890637783731131e-06, 3.923189619101458e+01, 2.230490774312880e+04, 1.317535324143412e+03, 2.242105970382247e+04
1013, -1.500000000001494e-04, 1.100000000001301e-03, 2.665212498401316e-05, 6.584436934522536e-06, 1.144177778064295e+01, 1.675718270992658e+04, 1.279642062110623e+03, 1.694018224798773e+04
1014, -1.000000000002619e-04, 1.100000000000895e-03, 2.639816511522597e-05, 4.283785000385296e-06, -1.061868830478465e+01, 1.120405911238836e+04, 1.180003849871965e+03, 1.146030691195529e+04
1015, -5.000000000036384e-05, 1.100000000000489e-03, 2.622268030571421e-05, 1.985623267428097e-06, -2.722267603555019e+01, 5.646200799270016e+03, 1.017894899658598e+03, 6.027617608736659e+03
1016, -5.000628410705213e-16, 1.100000000000083e-03, 2.612596455047173e-05, -3.131270048242522e-07, -3.867665999654241e+01, 8.426088028445815e+01, 7.925792079703934e+02, 1.589918501822734e+03
1017, 4.999999999956943e-05, 1.099999999999677e-03, 2.610829827190350e-05, -2.615564888023113e-06, -4.531832857483937e+01, -5.481109528574252e+03, 5.033067160920929e+02, 5.528209164986857e+03
1018, 9.999999999966927e-05, 1.099999999999272e-03, 2.616994800687097e-05, -4.924810107320963e-06, -4.750079723833142e+01, -1.104923045634585e+04, 1.493120271455954e+02, 1.100578174496875e+04
1019, 1.499999999998105e-04, 1.099999999998866e-03, 2.631116602316082e-05, -7.244003324353628e-06, -4.557501892806545e+01, -1.661936281938935e+04, -2.701806371692237e+02, 1.658259425908756e+04
1020, 1.999999999999118e-04, 1.099999999998460e-03, 2.653218975107728e-05, -9.576306324201413e-06, -3.988484522324120e+01, -2.219070276972857e+04, -7.559514101938821e+02, 2.220235538997795e+04
1021, -2.000000000000626e-04, 1.000000000002109e-03, 2.245659794783394e-05, 8.203637448510014e-06, 2.903182131965468e+01, 2.282312513398350e+04, 1.255434715457354e+03, 2.293196797585259e+04
1022, -1.500000000001537e-04, 1.000000000001674e-03, 2.212675989850559e-05, 6.091855695040000e-06, -3.646936241566436e-01, 1.714916706266158e+04, 1.236231622741755e+03, 1.732684373912686e+04
1023, -1.000000000002696e-04, 1.000000000001239e-03, 2.187681926191827e-05, 3.985955097268467e-06, -2.309575430950122e+01, 1.146908166826405e+04, 1.154627702729798e+03, 1.172189414896559e+04
1024, -5.000000000037402e-05, 1.000000000000804e-03, 2.170711148896057e-05, 1.882843271828726e-06, -3.939681187389192e+01, 5.783572258334474e+03, 1.009896939443971e+03, 6.163321840192712e+03
1025, -5.128852258260569e-16, 1.000000000000369e-03, 2.161795903704453e-05, -2.205917785129090e-07, -4.958073878469008e+01, 9.322234303366668e+01, 8.013011920171278e+02, 1.608952181231344e+03
1026, 4.999999999955924e-05, 9.999999999999337e-04, 2.160967185460529e-05, -2.327482355716455e-06, -5.401692411397516e+01, -5.601452249012498e+03, 5.280630859010630e+02, 5.647073682421488e+03
1027, 9.999999999966167e-05, 9.999999999994987e-04, 2.168254756891022e-05, -4.440982485152652e-06, -5.309475748962564e+01, -1.129989882485131e+04, 1.893619896597571e+02, 1.125317882121025e+04
1028, 1.499999999998061e-04, 9.999999999990637e-04, 2.183687029331916e-05, -6.564269183381632e-06, -4.718268386778868e+01, -1.700142357045932e+04, -2.156509415676301e+02, 1.695972598112859e+04
1029, 1.999999999999099e-04, 9.999999999986283e-04, 2.207290925933227e-05, -8.700542775959725e-06, -3.659350077616364e+01, -2.270514227929730e+04, -6.878178600469223e+02, 2.271025049088166e+04
1030, -2.000000000000644e-04, 9.000000000025380e-04, 1.832570713165948e-05, 7.481620733805952e-06, 1.894567637152932e+01, 2.334707883748550e+04, 1.187483037814645e+03, 2.344871554356561e+04
1031, -1.500000000001581e-04, 9.000000000020734e-04, 1.799749686747614e-05, 5.568661527942035e-06, -1.232756772057360e+01, 1.754535576925678e+04, 1.188358941163892e+03, 1.771781679704779e+04
1032, -1.000000000002772e-04, 9.000000000016087e-04, 1.775093202992650e-05, 3.661931698639620e-06, -3.590525208831377e+01, 1.173694880167776e+04, 1.126135650689797e+03, 1.198635968867506e+04
1033, -5.000000000038420e-05, 9.000000000011442e-04, 1.758637476306935e-05, 1.758303655887193e-06, -5.202956072564348e+01, 5.922587867049760e+03, 1.000156480907061e+03, 6.300579763282039e+03
1034, -5.256991402521199e-16, 9.000000000006796e-04, 1.750417445208548e-05, -1.453653209072653e-07, -6.101408226221088e+01, 1.027121325687622e+02, 8.097362616361709e+02, 1.627727718955773e+03
1035, 4.999999999954906e-05, 9.000000000002148e-04, 1.750467157356267e-05, -2.052235728171539e-06, -6.326562381981716e+01, -5.722458189937165e+03, 5.540895039395132e+02, 5.766673322974139e+03
1036, 9.999999999965402e-05, 8.999999999997502e-04, 1.758819761036994e-05, -3.965491299719148e-06, -5.922446231245476e+01, -1.155265130148489e+04, 2.322936305342926e+02, 1.150281277907958e+04
1037, 1.499999999998018e-04, 8.999999999992857e-04, 1.775507342588710e-05, -5.888344251309263e-06, -4.928841873538045e+01, -1.738727062873949e+04, -1.566497011906748e+02, 1.734081265771450e+04
1038, 1.999999999999080e-04, 8.999999999988212e-04, 1.800560391467787e-05, -7.824037004440963e-06, -3.381002498485395e+01, -2.322532848767539e+04, -6.137233416777008e+02, 2.322397799615294e+04
1039, -2.000000000000664e-04, 8.000000000027327e-04, 1.460078806176574e-05, 6.725610538131229e-06, 8.915860743043140e+00, 2.387661258663831e+04, 1.113457384538548e+03, 2.397135991945483e+04
1040, -1.500000000001624e-04, 8.000000000022627e-04, 1.427349328873180e-05, 5.015933600360861e-06, -2.416920843181219e+01, 1.794590411130341e+04, 1.135816433240353e+03, 1.811308507672658e+04
1041, -1.000000000002848e-04, 8.000000000017928e-04, 1.402961121154821e-05, 3.312843155184888e-06, -4.859347697463795e+01, 1.200808174253902e+04, 1.094335973545504e+03, 1.225372197500898e+04
1042, -5.000000000039436e-05, 8.000000000013229e-04, 1.386952635213524e-05, 1.613174064774781e-06, -6.476898622268800e+01, 6.063676271703726e+03, 9.885133015400602e+02, 6.439446829401364e+03
1043, -5.385198309417610e-16, 8.000000000008525e-04, 1.379361427313487e-05, -8.624129067759423e-08, -7.302284201379666e+01, 1.128329857724127e+02, 8.177973719061592e+02, 1.646120455710511e+03
1044, 4.999999999953886e-05, 8.000000000003829e-04, 1.380224556984034e-05, -1.788579477371310e-06, -7.351567226843781e+01, -5.844389489983771e+03, 5.813904404720256e+02, 5.886853488671293e+03
1045, 9.999999999964645e-05, 7.999999999999128e-04, 1.389579104620383e-05, -3.497042668164744e-06, -6.644155039216184e+01, -1.180783787367973e+04, 2.782363213403075e+02, 1.175457568024311e+04
1046, 1.499999999997974e-04, 7.999999999994429e-04, 1.407461340714064e-05, -5.214874728829575e-06, -5.224897233304819e+01, -1.777711471871494e+04, -9.292982158763044e+01, 1.772584016441036e+04
1047, 1.999999999999061e-04, 7.999999999989728e-04, 1.433906071155063e-05, -6.945366463246864e-06, -3.153071435120091e+01, -2.375131157166295e+04, -5.333475411402890e+02, 2.374375375372341e+04
1048, -2.000000000000683e-04, 7.000000000024487e-04, 1.129118767903927e-05, 5.936733741460999e-06, -1.907894247545300e+00, 2.441088054158264e+04, 1.032759141957614e+03, 2.450001234680898e+04
1049, -1.500000000001667e-04, 7.000000000020254e-04, 1.096403600804886e-05, 4.434849519281317e-06, -3.520122112013883e+01, 1.835251893192020e+04, 1.078069042740637e+03, 1.851370259754079e+04
1050, -1.000000000002923e-04, 7.000000000016023e-04, 1.072207018240013e-05, 2.939910020817601e-06, -5.917190787606683e+01, 1.228622494317487e+04, 1.059105389987549e+03, 1.252579898921986e+04
1051, -5.000000000040459e-05, 7.000000000011791e-04, 1.056570635344805e-05, 1.448716443351531e-06, -7.591652946227236e+01, 6.209931204210383e+03, 9.754076995390238e+02, 6.581607892619987e+03
1052, -5.513337453678241e-16, 7.000000000007558e-04, 1.049535273095650e-05, -4.191244056056731e-08, -8.555834561912161e+01, 1.236911001166497e+02, 8.261750727420364e+02, 1.665546857288009e+03
1053, 4.999999999952868e-05, 7.000000000003326e-04, 1.051142282111004e-05, -1.535157891580262e-06, -8.643764484581493e+01, -5.970204484976075e+03, 6.105066936826754e+02, 6.009125220957026e+03
1054, 9.999999999963887e-05, 6.999999999999092e-04, 1.061432022934924e-05, -3.034229962831387e-06, -7.685594815469199e+01, -1.206923477755575e+04, 3.273022571355586e+02, 1.201023134906113e+04
1055, 1.499999999997930e-04, 6.999999999994860e-04, 1.080444843255736e-05, -4.542396310010383e-06, -5.690524884434944e+01, -1.817281311813520e+04, -2.461911542555305e+01, 1.811597478282666e+04
1056, 1.999999999999042e-04, 6.999999999990628e-04, 1.108219345118156e-05, -6.062997396502499e-06, -2.895378187528399e+01, -2.428250611106362e+04, -4.467240409857537e+02, 2.427000309146778e+04
1057, -2.000000000000702e-04, 6.000000000020976e-04, 8.406468726716551e-06, 5.116229205894151e-06, -1.787913085292712e+01, 2.494526651425698e+04, 9.430410164416857e+02, 2.503429539519208e+04
1058, -1.500000000001711e-04, 6.000000000017323e-04, 8.078585432523590e-06, 3.826617529417905e-06, -4.344119711275494e+01, 1.877298375368597e+04, 1.013004914197605e+03, 1.892518332153734e+04
1059, -1.000000000003000e-04, 6.000000000013669e-04, 7.837607600398802e-06, 2.544324158275988e-06, -6.214667290350985e+01, 1.258619992743119e+04, 1.020813271806338e+03, 1.281206114041695e+04
1060, -5.000000000041474e-05, 6.000000000010013e-04, 7.684029996420197e-06, 1.266194456257771e-06, -8.073816247292120e+01, 6.372973973881702e+03, 9.640255062483928e+02, 6.735560930295325e+03
1061, -5.641662945187267e-16, 6.000000000006360e-04, 7.618404734045892e-06, -1.096298929214335e-08, -9.819526837868261e+01, 1.353091852426683e+02, 8.393693102133727e+02, 1.694900494298500e+03
1062, 4.999999999951849e-05, 6.000000000002706e-04, 7.641213527443892e-06, -1.290398996062929e-06, -1.062075306098893e+02, -6.111639717428499e+03, 6.444852963382241e+02, 6.142203264241719e+03
1063, 9.999999999963128e-05, 5.999999999999052e-04, 7.752872973223923e-06, -2.575399196318802e-06, -9.593089237669187e+01, -1.235202204927633e+04, 3.797241286120753e+02, 1.227959820603403e+04
1064, 1.499999999997888e-04, 5.999999999995398e-04, 7.953720467935860e-06, -3.869254648615505e-06, -6.558159091271659e+01, -1.858258396492713e+04, 4.625738768019653e+01, 1.851723348405251e+04
1065, 1.999999999999023e-04, 5.999999999991742e-04, 8.244138745295830e-06, -5.175282306429626e-06, -2.178919427759934e+01, -2.481450453884972e+04, -3.557253097068444e+02, 2.480292112112696e+04
1066, -2.000000000000721e-04, 5.000000000017480e-04, 5.956533871708084e-06, 4.265518037629556e-06, -4.635290573789371e+01, 2.547071630562982e+04, 8.365349523378347e+02, 2.557185922148919e+04
1067, -1.500000000001754e-04, 5.000000000014432e-04, 5.626861621427041e-06, 3.192209422252100e-06, -4.553078487802532e+01, 1.923041351141228e+04, 9.345013739990364e+02, 1.936634193093035e+04
1068, -1.000000000003076e-04, 5.000000000011384e-04, 5.385467155210675e-06, 2.126807011814536e-06, -5.218491432955079e+01, 1.294278314526193e+04, 9.814198307839689e+02, 1.314237171924561e+04
1069, -5.000000000042491e-05, 5.000000000008338e-04, 5.233293545999136e-06, 1.066544328199402e-06, -7.478629561608932e+01, 6.578124616528676e+03, 9.660603562588292e+02, 6.927792870220258e+03
1070, -5.769852911424733e-16, 5.000000000005289e-04, 5.171322936473514e-06, 8.147644200850845e-09, -1.099884203500897e+02, 1.471062324956140e+02, 8.726630365752510e+02, 1.764160072709051e+03
1071, 4.999999999950832e-05, 5.000000000002242e-04, 5.200336758864029e-06, -1.052153815599493e-06, -1.353734431480254e+02, -6.294796804296217e+03, 6.944656895183816e+02, 6.314081605232153e+03
1072, 9.999999999962365e-05, 4.999999999999196e-04, 5.320530563235314e-06, -2.118174982930159e-06, -1.280315350670917e+02, -1.269169566733302e+04, 4.365916172844953e+02, 1.259397099367462e+04
1073, 1.499999999997844e-04, 4.999999999996149e-04, 5.531888795286877e-06, -3.193313300463407e-06, -8.186692316250674e+01, -1.903044203864768e+04, 1.128128317132976e+02, 1.894991835990807e+04
1074, 1.999999999999003e-04, 4.999999999993100e-04, 5.834424771570830e-06, -4.280512916859209e-06, -2.993259263216942e+00, -2.533853388324306e+04, -2.681538654572446e+02, 2.534121632225990e+04
1075, -2.000000000000740e-04, 4.000000000013997e-04, 3.951576634342976e-06, 3.386305491674352e-06, -9.882834136620204e+01, 2.596991245935551e+04, 6.944219208929524e+02, 2.610571075745840e+04
1076, -1.500000000001797e-04, 4.000000000011572e-04, 3.618499282276154e-06, 2.531668648805198e-06, -2.756636485284980e+01, 1.978672720571464e+04, 8.306292681312995e+02, 1.988381275371847e+04
1077, -1.000000000003152e-04, 4.000000000009148e-04, 3.374431693325585e-06, 1.686663172820490e-06, -4.249893064794742e+01, 1.339834683388989e+04, 9.511081603827995e+02, 1.357478404237363e+04
1078, -5.000000000043512e-05, 4.000000000006724e-04, 3.221335386529121e-06, 8.497221359706981e-07, -1.133415531287537e+02, 6.796013348536873e+03, 1.006412150058320e+03, 7.196571879743220e+03
1079, -5.898025937003254e-16, 4.000000000004300e-04, 3.161688170990561e-06, 1.711546744506450e-08, -1.203313719039807e+02, 1.563407432131246e+02, 9.569527939179677e+02, 1.933799901342688e+03
1080, 4.999999999949812e-05, 4.000000000001875e-04, 3.196619570438388e-06, -8.169834421755435e-07, -1.163336423180697e+02, -6.493906334118560e+03, 7.848711642747277e+02, 6.567916291887345e+03
1081, 9.999999999961606e-05, 3.999999999999452e-04, 3.326024551449518e-06, -1.658456869737679e-06, -1.553523709692849e+02, -1.313045216437021e+04, 5.066414922652735e+02, 1.301460552823066e+04
1082, 1.499999999997800e-04, 3.999999999997027e-04, 3.548465477254755e-06, -2.511193208979376e-06, -1.176870281992115e+02, -1.957875724046345e+04, 1.609648201026887e+02, 1.946373274836873e+04
1083, 1.999999999998984e-04, 3.999999999994603e-04, 3.863013263802184e-06, -3.376976211520861e-06, 3.808074321989011e+01, -2.583847601958026e+04, -2.044554937746801e+02, 2.587978744298641e+04
1084, -2.000000000000760e-04, 3.000000000010516e-04, 2.399925910514059e-06, 2.480892258673700e-06, -4.483946899823081e+01, 2.657810210906404e+04, 4.988910881601921e+02, 2.664163259900374e+04
1085, -1.500000000001842e-04, 3.000000000008717e-04, 2.061506507717526e-06, 1.842735290854498e-06, -3.102932192251956e+01, 2.044655644095962e+04, 7.229565977109999e+02, 2.052856993667335e+04
1086, -1.000000000003227e-04, 3.000000000006917e-04, 1.811051260042790e-06, 1.221147244426557e-06, -3.493863945313442e+02, 1.358729298523756e+04, 9.616441042869087e+02, 1.406876219387175e+04
1087, -5.000000000044532e-05, 3.000000000005118e-04, 1.655445761612967e-06, 6.157401528055490e-07, -2.930487207665360e+02, 6.864893114338725e+03, 1.100531289987077e+03, 7.488712025155764e+03
1088, -6.026207432911247e-16, 3.000000000003319e-04, 1.597220066917536e-06, 1.786062575374444e-08, -1.308425830316405e+02, 1.566633817817319e+02, 1.088948733165111e+03, 2.196792446648265e+03
1089, 4.999999999948792e-05, 3.000000000001520e-04, 1.637428609957482e-06, -5.810770918130273e-07, 4.507537239509884e+01, -6.560339347749539e+03, 9.316683608698827e+02, 6.863200956090923e+03
1090, 9.999999999960845e-05, 2.999999999999720e-04, 1.776056980593167e-06, -1.189700544369090e-06, 1.420468470944029e+02, -1.330907152059679e+04, 6.216906495597792e+02, 1.350846336178322e+04
1091, 1.499999999997756e-04, 2.999999999997920e-04, 2.011601938405125e-06, -1.816817971897280e-06, -1.167041402885486e+02, -2.022433908028393e+04, 2.089507604511217e+02, 2.011197714202399e+04
1092, 1.999999999998966e-04, 2.999999999996122e-04, 2.338269692862163e-06, -2.463122019206889e-06, -2.699946961173237e+01, -2.645041540975621e+04, -1.886469327898972e+02, 2.642610944893110e+04
1093, -2.000000000000778e-04, 2.000000000007014e-04, 1.297628401049291e-06, 1.549368820236837e-06, 3.132200808583116e+02, 2.741226343651473e+04, 3.848412139192743e+02, 2.710997163096025e+04
1094, -1.500000000001885e-04, 2.000000000005817e-04, 9.500783818068705e-07, 1.123050195633805e-06, -1.379396193185304e+03, 1.926919521360513e+04, 7.538911584553057e+02, 2.070356816106267e+04
1095, -1.000000000003304e-04, 2.000000000004620e-04, 7.003802106819140e-07, 7.371830247338942e-07, -1.028258296117052e+03, 1.277536130323085e+04, 1.005311631754773e+03, 1.394928385083862e+04
1096, -5.000000000045550e-05, 2.000000000003424e-04, 5.486541749570736e-07, 3.705152587345916e-07, -5.814301569154968e+02, 6.437990149842462e+03, 1.051917513259229e+03, 7.327918071439658e+03
1097, -6.154388928819240e-16, 2.000000000002227e-04, 4.939209421018708e-07, 1.270998322303705e-08, -1.456605124492717e+02, 1.342596743095175e+02, 1.023561726409692e+03, 2.066172728025959e+03
1098, 4.999999999947777e-05, 2.000000000001030e-04, 5.360455693873355e-07, -3.457298351118141e-07, 3.064407261414381e+02, -6.176040726065412e+03, 9.371943410220629e+02, 6.748029246348963e+03
1099, 9.999999999960084e-05, 1.999999999999833e-04, 6.761252437847525e-07, -7.143447305599168e-07, 8.031419616267474e+02, -1.253218355441230e+04, 7.729445715190293e+02, 1.342462959866249e+04
1100, 1.499999999997714e-04, 1.999999999998636e-04, 9.161359428205279e-07, -1.103541975545140e-06, 1.241738287640232e+03, -1.904819767213567e+04, 3.974144373054493e+02, 2.030549812715075e+04
1101, 1.999999999998946e-04, 1.999999999997439e-04, 1.256891442357043e-06, -1.534692827313200e-06, -3.694181975871738e+02, -2.726907212139304e+04, -1.017769437187904e+02, 2.690042407482854e+04
1102, -2.000000000000798e-04, 1.000000000003506e-04, 5.713803091113303e-07, 5.975093318645247e-07, -8.583482251862244e+03, 1.527355778762686e+04, 1.590665659747906e+03, 2.406822030001785e+04
1103, -1.500000000001928e-04, 1.000000000002906e-04, 2.691602832428393e-07, 4.301443488836144e-07, -4.012238548263214e+03, 1.288141672172696e+04, 1.283797788798191e+03, 1.708766032642735e+04
1104, -1.000000000003380e-04, 1.000000000002307e-04, 6.651872229396282e-08, 2.801634884748133e-07, -1.680613535265908e+03, 9.243426752590067e+03, 4.979958999144931e+02, 1.096935074997728e+04
1105, -5.000000000046567e-05, 1.000000000001708e-04, -5.182898805475358e-08, 1.405578274225751e-07, -6.530947504441262e+02, 4.807138868566291e+03, 2.877993737204179e-01, 5.460233649349221e+03
1106, -6.282434899455673e-16, 1.000000000001108e-04, -9.310840697957192e-08, 4.928755773042953e-09, -1.457416770700620e+02, 6.621834286131957e+01, -1.947174979433648e+02, 4.433809491516396e+02
1107, 4.999999999946757e-05, 1.000000000000509e-04, -5.940987284907614e-08, -1.309863708411622e-07, 3.690601925951737e+02, -4.684230606086961e+03, -7.349485396408272e+01, 5.055428158947799e+03
1108, 9.999999999959325e-05, 9.999999999999091e-05, 5.197292438288576e-08, -2.714902567156921e-07, 1.425208614666849e+03, -9.145383986288482e+03, 3.476206736369570e+02, 1.059343138300007e+04
1109, 1.499999999997670e-04, 9.999999999993101e-05, 2.489794717487058e-07, -4.231282498967862e-07, 3.834243352109761e+03, -1.280478862527855e+04, 1.051978284579001e+03, 1.677152403299873e+04
1110, 1.999999999998927e-04, 9.999999999987105e-05, 5.479038956437915e-07, -5.928687146758297e-07, 8.561205907402944e+03, -1.516994859834299e+04, 1.256120805761050e+03, 2.386376022529242e+04
