"PointID","x","y","Displacement_x","Displacement_y","Sxx","Syy","Sxy","Von_Mises_Stress"
0, -2.500000000000000e-04, 0.000000000000000e+00, 0.000000000000000e+00, 0.000000000000000e+00, 3.108227134165205e+04, 3.798559633092564e+04, 3.888112010073237e+03, 1.039834390271028e+04
1, 2.500000000000000e-04, 0.000000000000000e+00, 0.000000000000000e+00, 0.000000000000000e+00, -3.125748855736314e+04, -3.820683801047175e+04, 3.824346687295290e+03, 1.033421347563166e+04
2, 2.500000000000000e-04, 1.000000000000000e-02, 6.040451683884506e-04, -4.118794075718765e-05, 1.515824394677364e+01, 1.206216472031666e+01, 2.628863111048069e+00, 6.101589268626316e+00
3, -2.500000000000000e-04, 1.000000000000000e-02, 6.057040040342849e-04, -5.223582511281780e-07, 5.661726693713739e+00, 2.822500654136338e+01, 2.402105022971922e+00, 2.306907088828894e+01
4, -2.000000000000817e-04, 0.000000000000000e+00, 0.000000000000000e+00, 0.000000000000000e+00, 2.097256292052027e+04, 2.563134637518557e+04, 2.209043371686537e+03, 6.420572696374676e+03
5, -1.500000000001972e-04, 0.000000000000000e+00, 0.000000000000000e+00, 0.000000000000000e+00, 1.508623343193700e+04, 1.844039129802440e+04, 1.027623973459732e+03, 3.933753819693413e+03
6, -1.000000000003456e-04, 0.000000000000000e+00, 0.000000000000000e+00, 0.000000000000000e+00, 9.808275412507093e+03, 1.198902475194470e+04, 2.381996700750488e+02, 2.232179207132127e+03
7, -5.000000000047588e-05, 0.000000000000000e+00, 0.000000000000000e+00, 0.000000000000000e+00, 4.892931012610423e+03, 5.980167699521872e+03, -2.198443184162950e+02, 1.172778628184317e+03
8, -6.410887445906788e-16, 0.000000000000000e+00, 0.000000000000000e+00, 0.000000000000000e+00, 1.149052637516588e+02, 1.397954292640894e+02, -3.754181835324821e+02, 7.512488072846104e+02
9, 4.999999999945738e-05, 0.000000000000000e+00, 0.000000000000000e+00, 0.000000000000000e+00, -4.675283673866702e+03, -5.714362603513501e+03, -2.373272906236717e+02, 1.142358084636786e+03
10, 9.999999999958566e-05, 0.000000000000000e+00, 0.000000000000000e+00, 0.000000000000000e+00, -9.627640244546288e+03, -1.176601887973134e+04, 2.043074173103494e+02, 2.177068963190639e+03
11, 1.499999999997626e-04, 0.000000000000000e+00, 0.000000000000000e+00, 0.000000000000000e+00, -1.496962019594627e+04, -1.829446540203405e+04, 9.796336203608632e+02, 3.859186930560664e+03
12, 1.999999999998909e-04, 0.000000000000000e+00, 0.000000000000000e+00, 0.000000000000000e+00, -2.094279915195535e+04, -2.559824606027534e+04, 2.150979468859898e+03, 6.338772485112043e+03
13, 2.500000000000000e-04, 9.999999999981111e-05, 4.822023311032182e-07, -4.358278484326198e-07, 1.666734496200179e+03, -1.284718463303123e+04, 9.864067624815823e+02, 1.464738344190344e+04
14, 2.500000000000000e-04, 1.999999999996242e-04, 8.280524154936015e-07, -9.842428389130384e-07, -3.342146893715414e+03, -1.865696537783674e+04, -1.336913429747757e+02, 1.531715243452026e+04
15, 2.500000000000000e-04, 2.999999999994322e-04, 1.362708882619469e-06, -1.539257195152400e-06, -3.563948554457485e+03, -1.895302832478437e+04, -8.003061674035604e+01, 1.538991214321731e+04
16, 2.500000000000000e-04, 3.999999999992179e-04, 2.113578615850911e-06, -2.097700364367026e-06, -3.887841213147581e+03, -1.913657242507747e+04, -8.725362160209465e+01, 1.524972971405118e+04
17, 2.500000000000000e-04, 4.999999999990053e-04, 3.085117278990089e-06, -2.650377858673827e-06, -3.899694830190727e+03, -1.888572721868892e+04, -1.058367870991208e+02, 1.498752722937078e+04
18, 2.500000000000000e-04, 5.999999999988090e-04, 4.273808392497285e-06, -3.195135678182769e-06, -3.845602457199933e+03, -1.853238109524048e+04, -1.322402604893876e+02, 1.468915983672250e+04
19, 2.500000000000000e-04, 6.999999999986395e-04, 5.675169922054076e-06, -3.731670189845185e-06, -3.768643860666003e+03, -1.814967258402353e+04, -1.589086125031200e+02, 1.438454013622072e+04
20, 2.500000000000000e-04, 7.999999999985029e-04, 7.284685325836287e-06, -4.260357306442663e-06, -3.688934129074074e+03, -1.776634937162525e+04, -1.842154816387819e+02, 1.408223566362649e+04
21, 2.500000000000000e-04, 8.999999999983563e-04, 9.097973307990130e-06, -4.781679307289550e-06, -3.610053310367342e+03, -1.738743998421603e+04, -2.077126143505665e+02, 1.378364834437475e+04
22, 2.500000000000000e-04, 9.999999999981935e-04, 1.111074631641910e-05, -5.296102482047872e-06, -3.532552029387528e+03, -1.701337689426365e+04, -2.294355502194735e+02, 1.348863231481533e+04
23, 2.500000000000000e-04, 1.099999999998054e-03, 1.331877888260921e-05, -5.804056643746834e-06, -3.456198060498290e+03, -1.664371375795987e+04, -2.494715507904083e+02, 1.319695095427011e+04
24, 2.500000000000000e-04, 1.199999999997903e-03, 1.571789323010171e-05, -6.305940868287040e-06, -3.380827705199842e+03, -1.627819629273376e+04, -2.679014407213116e+02, 1.290849337492447e+04
25, 2.500000000000000e-04, 1.299999999997659e-03, 1.830395545837880e-05, -6.802128755549562e-06, -3.306367391022227e+03, -1.591673627653265e+04, -2.847925399792859e+02, 1.262322583937881e+04
26, 2.500000000000000e-04, 1.399999999997322e-03, 2.107287511115540e-05, -7.292971248342983e-06, -3.232791645354297e+03, -1.555932009845724e+04, -3.002058443701520e+02, 1.234114248767643e+04
27, 2.500000000000000e-04, 1.499999999997028e-03, 2.402060545357636e-05, -7.778798013785338e-06, -3.160089114706515e+03, -1.520595320376239e+04, -3.141995149961940e+02, 1.206224386227128e+04
28, 2.500000000000000e-04, 1.599999999996764e-03, 2.714314371510994e-05, -8.259918339282076e-06, -3.088252661925413e+03, -1.485664414455050e+04, -3.268299887156705e+02, 1.178653084899956e+04
29, 2.500000000000000e-04, 1.699999999996466e-03, 3.043653128299775e-05, -8.736621937440702e-06, -3.017275310908578e+03, -1.451139972951319e+04, -3.381525602219883e+02, 1.151400385471107e+04
30, 2.500000000000000e-04, 1.799999999996210e-03, 3.389685381909636e-05, -9.209179697773686e-06, -2.947149384222188e+03, -1.417022432493328e+04, -3.482213519345826e+02, 1.124466289243879e+04
31, 2.500000000000000e-04, 1.899999999995898e-03, 3.752024129720430e-05, -9.677844447605887e-06, -2.877871112371131e+03, -1.383312447322477e+04, -3.570890222850802e+02, 1.097850747960947e+04
32, 2.500000000000000e-04, 1.999999999995521e-03, 4.130286821898749e-05, -1.014285172357886e-05, -2.809431902437622e+03, -1.350010131151738e+04, -3.648073588557318e+02, 1.071553778634254e+04
33, 2.500000000000000e-04, 2.099999999995151e-03, 4.524095353928056e-05, -1.060442046527662e-05, -2.741828053900797e+03, -1.317115888545020e+04, -3.714266831796790e+02, 1.045575309185419e+04
34, 2.500000000000000e-04, 2.199999999994897e-03, 4.933076083556525e-05, -1.106275376588981e-05, -2.675053937823311e+03, -1.284629884843744e+04, -3.769961807983576e+02, 1.019915327431841e+04
35, 2.500000000000000e-04, 2.299999999994653e-03, 5.356859833643781e-05, -1.151803955418896e-05, -2.609103327899755e+03, -1.252552121266065e+04, -3.815640433067367e+02, 9.945738189887365e+03
36, 2.500000000000000e-04, 2.399999999994409e-03, 5.795081888137016e-05, -1.197045127744014e-05, -2.543975424742630e+03, -1.220882975462826e+04, -3.851770865529788e+02, 9.695506937232867e+03
37, 2.500000000000000e-04, 2.499999999994080e-03, 6.247382013216411e-05, -1.242014858248837e-05, -2.479667268580301e+03, -1.189622611316256e+04, -3.878805994889781e+02, 9.448459446455810e+03
38, 2.500000000000000e-04, 2.599999999993751e-03, 6.713404464154553e-05, -1.286727798665104e-05, -2.416172697307873e+03, -1.158770825647442e+04, -3.897193614608038e+02, 9.204596093031243e+03
39, 2.500000000000000e-04, 2.699999999993507e-03, 7.192797973758195e-05, -1.331197347301401e-05, -2.353490643970345e+03, -1.128327757329751e+04, -3.907368232503654e+02, 8.963916312826523e+03
40, 2.500000000000000e-04, 2.799999999993264e-03, 7.685215765998454e-05, -1.375435714009267e-05, -2.291620154638955e+03, -1.098293508841480e+04, -3.909751191786693e+02, 8.726419738549264e+03
41, 2.500000000000000e-04, 2.899999999993009e-03, 8.190315567175339e-05, -1.419453979299746e-05, -2.230557170106290e+03, -1.068667871187588e+04, -3.904753462577144e+02, 8.492106659323124e+03
42, 2.500000000000000e-04, 2.999999999992623e-03, 8.707759595931317e-05, -1.463262154266817e-05, -2.170304973507868e+03, -1.039451206454125e+04, -3.892773478720590e+02, 8.260976315815760e+03
43, 2.500000000000000e-04, 3.099999999992220e-03, 9.237214592630816e-05, -1.506869238876019e-05, -2.110857710189508e+03, -1.010643077109155e+04, -3.874199549018292e+02, 8.033029656240973e+03
44, 2.500000000000000e-04, 3.199999999991949e-03, 9.778351798687252e-05, -1.550283276766755e-05, -2.052215403964854e+03, -9.822434674962869e+03, -3.849413177823836e+02, 7.808266567678967e+03
45, 2.500000000000000e-04, 3.299999999991705e-03, 1.033084696662648e-04, -1.593511409202221e-05, -1.994378101408186e+03, -9.542523223657367e+03, -3.818782234416786e+02, 7.586686938096890e+03
46, 2.500000000000000e-04, 3.399999999991461e-03, 1.089438036736462e-04, -1.636559928389329e-05, -1.937346340029803e+03, -9.266696242920352e+03, -3.782661360474122e+02, 7.368290919726410e+03
47, 2.500000000000000e-04, 3.499999999991149e-03, 1.146863679969381e-04, -1.679434330970284e-05, -1.881116116501738e+03, -8.994949215800272e+03, -3.741400476317551e+02, 7.153079369449422e+03
48, 2.500000000000000e-04, 3.599999999990803e-03, 1.205330557371889e-04, -1.722139363887303e-05, -1.825689441762416e+03, -8.727282242720314e+03, -3.695338876363803e+02, 6.941052108051093e+03
49, 2.500000000000000e-04, 3.699999999990560e-03, 1.264808052184758e-04, -1.764679076270884e-05, -1.771072460757000e+03, -8.463698725904527e+03, -3.644800300808197e+02, 6.732208337110003e+03
50, 2.500000000000000e-04, 3.799999999990315e-03, 1.325266003141343e-04, -1.807056865939948e-05, -1.717259580858954e+03, -8.204192008907612e+03, -3.590098981134581e+02, 6.526549222509780e+03
51, 2.500000000000000e-04, 3.899999999990071e-03, 1.386674701621586e-04, -1.849275524269354e-05, -1.664251386752223e+03, -7.948760262902951e+03, -3.531545157714937e+02, 6.324074972868088e+03
52, 2.500000000000000e-04, 3.999999999989709e-03, 1.449004892261118e-04, -1.891337280609797e-05, -1.612049311727460e+03, -7.697402156486115e+03, -3.469436893344845e+02, 6.124785623961736e+03
53, 2.500000000000000e-04, 4.099999999989249e-03, 1.512227773750955e-04, -1.933243845374666e-05, -1.560653457175834e+03, -7.450115074078105e+03, -3.404062866958103e+02, 5.928681463618469e+03
54, 2.500000000000000e-04, 4.199999999988788e-03, 1.576314998575491e-04, -1.974996451517327e-05, -1.510065114503269e+03, -7.206897529039308e+03, -3.335702975684743e+02, 5.735762907668708e+03
55, 2.500000000000000e-04, 4.299999999988333e-03, 1.641238673383933e-04, -2.016595897061196e-05, -1.460287001050835e+03, -6.967749454816943e+03, -3.264626610585253e+02, 5.546030486384390e+03
56, 2.500000000000000e-04, 4.399999999988144e-03, 1.706971360255042e-04, -2.058042585207074e-05, -1.411316120874668e+03, -6.732665695196418e+03, -3.191098802323184e+02, 5.359485586768735e+03
57, 2.500000000000000e-04, 4.499999999988117e-03, 1.773486074679636e-04, -2.099336558979535e-05, -1.363158471615413e+03, -6.501648424523204e+03, -3.115372262464240e+02, 5.176127970740636e+03
58, 2.500000000000000e-04, 4.599999999988090e-03, 1.840756288452644e-04, -2.140477541193725e-05, -1.315814842720345e+03, -6.274695239662066e+03, -3.037687799945340e+02, 4.995958034048160e+03
59, 2.500000000000000e-04, 4.699999999988035e-03, 1.908755929752039e-04, -2.181464965881581e-05, -1.269282498393019e+03, -6.051801306912002e+03, -2.958280049957507e+02, 4.818977379900937e+03
60, 2.500000000000000e-04, 4.799999999987717e-03, 1.977459380766405e-04, -2.222298018443831e-05, -1.223568587993722e+03, -5.832969853576938e+03, -2.877381419907164e+02, 4.645186000644670e+03
61, 2.500000000000000e-04, 4.899999999987257e-03, 2.046841481022327e-04, -2.262975664221395e-05, -1.178670331093014e+03, -5.618195451847683e+03, -2.795209149618194e+02, 4.474585016000493e+03
62, 2.500000000000000e-04, 4.999999999986965e-03, 2.116877525860235e-04, -2.303496680938666e-05, -1.134590040854753e+03, -5.407477163778368e+03, -2.711973820351621e+02, 4.307174995903620e+03
63, 2.500000000000000e-04, 5.099999999987202e-03, 2.187543267245349e-04, -2.343859690571299e-05, -1.091329184516761e+03, -5.200813244470904e+03, -2.627878995677198e+02, 4.142956572262619e+03
64, 2.500000000000000e-04, 5.199999999987608e-03, 2.258814913761502e-04, -2.384063187347393e-05, -1.048890089509206e+03, -4.998202568309656e+03, -2.543119190635696e+02, 3.981930092796726e+03
65, 2.500000000000000e-04, 5.299999999988015e-03, 2.330669131375018e-04, -2.424105567130435e-05, -1.007272227656920e+03, -4.799641700592092e+03, -2.457882815469016e+02, 3.824096460163330e+03
66, 2.500000000000000e-04, 5.399999999988211e-03, 2.403083042662782e-04, -2.463985153854884e-05, -9.664772443296677e+02, -4.605129019542125e+03, -2.372352185827884e+02, 3.669456218161059e+03
67, 2.500000000000000e-04, 5.499999999988184e-03, 2.476034227112729e-04, -2.503700226433759e-05, -9.265079748735952e+02, -4.414663971375625e+03, -2.286700431512358e+02, 3.518009694482409e+03
68, 2.500000000000000e-04, 5.599999999988157e-03, 2.549500722147867e-04, -2.543249044146110e-05, -8.873650236607323e+02, -4.228244245154645e+03, -2.201091690007959e+02, 3.369757581447463e+03
69, 2.500000000000000e-04, 5.699999999988293e-03, 2.623461023076288e-04, -2.582629870975356e-05, -8.490492321637390e+02, -4.045867522632729e+03, -2.115684773411998e+02, 3.224700306182726e+03
70, 2.500000000000000e-04, 5.799999999988694e-03, 2.697894082998048e-04, -2.621840996928001e-05, -8.115622083021839e+02, -3.867531925939355e+03, -2.030632499400447e+02, 3.082837921302426e+03
71, 2.500000000000000e-04, 5.899999999989099e-03, 2.772779312683958e-04, -2.660880760249679e-05, -7.749049095953707e+02, -3.693235418992505e+03, -1.946082804325453e+02, 2.944170934801475e+03
72, 2.500000000000000e-04, 5.999999999989505e-03, 2.848096580375701e-04, -2.699747570698130e-05, -7.390795604189792e+02, -3.522977682720404e+03, -1.862175903599373e+02, 2.808700183214869e+03
73, 2.500000000000000e-04, 6.099999999989911e-03, 2.923826212879740e-04, -2.738439932309056e-05, -7.040859822090432e+02, -3.356756596222357e+03, -1.779044646032340e+02, 2.676426980239294e+03
74, 2.500000000000000e-04, 6.199999999990317e-03, 2.999948995494588e-04, -2.776956461329206e-05, -6.699279739753090e+02, -3.194573068538089e+03, -1.696811092891221e+02, 2.547351481224815e+03
75, 2.500000000000000e-04, 6.299999999990723e-03, 3.076446173725870e-04, -2.815295904348017e-05, -6.365996744612571e+02, -3.036419768588806e+03, -1.615599223084649e+02, 2.421475359809310e+03
76, 2.500000000000000e-04, 6.399999999990975e-03, 3.153299449068283e-04, -2.853457152743744e-05, -6.041108501699762e+02, -2.882301591709323e+03, -1.535526271993701e+02, 2.298796792262186e+03
77, 2.500000000000000e-04, 6.499999999990961e-03, 3.230490984060276e-04, -2.891439258691089e-05, -5.724594730318584e+02, -2.732212867014141e+03, -1.456692966157981e+02, 2.179314777338086e+03
78, 2.500000000000000e-04, 6.599999999990934e-03, 3.308003401256096e-04, -2.929241445671369e-05, -5.416393963337198e+02, -2.586145525924961e+03, -1.379199779024913e+02, 2.063030051927178e+03
79, 2.500000000000000e-04, 6.699999999991035e-03, 3.385819778941454e-04, -2.966863131786008e-05, -5.116613785668589e+02, -2.444105010476942e+03, -1.303152624231995e+02, 1.949940168567113e+03
80, 2.500000000000000e-04, 6.799999999991401e-03, 3.463923655788244e-04, -3.004303935505828e-05, -4.825204034141578e+02, -2.306083557532081e+03, -1.228639418880270e+02, 1.840044773890452e+03
81, 2.500000000000000e-04, 6.899999999991809e-03, 3.542299028464934e-04, -3.041563694031358e-05, -4.542197638997134e+02, -2.172081224746557e+03, -1.155741386810303e+02, 1.733342875714525e+03
82, 2.500000000000000e-04, 6.999999999992214e-03, 3.620930354151303e-04, -3.078642477415219e-05, -4.267495979771158e+02, -2.042088021812241e+03, -1.084541584957916e+02, 1.629836630309390e+03
83, 2.500000000000000e-04, 7.099999999992620e-03, 3.699802544444247e-04, -3.115540601785049e-05, -4.001186751442607e+02, -1.916109298049115e+03, -1.015128788083057e+02, 1.529525098516283e+03
84, 2.500000000000000e-04, 7.199999999993026e-03, 3.778900969304748e-04, -3.152258640052115e-05, -3.743374789345621e+02, -1.794150222446713e+03, -9.475658604148418e+01, 1.432404785328661e+03
85, 2.500000000000000e-04, 7.299999999993359e-03, 3.858211463024726e-04, -3.188797425238703e-05, -3.493836923920229e+02, -1.676189955328210e+03, -8.819128867047465e+01, 1.338478865337861e+03
86, 2.500000000000000e-04, 7.399999999993427e-03, 3.937720312354914e-04, -3.225158067979480e-05, -3.252747350870367e+02, -1.562239893291860e+03, -8.182430557223178e+01, 1.247743431376096e+03
87, 2.500000000000000e-04, 7.499999999993399e-03, 4.017414265246312e-04, -3.261341957284971e-05, -3.020047094748445e+02, -1.452289248270045e+03, -7.566103916231660e+01, 1.160195195464872e+03
88, 2.500000000000000e-04, 7.599999999993372e-03, 4.097280527636936e-04, -3.297350756877379e-05, -2.795771078805321e+02, -1.346333714934879e+03, -6.970510539527302e+01, 1.075827525938412e+03
89, 2.500000000000000e-04, 7.699999999993440e-03, 4.177306766667433e-04, -3.333186414125931e-05, -2.579779632701444e+02, -1.244355746892776e+03, -6.396012190800342e+01, 9.946379847976058e+02
90, 2.500000000000000e-04, 7.799999999993771e-03, 4.257481102323350e-04, -3.368851169680727e-05, -2.372035808582787e+02, -1.146349650662966e+03, -5.843185965918875e+01, 9.166262625160995e+02
91, 2.500000000000000e-04, 7.899999999994177e-03, 4.337792104354409e-04, -3.404347581434634e-05, -2.172728231961485e+02, -1.052326945220376e+03, -5.312629774276012e+01, 8.417867905574803e+02
92, 2.500000000000000e-04, 7.999999999994584e-03, 4.418228802055014e-04, -3.439678511639732e-05, -1.981740768076237e+02, -9.622729722504471e+02, -4.804620483690722e+01, 7.701174411827476e+02
93, 2.500000000000000e-04, 8.099999999994990e-03, 4.498780678448329e-04, -3.474847139967173e-05, -1.799051211275372e+02, -8.761828064232759e+02, -4.319475799190423e+01, 7.016165359458887e+02
94, 2.500000000000000e-04, 8.199999999995398e-03, 4.579437671003859e-04, -3.509856972804641e-05, -1.624676548418155e+02, -7.940534779601562e+02, -3.857498022343476e+01, 6.362804164525461e+02
95, 2.500000000000000e-04, 8.299999999995804e-03, 4.660190171544428e-04, -3.544711836065694e-05, -1.458621929556566e+02, -7.158783840127282e+02, -3.418913865119274e+01, 5.741028190786507e+02
96, 2.500000000000000e-04, 8.399999999996209e-03, 4.741029026457086e-04, -3.579415872145107e-05, -1.300855638360169e+02, -6.416455293182465e+02, -3.003827310778061e+01, 5.150755184333365e+02
97, 2.500000000000000e-04, 8.499999999996616e-03, 4.821945536833533e-04, -3.613973533014529e-05, -1.151232709140277e+02, -5.713331008470923e+02, -2.612294897727933e+01, 4.591917276918584e+02
98, 2.500000000000000e-04, 8.599999999997021e-03, 4.902931451134000e-04, -3.648389584167428e-05, -1.009727879758283e+02, -5.049309902973854e+02, -2.244495828643461e+01, 4.064447488069975e+02
99, 2.500000000000000e-04, 8.699999999997429e-03, 4.983978963218787e-04, -3.682669115926178e-05, -8.764138905716834e+01, -4.424356522102714e+02, -1.900661343582519e+01, 3.568248514096921e+02
100, 2.500000000000000e-04, 8.799999999997834e-03, 5.065080715316880e-04, -3.716817530398791e-05, -7.512388537908055e+01, -3.838330244940943e+02, -1.580771575652662e+01, 3.103238116595140e+02
101, 2.500000000000000e-04, 8.899999999997930e-03, 5.146229796222998e-04, -3.750840553501126e-05, -6.340687807335262e+01, -3.291071015762336e+02, -1.284830215342664e+01, 2.669399262800226e+02
102, 2.500000000000000e-04, 8.999999999997496e-03, 5.227419735959719e-04, -3.784744255172310e-05, -5.248294902272389e+01, -2.782485167860057e+02, -1.013050413918322e+01, 2.266728921682808e+02
103, 2.500000000000000e-04, 9.099999999997034e-03, 5.308644504001927e-04, -3.818535043996963e-05, -4.235642417346180e+01, -2.312538296013186e+02, -7.654630391258388e+00, 1.895167624329922e+02
104, 2.500000000000000e-04, 9.199999999996832e-03, 5.389898515083669e-04, -3.852219650680796e-05, -3.301231040949935e+01, -1.880939057567859e+02, -5.417747775065588e+00, 1.554596705878294e+02
105, 2.500000000000000e-04, 9.299999999997156e-03, 5.471176628150370e-04, -3.885805076706755e-05, -2.440988717726583e+01, -1.487073739909891e+02, -3.413983152880188e+00, 1.244848840304730e+02
106, 2.500000000000000e-04, 9.399999999997563e-03, 5.552474131601822e-04, -3.919298552126742e-05, -1.653181172070542e+01, -1.130442930451411e+02, -1.636431776777865e+00, 9.656795890583862e+01
107, 2.500000000000000e-04, 9.499999999997968e-03, 5.633786734152275e-04, -3.952707505791070e-05, -9.321062289497510e+00, -8.101484314884216e+01, -8.341621318100190e-02, 7.169397496977149e+01
108, 2.500000000000000e-04, 9.599999999998375e-03, 5.715110532346457e-04, -3.986039522081244e-05, -2.805537811241964e+00, -5.260924415486453e+01, 1.241668850660818e+00, 4.986558063133925e+01
109, 2.500000000000000e-04, 9.699999999998783e-03, 5.796441991872208e-04, -4.019302428103693e-05, 2.939424518639585e+00, -2.809528178203214e+01, 2.319676515495413e+00, 3.137955690756510e+01
110, 2.500000000000000e-04, 9.799999999999188e-03, 5.877777852604634e-04, -4.052505789096048e-05, 7.373022605356129e+00, -8.552034625094024e+00, 2.960945135315884e+00, 1.699047474823808e+01
111, 2.500000000000000e-04, 9.899999999999593e-03, 5.959115177394018e-04, -4.085662692012331e-05, 9.988189944002556e+00, 4.151802034105055e+00, 2.885439813019862e+00, 8.207708297267763e+00
112, 2.000000000000817e-04, 1.000000000000000e-02, 6.042107415162698e-04, -3.712128855417376e-05, 1.363580150492881e+01, 1.061645435029486e+01, 3.739973339185739e+00, 8.066353547389097e+00
113, 1.500000000001972e-04, 1.000000000000000e-02, 6.043763281699229e-04, -3.305475461069342e-05, 1.231290666575610e+01, 1.167895516553964e+01, 5.734137159164512e+00, 1.148578296613129e+01
114, 1.000000000003456e-04, 1.000000000000000e-02, 6.045419788110008e-04, -2.898832548220448e-05, 7.964042919456150e+00, 1.203293185836826e+01, 7.468888044889125e+00, 1.548202220982621e+01
115, 5.000000000047588e-05, 1.000000000000000e-02, 6.047077289206901e-04, -2.492195984598915e-05, 1.838571714310564e+00, 1.209856350217555e+01, 8.644624233359661e+00, 2.010436629269904e+01
116, 6.410887445906788e-16, 1.000000000000000e-02, 6.048735984047097e-04, -2.085559923612942e-05, -4.499736171607216e+00, 1.267308647213286e+01, 9.032474591824489e+00, 2.492485158553951e+01
117, -4.999999999945738e-05, 1.000000000000000e-02, 6.050395912541562e-04, -1.678917480647554e-05, -9.097302951764735e+00, 1.498636376172666e+01, 8.488598758874447e+00, 2.946605229621357e+01
118, -9.999999999958566e-05, 1.000000000000000e-02, 6.052056937005199e-04, -1.272262252053335e-05, -9.588783688073804e+00, 2.053800557375808e+01, 7.092138986365824e+00, 3.329890648106255e+01
119, -1.499999999997626e-04, 1.000000000000000e-02, 6.053718682634995e-04, -8.655910805672812e-06, -2.997019734390153e+00, 3.077572221466441e+01, 5.390556277973431e+00, 3.545180512613462e+01
120, -1.999999999998909e-04, 1.000000000000000e-02, 6.055380355921960e-04, -4.589091688350451e-06, 1.665680874954175e+01, 4.776136920814486e+01, 4.537561486026400e+00, 3.240141259699609e+01
121, -2.500000000000000e-04, 9.899999999999590e-03, 5.975703509860918e-04, -1.918637581651587e-07, -1.442800841404974e+01, 2.514227799071936e+01, -1.718909830695515e+00, 3.971934251947911e+01
122, -2.500000000000000e-04, 9.799999999999181e-03, 5.894364693254612e-04, 1.378189706980038e-07, 3.339941121664110e+00, 5.936059440727914e+01, 1.327094227615510e+00, 5.608349410390700e+01
123, -2.500000000000000e-04, 9.699999999999055e-03, 5.813027505067070e-04, 4.669007363488855e-07, 1.018941910512967e+01, 8.229403698459294e+01, 4.202349695848477e+00, 7.259280192559180e+01
124, -2.500000000000000e-04, 9.599999999999458e-03, 5.731694304419305e-04, 7.952863486752560e-07, 1.529216416667089e+01, 1.068171393032041e+02, 7.038876383840329e+00, 9.260131854747512e+01
125, -2.500000000000000e-04, 9.499999999999916e-03, 5.650367695426419e-04, 1.122824032613232e-06, 2.102084128395519e+01, 1.354647614348369e+02, 1.001573351960711e+01, 1.161837791227524e+02
126, -2.500000000000000e-04, 9.400000000000373e-03, 5.569050808275889e-04, 1.449367474159031e-06, 2.755353633810108e+01, 1.681682544393753e+02, 1.314749947636287e+01, 1.430521789999183e+02
127, -2.500000000000000e-04, 9.300000000000832e-03, 5.487747232502132e-04, 1.774771280945330e-06, 3.517612450985310e+01, 2.050081434464472e+02, 1.645660176550228e+01, 1.729918888929564e+02
128, -2.500000000000000e-04, 9.200000000001289e-03, 5.406461126932671e-04, 2.098890810930853e-06, 4.347642642748288e+01, 2.455350500709941e+02, 1.995955721164233e+01, 2.059641305787233e+02
129, -2.500000000000000e-04, 9.100000000001746e-03, 5.325196992639092e-04, 2.421580707235971e-06, 5.271279653521358e+01, 2.899192477426126e+02, 2.367238496036763e+01, 2.418851540158170e+02
130, -2.500000000000000e-04, 9.000000000002204e-03, 5.243959819018733e-04, 2.742692066532569e-06, 6.281448281324526e+01, 3.381076889138614e+02, 2.758793187510011e+01, 2.807680987322757e+02
131, -2.500000000000000e-04, 8.900000000002661e-03, 5.162755044805920e-04, 3.062071786021009e-06, 7.374208353273136e+01, 3.900843525980483e+02, 3.171434752337536e+01, 3.226385447412119e+02
132, -2.500000000000000e-04, 8.800000000003118e-03, 5.081588541802223e-04, 3.379562593244394e-06, 8.549846990801724e+01, 4.458645017306889e+02, 3.606003530417874e+01, 3.675118793674202e+02
133, -2.500000000000000e-04, 8.700000000003576e-03, 5.000466625470622e-04, 3.695003309550154e-06, 9.804998648162436e+01, 5.054304908034947e+02, 4.062960760597002e+01, 4.154057478639430e+02
134, -2.500000000000000e-04, 8.600000000004033e-03, 4.919396043640717e-04, 4.008228920256113e-06, 1.113994796486127e+02, 5.687973597290576e+02, 4.542694270472418e+01, 4.663338387851327e+02
135, -2.500000000000000e-04, 8.500000000004490e-03, 4.838383981095259e-04, 4.319070417032025e-06, 1.255581524137848e+02, 6.359861190726806e+02, 5.045500084548101e+01, 5.203071569648113e+02
136, -2.500000000000000e-04, 8.400000000004949e-03, 4.757438065145914e-04, 4.627354998434445e-06, 1.405590298801532e+02, 7.070406773995664e+02, 5.570935770851980e+01, 5.773349003147929e+02
137, -2.500000000000000e-04, 8.300000000005149e-03, 4.676566381836609e-04, 4.932905548201345e-06, 1.563680237354546e+02, 7.819461127815351e+02, 6.119284535181956e+01, 6.374372147777008e+02
138, -2.500000000000000e-04, 8.200000000005172e-03, 4.595777456205016e-04, 5.235541379584680e-06, 1.730429731528363e+02, 8.607667788307044e+02, 6.689917048104870e+01, 7.006183190156105e+02
139, -2.500000000000000e-04, 8.100000000005195e-03, 4.515080284295380e-04, 5.535077353852747e-06, 1.905338936246559e+02, 9.434776716918684e+02, 7.282947638031044e+01, 7.669034251126071e+02
140, -2.500000000000000e-04, 8.000000000005220e-03, 4.434484306018095e-04, 5.831324743301013e-06, 2.088428019397653e+02, 1.030084382600833e+03, 7.898753080089814e+01, 8.362977064985772e+02
141, -2.500000000000000e-04, 7.900000000005243e-03, 4.353999406821502e-04, 6.124091421104172e-06, 2.280534251421242e+02, 1.120670037884518e+03, 8.536142022666903e+01, 9.087962948847005e+02
142, -2.500000000000000e-04, 7.800000000005240e-03, 4.273635964602917e-04, 6.413180945117133e-06, 2.480460045170236e+02, 1.215143640244370e+03, 9.195286397902241e+01, 9.844283385829574e+02
143, -2.500000000000000e-04, 7.700000000005121e-03, 4.193404787124595e-04, 6.698393984553596e-06, 2.688744927839641e+02, 1.313555290795259e+03, 9.875967339499975e+01, 1.063189476100034e+03
144, -2.500000000000000e-04, 7.600000000005145e-03, 4.113317145002790e-04, 6.979527369055110e-06, 2.905325412838453e+02, 1.415905281447131e+03, 1.057797719271280e+02, 1.145085693255506e+03
145, -2.500000000000000e-04, 7.500000000005337e-03, 4.033384770297219e-04, 7.256374948293154e-06, 3.129694667754485e+02, 1.522150041348940e+03, 1.130119546745260e+02, 1.230123761872483e+03
146, -2.500000000000000e-04, 7.400000000005796e-03, 3.953619829418387e-04, 7.528727606585639e-06, 3.362853156202698e+02, 1.632383834137024e+03, 1.204460243741477e+02, 1.318294484874861e+03
147, -2.500000000000000e-04, 7.300000000006254e-03, 3.874034975628984e-04, 7.796372348882960e-06, 3.604313826704509e+02, 1.746580773181251e+03, 1.280751833284867e+02, 1.409618084146186e+03
148, -2.500000000000000e-04, 7.200000000006711e-03, 3.794643320363427e-04, 8.059093027653591e-06, 3.853985274273798e+02, 1.864736795922245e+03, 1.358983258927788e+02, 1.504099442375811e+03
149, -2.500000000000000e-04, 7.100000000007169e-03, 3.715458430482066e-04, 8.316670640884577e-06, 4.112185217000491e+02, 1.986882338463322e+03, 1.439071637662011e+02, 1.601734544358063e+03
150, -2.500000000000000e-04, 7.000000000007627e-03, 3.636494348088218e-04, 8.568883145596136e-06, 4.378521837427870e+02, 2.112991473040954e+03, 1.520948443252668e+02, 1.702534289003213e+03
151, -2.500000000000000e-04, 6.900000000008085e-03, 3.557765570514126e-04, 8.815505704686956e-06, 4.653176038520080e+02, 2.243082782161413e+03, 1.604559370892178e+02, 1.806497567171953e+03
152, -2.500000000000000e-04, 6.800000000008542e-03, 3.479287062349588e-04, 9.056310833950616e-06, 4.935953549053659e+02, 2.377141733576643e+03, 1.689837801872348e+02, 1.913627192655652e+03
153, -2.500000000000000e-04, 6.700000000009001e-03, 3.401074245868943e-04, 9.291068651441802e-06, 5.227114054690882e+02, 2.515195919092634e+03, 1.776681444732046e+02, 2.023921543754072e+03
154, -2.500000000000000e-04, 6.600000000009459e-03, 3.323143015738992e-04, 9.519546541432877e-06, 5.526541038259975e+02, 2.657240885346745e+03, 1.865002472047157e+02, 2.137385058846800e+03
155, -2.500000000000000e-04, 6.500000000009916e-03, 3.245509735244103e-04, 9.741509716423243e-06, 5.833845956595803e+02, 2.803246075042789e+03, 1.954731746627193e+02, 2.254023965200969e+03
156, -2.500000000000000e-04, 6.400000000010177e-03, 3.168191217540365e-04, 9.956721325508400e-06, 6.149426750206713e+02, 2.953247914866870e+03, 2.045785862091729e+02, 2.373832552315678e+03
157, -2.500000000000000e-04, 6.300000000010201e-03, 3.091204747394560e-04, 1.016494243378588e-05, 6.473280040385962e+02, 3.107251294990362e+03, 2.138039529944301e+02, 2.496812191301369e+03
158, -2.500000000000000e-04, 6.200000000010225e-03, 3.014568080745889e-04, 1.036593216831655e-05, 6.805321053281673e+02, 3.265253629878916e+03, 2.231376374154361e+02, 2.622965302935080e+03
159, -2.500000000000000e-04, 6.100000000010248e-03, 2.938299442200873e-04, 1.055944794386264e-05, 7.145346274778135e+02, 3.427240641675668e+03, 2.325700800508438e+02, 2.752295276311143e+03
160, -2.500000000000000e-04, 6.000000000010509e-03, 2.862417515897163e-04, 1.074524574924014e-05, 7.493548140691964e+02, 3.593231185957879e+03, 2.420896332342573e+02, 2.884798499144217e+03
161, -2.500000000000000e-04, 5.900000000010967e-03, 2.786941456826739e-04, 1.092308016889048e-05, 7.849975423732337e+02, 3.763233598741711e+03, 2.516816630450028e+02, 3.020474241821249e+03
162, -2.500000000000000e-04, 5.800000000011424e-03, 2.711890894778820e-04, 1.109270457789358e-05, 8.214436068631012e+02, 3.937236025902216e+03, 2.613319267092224e+02, 3.159325861985724e+03
163, -2.500000000000000e-04, 5.700000000011876e-03, 2.637285927037756e-04, 1.125387137852435e-05, 8.586772515288795e+02, 4.115228466195490e+03, 2.710284705417340e+02, 3.301356015506862e+03
164, -2.500000000000000e-04, 5.600000000012062e-03, 2.563147112807635e-04, 1.140633227746260e-05, 8.967022562219095e+02, 4.297216181438843e+03, 2.807589225077294e+02, 3.446563106322744e+03
165, -2.500000000000000e-04, 5.500000000012085e-03, 2.489495476295841e-04, 1.154983849343175e-05, 9.355363603597740e+02, 4.483216598835229e+03, 2.905072234730910e+02, 3.594942678545715e+03
166, -2.500000000000000e-04, 5.400000000012110e-03, 2.416352516817012e-04, 1.168414089753583e-05, 9.751703331555345e+02, 4.673225724354330e+03, 3.002557969092716e+02, 3.746495409137046e+03
167, -2.500000000000000e-04, 5.300000000012160e-03, 2.343740205281104e-04, 1.180899026187708e-05, 1.015593354088790e+03, 4.867238075470292e+03, 3.099881098485817e+02, 3.901222574108785e+03
168, -2.500000000000000e-04, 5.200000000012475e-03, 2.271680980816832e-04, 1.192413752503842e-05, 1.056802876963758e+03, 5.065254947302788e+03, 3.196874336885308e+02, 4.059124070687996e+03
169, -2.500000000000000e-04, 5.100000000012934e-03, 2.200197751566556e-04, 1.202933403626104e-05, 1.098799564858796e+03, 5.267280324258598e+03, 3.293358318960401e+02, 4.220199071390942e+03
170, -2.500000000000000e-04, 5.000000000013221e-03, 2.129313896881763e-04, 1.212433181590555e-05, 1.141580385027334e+03, 5.473315405953513e+03, 3.389141724348213e+02, 4.384447463093501e+03
171, -2.500000000000000e-04, 4.900000000012981e-03, 2.059053267627794e-04, 1.220888381255645e-05, 1.185135794594775e+03, 5.683355490223757e+03, 3.484038501293726e+02, 4.551870099342070e+03
172, -2.500000000000000e-04, 4.800000000012570e-03, 1.989440182585645e-04, 1.228274425130426e-05, 1.229473398087008e+03, 5.897409606018557e+03, 3.577848027200091e+02, 4.722464219191921e+03
173, -2.500000000000000e-04, 4.700000000012160e-03, 1.920499434127303e-04, 1.234566888710748e-05, 1.274595802755693e+03, 6.115483383420754e+03, 3.670341517521786e+02, 4.896228021941685e+03
174, -2.500000000000000e-04, 4.600000000011960e-03, 1.852256292091934e-04, 1.239741528161781e-05, 1.320478686281585e+03, 6.337560387836111e+03, 3.761300595097160e+02, 5.073165095553306e+03
175, -2.500000000000000e-04, 4.500000000011985e-03, 1.784736493264959e-04, 1.243774317642199e-05, 1.367124069505907e+03, 6.563645494065656e+03, 3.850515872661710e+02, 5.253274580234054e+03
176, -2.500000000000000e-04, 4.400000000012010e-03, 1.717966244262062e-04, 1.246641480809901e-05, 1.414541984261807e+03, 6.793749837880518e+03, 3.937751054815909e+02, 5.436553362859724e+03
177, -2.500000000000000e-04, 4.300000000011870e-03, 1.651972228358877e-04, 1.248319525353712e-05, 1.462724003591303e+03, 7.027869185918721e+03, 4.022753456333659e+02, 5.623001219562366e+03
178, -2.500000000000000e-04, 4.200000000011467e-03, 1.586781602693810e-04, 1.248785279110702e-05, 1.511664103285727e+03, 7.266001182662613e+03, 4.105272004695628e+02, 5.812617788259711e+03
179, -2.500000000000000e-04, 4.100000000011056e-03, 1.522421997213862e-04, 1.248015927667720e-05, 1.561362378531131e+03, 7.508148743768150e+03, 4.185042744770387e+02, 6.005401850400282e+03
180, -2.500000000000000e-04, 4.000000000010646e-03, 1.458921517107737e-04, 1.245989049299516e-05, 1.611811077034489e+03, 7.754308645180428e+03, 4.261795045605119e+02, 6.201354066259123e+03
181, -2.500000000000000e-04, 3.900000000010236e-03, 1.396308740587267e-04, 1.242682654778162e-05, 1.663007150890751e+03, 8.004481431989298e+03, 4.335257500938263e+02, 6.400474541923590e+03
182, -2.500000000000000e-04, 3.800000000009824e-03, 1.334612718763118e-04, 1.238075227770856e-05, 1.714955946644181e+03, 8.258674020084101e+03, 4.405143092180394e+02, 6.602761365608155e+03
183, -2.500000000000000e-04, 3.700000000009415e-03, 1.273862980156808e-04, 1.232145768115058e-05, 1.767650904549031e+03, 8.516883383421738e+03, 4.471148801445115e+02, 6.808214591069879e+03
184, -2.500000000000000e-04, 3.600000000009160e-03, 1.214089528986125e-04, 1.224873834041604e-05, 1.821088169617755e+03, 8.779108762050706e+03, 4.532967997057409e+02, 7.016834223438293e+03
185, -2.500000000000000e-04, 3.500000000009170e-03, 1.155322845097341e-04, 1.216239586966884e-05, 1.875264963367208e+03, 9.045350349162578e+03, 4.590285251897681e+02, 7.228620420754429e+03
186, -2.500000000000000e-04, 3.400000000009196e-03, 1.097593884058246e-04, 1.206223835858028e-05, 1.930181923520684e+03, 9.315610610507378e+03, 4.642776801665495e+02, 7.443572525862118e+03
187, -2.500000000000000e-04, 3.300000000009092e-03, 1.040934078719062e-04, 1.194808087727408e-05, 1.985837900174209e+03, 9.589889640901582e+03, 4.690104257379436e+02, 7.661689499938151e+03
188, -2.500000000000000e-04, 3.200000000008720e-03, 9.853753400977146e-05, 1.181974597908604e-05, 2.042228302994563e+03, 9.868184712473099e+03, 4.731917901528510e+02, 7.882971242122504e+03
189, -2.500000000000000e-04, 3.100000000008311e-03, 9.309500565216559e-05, 1.167706417939665e-05, 2.099350968429540e+03, 1.015049518012537e+04, 4.767862382721949e+02, 8.107417812444739e+03
190, -2.500000000000000e-04, 3.000000000007901e-03, 8.776910937550044e-05, 1.151987447363061e-05, 2.157206034901283e+03, 1.043682172755636e+04, 4.797571663859331e+02, 8.335028720577686e+03
191, -2.500000000000000e-04, 2.900000000007490e-03, 8.256317962364795e-05, 1.134802488446040e-05, 2.215792431251954e+03, 1.072716352543248e+04, 4.820665227409224e+02, 8.565803548543588e+03
192, -2.500000000000000e-04, 2.800000000007079e-03, 7.748059877217724e-05, 1.116137300866978e-05, 2.275106127470689e+03, 1.102151735682549e+04, 4.836753894843309e+02, 8.799743003210662e+03
193, -2.500000000000000e-04, 2.700000000006744e-03, 7.252479699737104e-05, 1.095978655983864e-05, 2.335148737586812e+03, 1.131988416301008e+04, 4.845442878197804e+02, 9.036846979577058e+03
194, -2.500000000000000e-04, 2.600000000006672e-03, 6.769925240512935e-05, 1.074314396975648e-05, 2.395922887432676e+03, 1.162226437983220e+04, 4.846320975112916e+02, 9.277114336587962e+03
195, -2.500000000000000e-04, 2.500000000006697e-03, 6.300749123631167e-05, 1.051133501858392e-05, 2.457424019164525e+03, 1.192865212114701e+04, 4.838962822679053e+02, 9.520545373441251e+03
196, -2.500000000000000e-04, 2.400000000006722e-03, 5.845308766792110e-05, 1.026426141817770e-05, 2.519653641115267e+03, 1.223904653042103e+04, 4.822936877652652e+02, 9.767140161875448e+03
197, -2.500000000000000e-04, 2.300000000006651e-03, 5.403966391159940e-05, 1.000183743012115e-05, 2.582612982943688e+03, 1.255344545609234e+04, 4.797800206939048e+02, 1.001689850605585e+04
198, -2.500000000000000e-04, 2.200000000006315e-03, 4.977089028224621e-05, 9.723990552150805e-06, 2.646302080891510e+03, 1.287184525942099e+04, 4.763094846706777e+02, 1.026982065065987e+04
199, -2.500000000000000e-04, 2.100000000005904e-03, 4.565048516311006e-05, 9.430662138245349e-06, 2.710724008635914e+03, 1.319424405549624e+04, 4.718355425461246e+02, 1.052590650204349e+04
200, -2.500000000000000e-04, 2.000000000005494e-03, 4.168221510912174e-05, 9.121808120660894e-06, 2.775879672820824e+03, 1.352063709582183e+04, 4.663101356619952e+02, 1.078515612541699e+04
201, -2.500000000000000e-04, 1.900000000005083e-03, 3.786989482137993e-05, 8.797399694606926e-06, 2.841771832851608e+03, 1.385102042643575e+04, 4.596841265471054e+02, 1.104756953271315e+04
202, -2.500000000000000e-04, 1.800000000004675e-03, 3.421738719415842e-05, 8.457424043133229e-06, 2.908403128812321e+03, 1.418538936781762e+04, 4.519070570110792e+02, 1.131314715662360e+04
203, -2.500000000000000e-04, 1.700000000004264e-03, 3.072860330787961e-05, 8.101885048636796e-06, 2.975777551287841e+03, 1.452373900389910e+04, 4.429276105252624e+02, 1.158188901620362e+04
204, -2.500000000000000e-04, 1.600000000003854e-03, 2.740750247688381e-05, 7.730804094903516e-06, 3.043898375467305e+03, 1.486606251783424e+04, 4.326928545648900e+02, 1.185379506464628e+04
205, -2.500000000000000e-04, 1.500000000003443e-03, 2.425809222277314e-05, 7.344220816827065e-06, 3.112770663470226e+03, 1.521235385026918e+04, 4.211487428417518e+02, 1.212886550130129e+04
206, -2.500000000000000e-04, 1.400000000003032e-03, 2.128442830026243e-05, 6.942193888245980e-06, 3.182400005996365e+03, 1.556260613703605e+04, 4.082399594311743e+02, 1.240710051965962e+04
207, -2.500000000000000e-04, 1.300000000002622e-03, 1.849061471734764e-05, 6.524801841465254e-06, 3.252791876342610e+03, 1.591681101774980e+04, 3.939098941339122e+02, 1.268850033820838e+04
208, -2.500000000000000e-04, 1.200000000002211e-03, 1.588080370105477e-05, 6.092143901607670e-06, 3.323955013200383e+03, 1.627496221186709e+04, 3.781008386555152e+02, 1.297306549882043e+04
209, -2.500000000000000e-04, 1.100000000002113e-03, 1.345919565852773e-05, 5.644340783063652e-06, 3.395909912250289e+03, 1.663706739189610e+04, 3.607549313511141e+02, 1.326080042390944e+04
210, -2.500000000000000e-04, 1.000000000002544e-03, 1.123003919426944e-05, 5.181535207228764e-06, 3.468715833007539e+03, 1.700318922941464e+04, 3.418167979780752e+02, 1.355172775005355e+04
211, -2.500000000000000e-04, 9.000000000030026e-04, 9.197631789171748e-06, 4.703891385120751e-06, 3.542498967081330e+03, 1.737350697778957e+04, 3.212392713955073e+02, 1.384592218923039e+04
212, -2.500000000000000e-04, 8.000000000032027e-04, 7.366323375567755e-06, 4.211592803094799e-06, 3.617412502528866e+03, 1.774829908171526e+04, 2.989723677323312e+02, 1.414353185807916e+04
213, -2.500000000000000e-04, 7.000000000028719e-04, 5.740529081508233e-06, 3.704840580621842e-06, 3.692778632942117e+03, 1.812683879148052e+04, 2.748958306047760e+02, 1.444452711344477e+04
214, -2.500000000000000e-04, 6.000000000024631e-04, 4.324756281137218e-06, 3.183879426075792e-06, 3.764883754005486e+03, 1.850374396683717e+04, 2.483758352924669e+02, 1.474722898023971e+04
215, -2.500000000000000e-04, 5.000000000020526e-04, 3.123634728472188e-06, 2.649126255982315e-06, 3.813807173900343e+03, 1.885027899081527e+04, 2.175955247366545e+02, 1.504276822763744e+04
216, -2.500000000000000e-04, 4.000000000016421e-04, 2.141726749625777e-06, 2.101752388378558e-06, 3.797566030412969e+03, 1.909475044309896e+04, 1.750789465035728e+02, 1.530119150608078e+04
217, -2.500000000000000e-04, 3.000000000012316e-04, 1.382547300452158e-06, 1.544858882621305e-06, 3.474031102588530e+03, 1.890962573064104e+04, 1.186768585936135e+02, 1.543741941869256e+04
218, -2.500000000000000e-04, 2.000000000008210e-04, 8.414957100746143e-07, 9.887483956896725e-07, 3.259318487110340e+03, 1.862313094483698e+04, 5.029076652920992e+00, 1.536381575008774e+04
219, -2.500000000000000e-04, 1.000000000004105e-04, 4.902423360108596e-07, 4.375229583681001e-07, -1.671307440307985e+03, 1.287213905727036e+04, 1.095926447834532e+03, 1.470768694065034e+04
220, -1.999999999998928e-04, 9.899999999999593e-03, 5.974040723029182e-04, -4.258956899391683e-06, -2.942251645520702e+00, 3.708865971773179e+01, 2.664502083059705e+00, 4.038405811672590e+01
221, -1.499999999997670e-04, 9.899999999999591e-03, 5.972378331844638e-04, -8.325746295815121e-06, -1.104250796899448e+00, 3.424361764420710e+01, 7.310859839476279e+00, 3.825266643908166e+01
222, -9.999999999959327e-05, 9.899999999999591e-03, 5.970716929178960e-04, -1.239231124951292e-05, 1.322597098859848e+00, 2.955218642593793e+01, 1.041656613909531e+01, 3.508459938628441e+01
223, -4.999999999946756e-05, 9.899999999999593e-03, 5.969056712744433e-04, -1.645867985106128e-05, 3.797508891311324e+00, 2.440374399014854e+01, 1.252145728387878e+01, 3.243091881209279e+01
224, 6.282680539010377e-16, 9.899999999999593e-03, 5.967397663147572e-04, -2.052490857903454e-05, 5.830241968886837e+00, 1.915711493300389e+01, 1.343590757215067e+01, 2.999499945242901e+01
225, 5.000000000046569e-05, 9.899999999999590e-03, 5.965739689186629e-04, -2.459107358551100e-05, 7.417726704989001e+00, 1.415512062233066e+01, 1.306574579999812e+01, 2.698605806778949e+01
226, 1.000000000003380e-04, 9.899999999999590e-03, 5.964082662993812e-04, -2.865725699191493e-05, 8.592683973080220e+00, 9.706014895520767e+00, 1.145631718757471e+01, 2.293966694945986e+01
227, 1.500000000001929e-04, 9.899999999999593e-03, 5.962426412421749e-04, -3.272353628572863e-05, 9.337869639956466e+00, 6.177883620928613e+00, 8.751678894979614e+00, 1.778631624490518e+01
228, 2.000000000000797e-04, 9.899999999999593e-03, 5.960770698878638e-04, -3.678997740714643e-05, 9.426262157391298e+00, 3.913835335676496e+00, 5.183987190620909e+00, 1.174230566093591e+01
229, -1.999999999998947e-04, 9.799999999999184e-03, 5.892700113755609e-04, -3.929141394812786e-06, -6.788563408753632e-01, 4.930350951162864e+01, 5.418680534186792e+00, 5.114377079508176e+01
230, -1.499999999997712e-04, 9.799999999999181e-03, 5.891036845740627e-04, -7.995744131758957e-06, 2.027034195908876e+00, 4.273698186725832e+01, 1.111130495326536e+01, 4.638042939065838e+01
231, -9.999999999960086e-05, 9.799999999999184e-03, 5.889374980072444e-04, -1.206205994393657e-05, 3.713161674668735e+00, 3.441683745165965e+01, 1.521498965099056e+01, 4.322845528743281e+01
232, -4.999999999947776e-05, 9.799999999999184e-03, 5.887714607869629e-04, -1.612816798910365e-05, 5.698485489911803e+00, 2.633142376518018e+01, 1.777340627794426e+01, 4.110102218624871e+01
233, 6.154473632113966e-16, 9.799999999999184e-03, 5.886055706383498e-04, -2.019414487233819e-05, 7.692294754391030e+00, 1.880697278776029e+01, 1.877554144088398e+01, 3.916145928561482e+01
234, 5.000000000045551e-05, 9.799999999999184e-03, 5.884398172586562e-04, -2.426007447393066e-05, 9.362779609580819e+00, 1.189289811994663e+01, 1.814555006333741e+01, 3.637918976668988e+01
235, 1.000000000003303e-04, 9.799999999999184e-03, 5.882741854124641e-04, -2.832604500746657e-05, 1.050292006068955e+01, 5.665650149689990e+00, 1.587628285283801e+01, 3.211891357261535e+01
236, 1.500000000001885e-04, 9.799999999999188e-03, 5.881086552990761e-04, -3.239214417157363e-05, 1.093036239583008e+01, 2.788878980828460e-01, 1.203968149359248e+01, 2.633001387855261e+01
237, 2.000000000000778e-04, 9.799999999999188e-03, 5.879432007806341e-04, -3.645845513142465e-05, 1.035182361004758e+01, -4.042311478549350e+00, 6.736383386914726e+00, 1.971564276128933e+01
238, -1.999999999998966e-04, 9.699999999999027e-03, 5.811360967743109e-04, -3.599779792683105e-06, 9.589600537424179e-01, 6.414179217985576e+01, 8.724860165377065e+00, 6.554817323997790e+01
239, -1.499999999997756e-04, 9.699999999998999e-03, 5.809696208771695e-04, -7.666063452466508e-06, 2.958419530811594e+00, 5.315251674634337e+01, 1.516350688070392e+01, 5.864448106145090e+01
240, -9.999999999960846e-05, 9.699999999998973e-03, 5.808033359537402e-04, -1.173203424759222e-05, 5.078523369441497e+00, 4.186720461435596e+01, 1.977145159150317e+01, 5.400970523786010e+01
241, -4.999999999948794e-05, 9.699999999998947e-03, 5.806372458594977e-04, -1.579778256866550e-05, 7.023118382571896e+00, 3.046054899368580e+01, 2.249570362669151e+01, 5.073006879840146e+01
242, 6.026266725217555e-16, 9.699999999998920e-03, 5.804713483024699e-04, -1.986340337315704e-05, 8.825808364947919e+00, 1.943789495754214e+01, 2.330685802727973e+01, 4.780643164119042e+01
243, 5.000000000044535e-05, 9.699999999998892e-03, 5.803056339152513e-04, -2.392899324647905e-05, 1.029291730827693e+01, 9.035802794540739e+00, 2.218938071737597e+01, 4.439656296813158e+01
244, 1.000000000003228e-04, 9.699999999998864e-03, 5.801400869757744e-04, -2.799465079123282e-05, 1.120652997778236e+01, -5.779360011139918e-01, 1.913980720964906e+01, 4.005249703199416e+01
245, 1.500000000001842e-04, 9.699999999998836e-03, 5.799746857280909e-04, -3.206047539025804e-05, 1.136651203958402e+01, -9.204757988543022e+00, 1.417791759129797e+01, 3.503185035753413e+01
246, 2.000000000000759e-04, 9.699999999998809e-03, 5.798094017229351e-04, -3.612656659443071e-05, 1.064340285839137e+01, -1.651449600924224e+01, 7.329919043651502e+00, 3.086198832950585e+01
247, -1.999999999998985e-04, 9.599999999999352e-03, 5.730025380465201e-04, -3.271001238229283e-06, 1.776188698640340e+00, 8.135603995383154e+01, 1.215501693967873e+01, 8.321015847247176e+01
248, -1.499999999997800e-04, 9.599999999999241e-03, 5.728358792123578e-04, -7.336841352791507e-06, 3.679727474376918e+00, 6.622875800763713e+01, 1.930253315564532e+01, 7.350328132505285e+01
249, -9.999999999961608e-05, 9.599999999999132e-03, 5.726694676885196e-04, -1.140233861494570e-05, 5.733088855944078e+00, 5.079078828585102e+01, 2.426057551312373e+01, 6.621554481258727e+01
250, -4.999999999949810e-05, 9.599999999999024e-03, 5.725033088254701e-04, -1.546759941146469e-05, 7.721518373395265e+00, 3.535075958193494e+01, 2.701017668332328e+01, 6.067597174843622e+01
251, 5.898059818321144e-16, 9.599999999998917e-03, 5.723374001830652e-04, -1.953273258598079e-05, 9.441730891725367e+00, 2.017442618585570e+01, 2.753492325721142e+01, 5.610595996325825e+01
252, 5.000000000043517e-05, 9.599999999998809e-03, 5.721717324805393e-04, -2.359784890934878e-05, 1.075094453335097e+01, 5.563868382098739e+00, 2.582928917123402e+01, 5.191834430491594e+01
253, 1.000000000003152e-04, 9.599999999998698e-03, 5.720062897098836e-04, -2.766306021814827e-05, 1.148109228279658e+01, -8.219811657388121e+00, 2.189735753338755e+01, 4.802189796166331e+01
254, 1.500000000001798e-04, 9.599999999998591e-03, 5.718410492875364e-04, -3.172847926371947e-05, 1.148034662450521e+01, -2.090739457439995e+01, 1.574859049453662e+01, 4.517785065965063e+01
255, 2.000000000000740e-04, 9.599999999998483e-03, 5.716759822109429e-04, -3.579421947057570e-05, 1.062912710445359e+01, -3.220154580845480e+01, 7.390951942284841e+00, 4.530972549712920e+01
256, -1.999999999999004e-04, 9.499999999999719e-03, 5.648696023709198e-04, -2.942927385982320e-06, 2.163484007678019e+00, 1.010178545407112e+02, 1.566203359136620e+01, 1.036985234145142e+02
257, -1.499999999997843e-04, 9.499999999999528e-03, 5.647027360108690e-04, -7.008179101500818e-06, 4.163101629620233e+00, 8.122087687472074e+01, 2.347790811054834e+01, 9.023718414663564e+01
258, -9.999999999962368e-05, 9.499999999999330e-03, 5.645361842078366e-04, -1.107305337384796e-05, 6.229923433592213e+00, 6.103666372283769e+01, 2.874315895128050e+01, 7.942578628586001e+01
259, -4.999999999950831e-05, 9.499999999999136e-03, 5.643699524989389e-04, -1.513767360665078e-05, 8.187405325563914e+00, 4.080676335012764e+01, 3.146361597452785e+01, 7.087918621644104e+01
260, 5.769988436696294e-16, 9.499999999998942e-03, 5.642040387531574e-04, -1.920216410687442e-05, 9.857573954961353e+00, 2.083869807884805e+01, 3.164437431122672e+01, 6.423434275541635e+01
261, 5.000000000042495e-05, 9.499999999998747e-03, 5.640384335616855e-04, -2.326665011834323e-05, 1.107021229509524e+01, 1.422090085555643e+00, 2.929227941087259e+01, 5.937370457120502e+01
262, 1.000000000003075e-04, 9.499999999998551e-03, 5.638731206101231e-04, -2.733125765424584e-05, 1.167501993346628e+01, -1.715040319787040e+01, 2.441837336988440e+01, 5.670919546973769e+01
263, 1.500000000001755e-04, 9.499999999998359e-03, 5.637080769006894e-04, -3.139611321116493e-05, 1.152965629332716e+01, -3.459295124900999e+01, 1.703798897725432e+01, 5.734515847096957e+01
264, 2.000000000000721e-04, 9.499999999998164e-03, 5.635432729920414e-04, -3.546134356603066e-05, 1.051145693269173e+01, -5.061897432848014e+01, 7.173852718804815e+00, 6.279160992920370e+01
265, -1.999999999999023e-04, 9.400000000000087e-03, 5.567376088482248e-04, -2.615678354188015e-06, 2.378718028501273e+00, 1.231583864688598e+02, 1.926739234029162e+01, 1.267779868074180e+02
266, -1.499999999997887e-04, 9.399999999999811e-03, 5.565705163556941e-04, -6.680170283539379e-06, 4.512852520178500e+00, 9.797940048115541e+01, 2.770785875253172e+01, 1.086595478287232e+02
267, -9.999999999963125e-05, 9.399999999999530e-03, 5.564038162856139e-04, -1.074424851118590e-05, 6.649046174080024e+00, 7.240671787749007e+01, 3.324532309598707e+01, 9.351511866473643e+01
268, -4.999999999951849e-05, 9.399999999999249e-03, 5.562375137333995e-04, -1.480805290817529e-05, 8.613468869916948e+00, 4.676603196411271e+01, 3.590567055424251e+01, 8.131719856497628e+01
269, 5.641646004528322e-16, 9.399999999998968e-03, 5.560716062670611e-04, -1.887172354831630e-05, 1.024380665162334e+01, 2.137770383838930e+01, 3.570837765431079e+01, 7.227943417997268e+01
270, 5.000000000041476e-05, 9.399999999998687e-03, 5.559060841787918e-04, -2.293540076581225e-05, 1.138109532251976e+01, -3.450606341969693e+00, 3.267214228097689e+01, 6.700637954089154e+01
271, 1.000000000003000e-04, 9.399999999998406e-03, 5.557409307128778e-04, -2.699922511030289e-05, 1.187161393157159e+01, -2.742087767495996e+01, 2.681748848392931e+01, 6.648767292507746e+01
272, 1.500000000001711e-04, 9.399999999998125e-03, 5.555761222868276e-04, -3.106333719627350e-05, 1.156928342253090e+01, -5.024091485362611e+01, 1.816927767773550e+01, 7.170070582818884e+01
273, 2.000000000000702e-04, 9.399999999997844e-03, 5.554116286907684e-04, -3.512787739227252e-05, 1.032375771136863e+01, -7.163388793714769e+01, 6.758544838063853e+00, 8.306483849114645e+01
274, -1.999999999999042e-04, 9.300000000000464e-03, 5.486069223513191e-04, -2.289371868252747e-06, 2.709335911925770e+00, 1.478990081828150e+02, 2.299098381777852e+01, 1.522970199372450e+02
275, -1.499999999997930e-04, 9.300000000000100e-03, 5.484395897267697e-04, -6.352907985240682e-06, 4.953112463829980e+00, 1.166174287295935e+02, 3.200321413580420e+01, 1.287079732852204e+02
276, -9.999999999963886e-05, 9.299999999999729e-03, 5.482727371419985e-04, -1.041599346678934e-05, 7.132477096675110e+00, 8.495512267270493e+01, 3.778021579304378e+01, 1.084700096152304e+02
277, -4.999999999952863e-05, 9.299999999999361e-03, 5.481063689846937e-04, -1.447878429810898e-05, 9.097011121980412e+00, 5.324498330194913e+01, 4.035352519821102e+01, 9.199277923453502e+01
278, 5.513303572360351e-16, 9.299999999998993e-03, 5.479404822382991e-04, -1.854143624327895e-05, 1.068644133269583e+01, 2.180453706459213e+01, 3.975138174786339e+01, 8.027640659721310e+01
279, 5.000000000040461e-05, 9.299999999998625e-03, 5.477750666140675e-04, -2.260410492460829e-05, 1.174285292207229e+01, -9.055496675830183e+00, 3.600112287942935e+01, 7.494594545614630e+01
280, 1.000000000002923e-04, 9.299999999998258e-03, 5.476101046975563e-04, -2.666694579442883e-05, 1.211105325680206e+01, -3.903118649434703e+01, 2.913132689090612e+01, 7.752461230127716e+01
281, 1.500000000001668e-04, 9.299999999997890e-03, 5.474455720864605e-04, -3.073011402138843e-05, 1.163723569730708e+01, -6.782565630842146e+01, 1.917355336449607e+01, 8.823180719218433e+01
282, 2.000000000000683e-04, 9.299999999997520e-03, 5.472814374919856e-04, -3.479376432602247e-05, 1.017062568511668e+01, -9.514511657723915e+01, 6.163817535001902e+00, 1.060347874741594e+02
283, -1.999999999999061e-04, 9.200000000000841e-03, 5.404779598395009e-04, -1.964128629644667e-06, 2.926164215892577e+00, 1.750207631074735e+02, 2.686171378969322e+01, 1.802852119241390e+02
284, -1.499999999997973e-04, 9.200000000000397e-03, 5.403103738792614e-04, -6.026488743468161e-06, 5.313005275077519e+00, 1.369878463324667e+02, 3.639523267258429e+01, 1.504550285389454e+02
285, -9.999999999964642e-05, 9.199999999999951e-03, 5.401433655278870e-04, -1.008836139532294e-05, 7.581309664130281e+00, 9.860803943891943e+01, 4.237284914779539e+01, 1.243692040382175e+02
286, -4.999999999953884e-05, 9.199999999999505e-03, 5.399769381578745e-04, -1.414991828997332e-05, 9.576736260115679e+00, 6.020393397546768e+01, 4.482610615768938e+01, 1.029593721889906e+02
287, 5.385367716007061e-16, 9.199999999999058e-03, 5.398110878459698e-04, -1.821133078006595e-05, 1.114474616235147e+01, 2.209468275496098e+01, 4.378755833369259e+01, 8.825702335048635e+01
288, 5.000000000039439e-05, 9.199999999998614e-03, 5.396458034233763e-04, -2.227276985976516e-05, 1.212971805623763e+01, -1.540610529558617e+01, 3.928981063610985e+01, 8.326450892756365e+01
289, 1.000000000002848e-04, 9.199999999998171e-03, 5.394810665483338e-04, -2.633440613200808e-05, 1.237630814141677e+01, -5.198947780775506e+01, 3.136645453419801e+01, 8.987976569305378e+01
290, 1.500000000001625e-04, 9.199999999997726e-03, 5.393168517738563e-04, -3.039640973766592e-05, 1.172997753484815e+01, -8.734997268629800e+01, 2.005315278168013e+01, 1.068894395240541e+02
291, 2.000000000000664e-04, 9.199999999997280e-03, 5.391531266010944e-04, -3.445895024365498e-05, 1.003703912996787e+01, -1.211843222742674e+02, 5.388549543335553e+00, 1.316631746294492e+02
292, -1.999999999999080e-04, 9.100000000001274e-03, 5.323511751718932e-04, -1.640071975785935e-06, 3.254126563121353e+00, 2.046780877418554e+02, 3.090325023093536e+01, 2.106932738277978e+02
293, -1.499999999998017e-04, 9.100000000000802e-03, 5.321833257257156e-04, -5.701012841266611e-06, 5.749631161262968e+00, 1.592145515528256e+02, 4.091308771832045e+01, 1.739166604364763e+02
294, -9.999999999965405e-05, 9.100000000000334e-03, 5.320161606482335e-04, -9.761429683576021e-06, 8.086639086006979e+00, 1.134523301191663e+02, 4.704687883020653e+01, 1.412641641661172e+02
295, -4.999999999954905e-05, 9.099999999999862e-03, 5.318496822895734e-04, -1.382150980936418e-05, 1.010406489048539e+01, 6.770670687794257e+01, 4.933953561366584e+01, 1.142612071624660e+02
296, 5.257025283839090e-16, 9.099999999999390e-03, 5.316838857040124e-04, -1.788144010532103e-05, 1.164520931093213e+01, 2.229416985460802e+01, 4.782566360548338e+01, 9.624228154964013e+01
297, 5.000000000038422e-05, 9.099999999998916e-03, 5.315187586933625e-04, -2.194140699544432e-05, 1.255409865832915e+01, -2.247065791278714e+01, 4.254048184227815e+01, 9.200817330193411e+01
298, 1.000000000002772e-04, 9.099999999998446e-03, 5.313542818429280e-04, -2.600159640774940e-05, 1.267488944840146e+01, -6.627538132656463e+01, 3.352010286766560e+01, 1.035738115571499e+02
299, 1.500000000001581e-04, 9.099999999997978e-03, 5.311904285523005e-04, -3.006219372467843e-05, 1.185166804691421e+01, -1.088094870215719e+02, 2.080204249850740e+01, 1.276323400666934e+02
300, 2.000000000000645e-04, 9.099999999997506e-03, 5.310271650521914e-04, -3.412338371694458e-05, 9.927978900806760e+00, -1.497637632929519e+02, 4.425901354968701e+00, 1.599368842265396e+02
301, -1.999999999999099e-04, 9.000000000001736e-03, 5.242270687070299e-04, -1.317327835492093e-06, 3.629413393374314e+00, 2.368177239912729e+02, 3.511245515623526e+01, 2.435330084976091e+02
302, -1.499999999998060e-04, 9.000000000001264e-03, 5.240589471914054e-04, -5.376583917636451e-06, 6.237757393159175e+00, 1.832855283766977e+02, 4.555567675752840e+01, 1.991160263504301e+02
303, -9.999999999966160e-05, 9.000000000000792e-03, 5.238916259406025e-04, -9.435279669406642e-06, 8.636709905498423e+00, 1.294967225669578e+02, 5.180441239680577e+01, 1.591914923469260e+02
304, -4.999999999955923e-05, 9.000000000000320e-03, 5.237251062201481e-04, -1.349361805786163e-05, 1.066909472144765e+01, 7.576953371850773e+01, 5.389515835303729e+01, 1.259238640338113e+02
305, 5.128818376942679e-16, 8.999999999999852e-03, 5.235593819931517e-04, -1.755180152419033e-05, 1.217703384205896e+01, 2.241982261594443e+01, 5.186431331667366e+01, 1.042331171226631e+02
306, 5.000000000037403e-05, 8.999999999999380e-03, 5.233944399483466e-04, -2.161003198864566e-05, 1.300358704413467e+01, -3.023702497948193e+01, 4.574851209638656e+01, 1.012000788750179e+02
307, 1.000000000002695e-04, 8.999999999998908e-03, 5.232302595192180e-04, -2.566851082762794e-05, 1.299204177272681e+01, -8.188643781407926e+01, 3.558504447513555e+01, 1.186048373798197e+02
308, 1.500000000001538e-04, 8.999999999998436e-03, 5.230668128957046e-04, -2.972743884378801e-05, 1.198552395563222e+01, -1.322145654951624e+02, 2.141209151067099e+01, 1.504246537275808e+02
309, 2.000000000000626e-04, 8.999999999997964e-03, 5.229040650259583e-04, -3.378701623030115e-05, 9.826118648209555e+00, -1.809082524177520e+02, 3.268752129041503e+00, 1.908463760930564e+02
310, -1.999999999999118e-04, 8.900000000002187e-03, 5.161061856365628e-04, -9.960267664304119e-07, 4.024717231949943e+00, 2.714412218107327e+02, 3.949671218358718e+01, 2.788396457005113e+02
311, -1.499999999998104e-04, 8.900000000001712e-03, 5.159377847133514e-04, -5.053310034826886e-06, 6.747331766439846e+00, 2.092002948918273e+02, 5.032848788788581e+01, 2.260951769732688e+02
312, -9.999999999966923e-05, 8.900000000001240e-03, 5.157703091181056e-04, -9.109997167048761e-06, 9.209972505014768e+00, 1.467491963625006e+02, 5.664839799620219e+01, 1.781942818427800e+02
313, -4.999999999956943e-05, 8.900000000000770e-03, 5.156037589577624e-04, -1.316630673815823e-05, 1.125530161291626e+01, 8.440477697248737e+01, 5.849374051483736e+01, 1.379743326240392e+02
314, 5.000475944774707e-16, 8.900000000000293e-03, 5.154381270467946e-04, -1.722245677385925e-05, 1.272646567650270e+01, 2.248424594290072e+01, 5.590161531759753e+01, 1.122282346657646e+02
315, 5.000000000036387e-05, 8.899999999999823e-03, 5.152733989092795e-04, -2.127866474922740e-05, 1.346626545344424e+01, -3.869580065854791e+01, 4.890933616573854e+01, 1.108574480933271e+02
316, 1.000000000002620e-04, 8.899999999999349e-03, 5.151095527839051e-04, -2.533514757796691e-05, 1.331748830569177e+01, -9.881903289196171e+01, 3.755466352832253e+01, 1.349667010681296e+02
317, 1.500000000001494e-04, 8.899999999998874e-03, 5.149465596267678e-04, -2.939212159365669e-05, 1.212284798229219e+01, -1.575692679713984e+02, 2.187590666505104e+01, 1.752416485499748e+02
318, 2.000000000000606e-04, 8.899999999998404e-03, 5.147843831103609e-04, -3.344980253391124e-05, 9.725311363132862e+00, -2.146299285284251e+02, 1.911829570984802e+00, 2.243878206053807e+02
319, -1.999999999999137e-04, 8.800000000002590e-03, 5.079891147299081e-04, -6.763035881759500e-07, 4.446804197133407e+00, 3.085724363337772e+02, 4.406335035531208e+01, 3.166365669038450e+02
320, -1.499999999998147e-04, 8.800000000002060e-03, 5.078204285444745e-04, -4.731303684093808e-06, 7.279350888294978e+00, 2.369820947642894e+02, 5.523715952065960e+01, 2.548880650634782e+02
321, -9.999999999967683e-05, 8.800000000001532e-03, 5.076528018435643e-04, -8.785672405842128e-06, 9.801089410894441e+00, 1.652280720547597e+02, 6.158286412245104e+01, 1.983112290009657e+02
322, -4.999999999957961e-05, 8.800000000001001e-03, 5.074862335722690e-04, -1.283964391525859e-05, 1.185619562032584e+01, 9.362839323726243e+01, 6.313740187026227e+01, 1.504394175833293e+02
323, 4.872540088421418e-16, 8.800000000000474e-03, 5.073207153763378e-04, -1.689345183689824e-05, 1.328758144840978e+01, 2.250076056762495e+01, 5.993782602578100e+01, 1.202291754287199e+02
324, 5.000000000035368e-05, 8.799999999999947e-03, 5.071562315946427e-04, -2.094732924823496e-05, 1.393782883482641e+01, -4.783707710095197e+01, 5.202155400983820e+01, 1.210004435106265e+02
325, 1.000000000002544e-04, 8.799999999999419e-03, 5.069927592557594e-04, -2.500150866485801e-05, 1.364932504343972e+01, -1.170674109743060e+02, 3.942646102019401e+01, 1.526586007712652e+02
326, 1.500000000001451e-04, 8.799999999998892e-03, 5.068302680771632e-04, -2.905622202322161e-05, 1.226458637229295e+01, -1.848723653805471e+02, 2.219092849171660e+01, 2.020710938647572e+02
327, 2.000000000000587e-04, 8.799999999998365e-03, 5.066687204669529e-04, -3.311170066199198e-05, 9.626684895997260e+00, -2.509336790671050e+02, 3.538434793391154e-01, 2.605613250070236e+02
328, -1.999999999999156e-04, 8.700000000002964e-03, 4.998764889454561e-04, -3.582972855053672e-07, 4.874897823779811e+00, 3.482107682452813e+02, 4.881780256633106e+01, 3.569484995173830e+02
329, -1.499999999998191e-04, 8.700000000002345e-03, 4.997075130162095e-04, -4.410681604487344e-06, 7.814960017069581e+00, 2.666332015116820e+02, 6.028748857742281e+01, 2.855261936254799e+02
330, -9.999999999968445e-05, 8.700000000001731e-03, 4.995397398476633e-04, -8.462399865203589e-06, 1.039543656819653e+01, 1.849387764121178e+02, 6.661303006734681e+01, 2.195781423158589e+02
331, -4.999999999958977e-05, 8.700000000001117e-03, 4.993731672298948e-04, -1.251370182817009e-05, 1.245981401312901e+01, 1.034461726353402e+02, 6.783027561454941e+01, 1.633471842889022e+02
332, 4.743926605710325e-16, 8.700000000000502e-03, 4.992077856352059e-04, -1.656483674772307e-05, 1.385074311552437e+01, 2.247418677312136e+01, 6.397590384474878e+01, 1.282420713788026e+02
333, 5.000000000034347e-05, 8.699999999999888e-03, 4.990435782070168e-04, -2.061605334767591e-05, 1.441041221290188e+01, -5.765832495778538e+01, 5.508719048924068e+01, 1.316521822886698e+02
334, 1.000000000002468e-04, 8.699999999999274e-03, 4.988805207550582e-04, -2.466759979819521e-05, 1.398086670425462e+01, -1.366323786436330e+02, 4.120198447223486e+01, 1.716821591547127e+02
335, 1.500000000001407e-04, 8.699999999998657e-03, 4.987185817533935e-04, -2.871972369366691e-05, 1.240409145554862e+01, -2.141289313819566e+02, 2.235872146284341e+01, 2.309044394066726e+02
336, 2.000000000000568e-04, 8.699999999998044e-03, 4.985577223403656e-04, -3.277267202811900e-05, 9.522219986955932e+00, -2.898288158886139e+02, -1.403454488459465e+00, 2.993641952835733e+02
337, -1.999999999999175e-04, 8.600000000003331e-03, 4.917689846242433e-04, -4.215087690218955e-08, 5.310584531198778e+00, 3.903695764330295e+02, 5.376508255052006e+01, 3.997914001715283e+02
338, -1.499999999998235e-04, 8.600000000002632e-03, 4.915997160396942e-04, -4.091564582073547e-06, 8.354326459874105e+00, 2.981651798877106e+02, 6.548574910984463e+01, 3.180312313444718e+02
339, -9.999999999969208e-05, 8.600000000001931e-03, 4.914318026120013e-04, -8.140278044032998e-06, 1.099135499098934e+01, 2.058905319714080e+02, 7.174468659615462e+01, 2.420224977285507e+02
340, -4.999999999959999e-05, 8.600000000001230e-03, 4.912652409957513e-04, -1.218855667569633e-05, 1.306341265690376e+01, 1.138651444243769e+02, 7.257726625898326e+01, 1.767224587816472e+02
341, 4.615584173542353e-16, 8.600000000000526e-03, 4.911000204926442e-04, -1.623666541356792e-05, 1.441214848860586e+01, 2.240880811772564e+01, 6.801978643149990e+01, 1.362743994665595e+02
342, 5.000000000033329e-05, 8.599999999999825e-03, 4.909361230477750e-04, -2.028486867856054e-05, 1.487916870993450e+01, -6.815842115100460e+01, 5.810933640769031e+01, 1.428356441539787e+02
343, 1.000000000002392e-04, 8.599999999999124e-03, 4.907735232462760e-04, -2.433343034742327e-05, 1.430596902581606e+01, -1.575163724530854e+02, 4.288367758987188e+01, 1.920389446071305e+02
344, 1.500000000001364e-04, 8.599999999998423e-03, 4.906121883116414e-04, -2.838261372639675e-05, 1.253393144414596e+01, -2.453448292559989e+02, 2.238120081336636e+01, 2.617348425785828e+02
345, 2.000000000000548e-04, 8.599999999997722e-03, 4.904520781042537e-04, -3.243268152758485e-05, 9.403764566909821e+00, -3.313239929673323e+02, -3.359056507581654e+00, 3.407939814562425e+02
346, -1.999999999999195e-04, 8.500000000003703e-03, 4.836673218720784e-04, 2.719888349075731e-07, 5.758321111887724e+00, 4.350600939126066e+02, 5.890789924473395e+01, 4.451747684938479e+02
347, -1.499999999998278e-04, 8.500000000002915e-03, 4.834977593972312e-04, -3.774077171651205e-06, 8.903164904321642e+00, 3.315886636889755e+02, 7.083493607786480e+01, 3.524149312990606e+02
348, -9.999999999969967e-05, 8.500000000002127e-03, 4.833297136121120e-04, -7.819409186537976e-06, 1.159379708544582e+01, 2.280924452233294e+02, 7.698098765061202e+01, 2.656613530120364e+02
349, -4.999999999961013e-05, 8.500000000001340e-03, 4.831631800436694e-04, -1.186428837109292e-05, 1.367035858971393e+01, 1.248921300189635e+02, 7.738126627078911e+01, 1.905825908065668e+02
350, 4.487512791917503e-16, 8.500000000000552e-03, 4.829981468301761e-04, -1.590899541056254e-05, 1.497373536453413e+01, 2.230899259113727e+01, 7.207193869808638e+01, 1.443303966231068e+02
351, 5.000000000032310e-05, 8.499999999999765e-03, 4.828345947209886e-04, -1.995381048395021e-05, 1.534476704180252e+01, -7.933565232414338e+01, 6.108992740784169e+01, 1.545713386565985e+02
352, 1.000000000002316e-04, 8.499999999998977e-03, 4.826724970763117e-04, -2.399901323232069e-05, 1.462428052003953e+01, -1.797203870534378e+02, 4.447287473278869e+01, 2.137315984178256e+02
353, 1.500000000001320e-04, 8.499999999998190e-03, 4.825118198665013e-04, -2.804488273133175e-05, 1.265308245366118e+01, -2.785237016058511e+02, 2.225908207138603e+01, 2.945603274609169e+02
354, 2.000000000000531e-04, 8.499999999997402e-03, 4.823525216719301e-04, -3.209169746656273e-05, 9.272052916255674e+00, -3.754239139816010e+02, -5.512686857099056e+00, 3.848539278908487e+02
355, -1.999999999999213e-04, 8.400000000004074e-03, 4.755722651323472e-04, 5.839713392118078e-07, 6.238643866556899e+00, 4.823096706613794e+02, 6.424324263561495e+01, 4.931048564462031e+02
356, -1.499999999998322e-04, 8.400000000003200e-03, 4.754024092693355e-04, -3.458347549544757e-06, 9.476905890243081e+00, 3.669235094695886e+02, 7.633340886745081e+01, 3.886839740042178e+02
357, -9.999999999970726e-05, 8.400000000002326e-03, 4.752342407654424e-04, -7.499899129528854e-06, 1.221359515819921e+01, 2.515582701321188e+02, 8.232120632973920e+01, 2.905047288508489e+02
358, -4.999999999962035e-05, 8.400000000001451e-03, 4.750677540345199e-04, -1.154098038643008e-05, 1.428871049007176e+01, 1.365367311074331e+02, 8.224229732920867e+01, 2.049384308147368e+02
359, 4.359305885021092e-16, 8.400000000000581e-03, 4.749029360622608e-04, -1.558188783269681e-05, 1.554180691714300e+01, 2.218108917979866e+01, 7.613283678032695e+01, 1.524103520560294e+02
360, 5.000000000031294e-05, 8.399999999999703e-03, 4.747397664125235e-04, -1.962291747214875e-05, 1.581275859395426e+01, -9.118624941252693e+01, 6.402970180487061e+01, 1.668771960672087e+02
361, 1.000000000002240e-04, 8.399999999998832e-03, 4.745782172292682e-04, -2.366436477346412e-05, 1.494155052144011e+01, -2.032427267024307e+02, 4.597043489185582e+01, 2.367646560707243e+02
362, 1.500000000001277e-04, 8.399999999997958e-03, 4.744182532372890e-04, -2.770652464252804e-05, 1.276828348418017e+01, -3.136655970170006e+02, 2.199325318394215e+01, 3.293841087264398e+02
363, 2.000000000000511e-04, 8.399999999997083e-03, 4.742598317432792e-04, -3.174969139529705e-05, 9.133779606704362e+00, -4.221315105860826e+02, -7.862880111342442e+00, 4.315519088819445e+02
364, -1.999999999999233e-04, 8.300000000004210e-03, 4.674846243693800e-04, 8.936421648529314e-07, 6.722396991799457e+00, 5.321060453115448e+02, 6.977219779992892e+01, 5.435996838346168e+02
365, -1.499999999998365e-04, 8.300000000003279e-03, 4.673144770800428e-04, -3.144507710266041e-06, 1.005660468169687e+01, 4.041627751209359e+02, 8.198071898080974e+01, 4.268524648127553e+02
366, -9.999999999971485e-05, 8.300000000002344e-03, 4.671461970593436e-04, -7.181857396047721e-06, 1.284047935200468e+01, 2.762856610141010e+02, 8.776485222662885e+01, 3.165660134733717e+02
367, -4.999999999963053e-05, 8.300000000001409e-03, 4.669797775833954e-04, -1.121871978902384e-05, 1.491288571707967e+01, 1.487982821876313e+02, 8.716003476387672e+01, 2.198016970549536e+02
368, 4.231098978124681e-16, 8.300000000000474e-03, 4.668152044784861e-04, -1.525540729010376e-05, 1.611345153832254e+01, 2.202459066749764e+01, 8.020256920895508e+01, 1.605140180690565e+02
369, 5.000000000030276e-05, 8.299999999999542e-03, 4.666524561234488e-04, -1.929223179088179e-05, 1.628174921145423e+01, -1.037115219498250e+02, 6.692927563000210e+01, 1.797678972158585e+02
370, 1.000000000002164e-04, 8.299999999998609e-03, 4.664915034510610e-04, -2.332950464861332e-05, 1.525728387595034e+01, -2.280861544804561e+02, 4.737758895961068e+01, 2.611409058987533e+02
371, 1.500000000001233e-04, 8.299999999997672e-03, 4.663323099479700e-04, -2.736753666117352e-05, 1.287951961102384e+01, -3.507752770829100e+02, 2.158560231097227e+01, 3.662083615471064e+02
372, 2.000000000000492e-04, 8.299999999996739e-03, 4.661748316535093e-04, -3.140663803850153e-05, 8.987550299562784e+00, -4.714549608900747e+02, -1.040776541278384e+01, 4.808932239923485e+02
373, -1.999999999999252e-04, 8.200000000004194e-03, 4.594052539256009e-04, 1.200843044225149e-06, 7.251170251153276e+00, 5.844953121944855e+02, 7.549041154566220e+01, 5.966623905939000e+02
374, -1.499999999998408e-04, 8.200000000003217e-03, 4.592348189580499e-04, -2.832693341591801e-06, 1.066903078781962e+01, 4.433381632792065e+02, 8.777409028287381e+01, 4.669258419822077e+02
375, -9.999999999972244e-05, 8.200000000002240e-03, 4.590664403476143e-04, -6.865397154047040e-06, 1.348930025549998e+01, 3.022944063986864e+02, 9.330936019162547e+01, 3.438530734657742e+02
376, -4.999999999964069e-05, 8.200000000001265e-03, 4.589001102476699e-04, -1.089759723004927e-05, 1.555066061941262e+01, 1.616886329346735e+02, 9.213248222754969e+01, 2.351805350747698e+02
377, 4.102892071228270e-16, 8.200000000000287e-03, 4.587358133347006e-04, -1.492962191922196e-05, 1.669188513641359e+01, 2.184563430857169e+01, 8.427971252262937e+01, 1.686381952646485e+02
378, 5.000000000029257e-05, 8.199999999999309e-03, 4.585735268110881e-04, -1.896179905720282e-05, 1.675162391709191e+01, -1.169099548371635e+02, 6.978784681076186e+01, 1.932531807888540e+02
379, 1.000000000002088e-04, 8.199999999998328e-03, 4.584132204074512e-04, -2.299445594658219e-05, 1.556854588630171e+01, -2.542533633316476e+02, 4.869418154884264e+01, 2.868594707533043e+02
380, 1.500000000001190e-04, 8.199999999997352e-03, 4.582548563819492e-04, -2.702791933679166e-05, 1.298112959432628e+01, -3.898596959331500e+02, 2.103655382550861e+01, 4.050319457759754e+02
381, 2.000000000000473e-04, 8.199999999996377e-03, 4.580983895155820e-04, -3.106251540261839e-05, 8.827358027880109e+00, -5.234039231976324e+02, -1.314665464559380e+01, 5.328803569549480e+02
382, -1.999999999999271e-04, 8.100000000004175e-03, 4.513350546313884e-04, 1.505411808804220e-06, 7.782642115026547e+00, 6.394575702203991e+02, 8.139726352966541e+01, 6.523153170341769e+02
383, -1.499999999998452e-04, 8.100000000003150e-03, 4.511643370707034e-04, -2.523043987903428e-06, 1.128578101753943e+01, 4.844384863218498e+02, 9.371100084346995e+01, 5.089209066771839e+02
384, -9.999999999973005e-05, 8.100000000002133e-03, 4.509958742498541e-04, -6.550635312890980e-06, 1.414180940729236e+01, 3.295785774958046e+02, 9.895252624584012e+01, 3.723798658142791e+02
385, -4.999999999965090e-05, 8.100000000001112e-03, 4.508296571808166e-04, -1.057770701313462e-05, 1.619040273501614e+01, 1.752048374484311e+02, 9.715748769326935e+01, 2.510854438367507e+02
386, 3.974685164331859e-16, 8.100000000000092e-03, 4.506656693763505e-04, -1.460460343285080e-05, 1.726945730921036e+01, 2.164235256904526e+01, 8.836231086214168e+01, 1.767787151682706e+02
387, 5.000000000028236e-05, 8.099999999999071e-03, 4.505038868578059e-04, -1.863166839873460e-05, 1.721723800227265e+01, -1.307834278119571e+02, 7.260375317530578e+01, 2.073388940406942e+02
388, 1.000000000002012e-04, 8.099999999998051e-03, 4.503442781561521e-04, -2.265924520631105e-05, 1.587195699278845e+01, -2.817468762124846e+02, 4.991892410168593e+01, 3.139180877432004e+02
389, 1.500000000001146e-04, 8.099999999997031e-03, 4.501868043101778e-04, -2.668767660647064e-05, 1.307167664181122e+01, -4.309220920588474e+02, 2.034529043226284e+01, 4.458544493622402e+02
390, 2.000000000000454e-04, 8.099999999996011e-03, 4.500314188612603e-04, -3.071730479451695e-05, 8.654186754307261e+00, -5.779828162237076e+02, -1.607933285746282e+01, 5.875177895549987e+02
391, -1.999999999999291e-04, 8.000000000004158e-03, 4.432749721003483e-04, 1.807182292874151e-06, 8.319975298297813e+00, 6.970010920851166e+02, 8.749580251347804e+01, 7.105657903731717e+02
392, -1.499999999998495e-04, 8.000000000003093e-03, 4.431039786479109e-04, -2.215702988536069e-06, 1.190648182668674e+01, 5.274680390533606e+02, 9.979379552674554e+01, 5.528462044660600e+02
393, -9.999999999973761e-05, 8.000000000002028e-03, 4.429354476300440e-04, -6.237692474239577e-06, 1.479884521448683e+01, 3.581434672857985e+02, 1.046945861527838e+02, 4.021558839356978e+02
394, -4.999999999966106e-05, 8.000000000000966e-03, 4.427693688874686e-04, -1.025914704769806e-05, 1.683259230477412e+01, 1.893512097317192e+02, 1.022342679037904e+02, 2.675258034175406e+02
395, 3.846478257435448e-16, 7.999999999999901e-03, 4.426057247619091e-04, -1.428042707490096e-05, 1.784652512404910e+01, 2.141779942340384e+01, 9.244919078947866e+01, 1.849328675780456e+02
396, 5.000000000027218e-05, 7.999999999998840e-03, 4.424444900949207e-04, -1.830189240386595e-05, 1.767904598258352e+01, -1.453303759624758e+02, 7.537586811631304e+01, 2.220318842419117e+02
397, 1.000000000001936e-04, 7.999999999997775e-03, 4.422856322265689e-04, -2.232390235655184e-05, 1.616835465796570e+01, -3.105667438821110e+02, 5.105106522303367e+01, 3.423166219446835e+02
398, 1.500000000001103e-04, 7.999999999996709e-03, 4.421291109914939e-04, -2.634681572061054e-05, 1.315246906683116e+01, -4.739644137444837e+02, 1.951182478830099e+01, 4.886775038264906e+02
399, 2.000000000000435e-04, 7.999999999995648e-03, 4.419748787143845e-04, -3.037099074055280e-05, 8.469313991785818e+00, -6.351960509858345e+02, -1.920457890332689e+01, 6.448103329469757e+02
400, -1.999999999999309e-04, 7.900000000004136e-03, 4.352259968927482e-04, 2.105985181382107e-06, 8.921242064138738e+00, 7.571790652196883e+02, 9.377604231584425e+01, 7.714049224390352e+02
401, -1.499999999998538e-04, 7.900000000003030e-03, 4.350547361937468e-04, -1.910816981185986e-06, 1.257509470034336e+01, 5.724695095114107e+02, 1.060142155681196e+02, 5.986967607618421e+02
402, -9.999999999974523e-05, 7.900000000001926e-03, 4.348861547874134e-04, -5.926692616994493e-06, 1.548560547039620e+01, 3.880158821942336e+02, 1.105293226503107e+02, 4.331809457237067e+02
403, -4.999999999967128e-05, 7.900000000000816e-03, 4.347202413894987e-04, -9.942018648594515e-06, 1.749200641131694e+01, 2.041450375298542e+02, 1.073582830428538e+02, 2.845040558188506e+02
404, 3.718271350539037e-16, 7.899999999999709e-03, 4.345569772014191e-04, -1.395717148756142e-05, 1.843165219443150e+01, 2.118273580635822e+01, 9.653718591557377e+01, 1.930939706957005e+02
405, 5.000000000026201e-05, 7.899999999998603e-03, 4.343963359126382e-04, -1.797252702787484e-05, 1.814217832700560e+01, -1.605446130304961e+02, 7.810225345470742e+01, 2.373369279830949e+02
406, 1.000000000001860e-04, 7.899999999997496e-03, 4.342382836978166e-04, -2.198846064536711e-05, 1.646114528067321e+01, -3.407101753241786e+02, 5.208986344959215e+01, 3.720547913404723e+02
407, 1.500000000001060e-04, 7.899999999996389e-03, 4.340827792129493e-04, -2.600534719265087e-05, 1.322591243253149e+01, -5.189867646381194e+02, 1.853662590978880e+01, 5.335023520427878e+02
408, 2.000000000000416e-04, 7.899999999995286e-03, 4.339297735900257e-04, -3.002356099092496e-05, 8.273984238829975e+00, -6.950465011424541e+02, -2.252052230494814e+01, 7.047612367720828e+02
409, -1.999999999999328e-04, 7.800000000004094e-03, 4.271891676954082e-04, 2.401647244580981e-06, 9.497016216187717e+00, 8.199334476795286e+02, 1.002374805150457e+02, 8.348637130951680e+02
410, -1.499999999998583e-04, 7.800000000002947e-03, 4.270176493993990e-04, -1.608536411019735e-06, 1.322560747708049e+01, 6.194018476256747e+02, 1.123693260710579e+02, 6.464960138216950e+02
411, -9.999999999975283e-05, 7.800000000001799e-03, 4.268490366282752e-04, -5.617763407300058e-06, 1.616102595245489e+01, 4.191728221636364e+02, 1.164544181110859e+02, 4.654729142235124e+02
412, -4.999999999968147e-05, 7.800000000000654e-03, 4.266833169405665e-04, -9.626426724383360e-06, 1.814232003370221e+01, 2.195730047899542e+02, 1.125278093383202e+02, 3.020336939139372e+02
413, 3.590064443642627e-16, 7.799999999999507e-03, 4.265204703910392e-04, -1.363491882243805e-05, 1.900787230910901e+01, 2.092917188665182e+01, 1.006253281118826e+02, 2.012598271453168e+02
414, 5.000000000025183e-05, 7.799999999998360e-03, 4.263604695197552e-04, -1.764363165864433e-05, 1.859562486978229e+01, -1.764314849703646e+02, 8.078277943993459e+01, 2.532567933714023e+02
415, 1.000000000001784e-04, 7.799999999997211e-03, 4.262032793450418e-04, -2.165295668350887e-05, 1.674319662420500e+01, -3.721814132543147e+02, 5.303614187870508e+01, 4.031298569328142e+02
416, 1.500000000001016e-04, 7.799999999996065e-03, 4.260488573578500e-04, -2.566328483626628e-05, 1.328792215442790e+01, -5.659927141640788e+02, 1.742157576671660e+01, 5.803275806149110e+02
417, 2.000000000000397e-04, 7.799999999994919e-03, 4.258971535163463e-04, -2.967500654191137e-05, 8.066123062888764e+00, -7.575377536808469e+02, -2.602449216838323e+01, 7.673710920118937e+02
418, -1.999999999999347e-04, 7.700000000003952e-03, 4.191655671074937e-04, 2.693991471611627e-06, 1.009143929961239e+01, 8.853066404012349e+02, 1.068805295398451e+02, 9.009414179724586e+02
419, -1.499999999998626e-04, 7.700000000002785e-03, 4.189938025874861e-04, -1.309015385036911e-06, 1.388450524571060e+01, 6.682937266285990e+02, 1.188621450469097e+02, 6.962501469526370e+02
420, -9.999999999976044e-05, 7.700000000001617e-03, 4.188251790912725e-04, -5.311036122597412e-06, 1.683793246365572e+01, 4.516316606325832e+02, 1.224716348278945e+02, 4.990418733981186e+02
421, -4.999999999969162e-05, 7.700000000000449e-03, 4.186596830572722e-04, -9.312479721491403e-06, 1.878914498827047e+01, 2.356454220217725e+02, 1.177442959401133e+02, 3.201273524623644e+02
422, 3.461857536746216e-16, 7.699999999999279e-03, 4.184972934167904e-04, -1.331375469792450e-05, 1.957671113678938e+01, 2.066251374833043e+01, 1.047149963230312e+02, 2.094328073321870e+02
423, 5.000000000024164e-05, 7.699999999998113e-03, 4.183379815781028e-04, -1.731526908559714e-05, 1.903833960880070e+01, -1.929893988731427e+02, 8.341894943352565e+01, 2.697974173044283e+02
424, 1.000000000001708e-04, 7.699999999996944e-03, 4.181817114172999e-04, -2.131743042833065e-05, 1.701133034305833e+01, -4.049822835410629e+02, 5.389163187750826e+01, 4.355408615786402e+02
425, 1.500000000000973e-04, 7.699999999995776e-03, 4.180284392721610e-04, -2.532064577175719e-05, 1.333270986965222e+01, -6.149877621409868e+02, 1.616878141363055e+01, 6.291520750321652e+02
426, 2.000000000000377e-04, 7.699999999994609e-03, 4.178781139382880e-04, -2.932532165591962e-05, 7.839444419389238e+00, -8.226769796319824e+02, -2.971388372346854e+01, 8.326398922480263e+02
427, -1.999999999999367e-04, 7.600000000003967e-03, 4.111563237070477e-04, 2.982837793494879e-06, 1.069832086380701e+01, 9.532982503030419e+02, 1.137020834838253e+02, 9.696428631888660e+02
428, -1.499999999998669e-04, 7.600000000002791e-03, 4.109843258529982e-04, -1.012411313734835e-06, 1.455076518869382e+01, 7.191502757709072e+02, 1.254893017652490e+02, 7.479643906917050e+02
429, -9.999999999976803e-05, 7.600000000001615e-03, 4.108157137893108e-04, -5.006645372087083e-06, 1.751503037361992e+01, 4.853961813145631e+02, 1.285802166371444e+02, 5.338953641376197e+02
430, -4.999999999970180e-05, 7.600000000000435e-03, 4.106504728859915e-04, -9.000289412759285e-06, 1.943213708383632e+01, 2.523655762561656e+02, 1.230082564408799e+02, 3.387950880623127e+02
431, 3.333650629849805e-16, 7.599999999999259e-03, 4.104885809816517e-04, -1.299376802731335e-05, 2.013926266572913e+01, 2.038574310528572e+01, 1.088076049018325e+02, 2.176153493908466e+02
432, 5.000000000023146e-05, 7.599999999998081e-03, 4.103300083760729e-04, -1.698750535056947e-05, 1.947346081582231e+01, -2.102153274680036e+02, 8.601286450246116e+01, 2.869665327228371e+02
433, 1.000000000001632e-04, 7.599999999996904e-03, 4.101747178233084e-04, -2.098192504400456e-05, 1.727154116369064e+01, -4.391091728387465e+02, 5.465901522796919e+01, 4.692907285427019e+02
434, 1.500000000000929e-04, 7.599999999995727e-03, 4.100226645268741e-04, -2.497745028215049e-05, 1.337023755154377e+01, -6.659668174340538e+02, 1.478137325120329e+01, 6.799799925418913e+02
435, 2.000000000000358e-04, 7.599999999994550e-03, 4.098737961374985e-04, -2.897450374130918e-05, 7.606989804019491e+00, -8.904583602300023e+02, -3.358427569250025e+01, 9.005736989424516e+02
436, -1.999999999999386e-04, 7.500000000004145e-03, 4.031626119795216e-04, 3.268002513419220e-06, 1.128527821579567e+01, 1.023886462716359e+03, 1.207030212059958e+02, 1.040979363947703e+03
437, -1.499999999998712e-04, 7.500000000002950e-03, 4.029903949930800e-04, -7.188850259071270e-07, 1.519671048103154e+01, 7.719508466115224e+02, 1.322537755495800e+02, 8.016489675282320e+02
438, -9.999999999977570e-05, 7.500000000001755e-03, 4.028218179414194e-04, -4.704729103812569e-06, 1.817721936624960e+01, 5.204554366120675e+02, 1.347827869973398e+02, 5.700429862762264e+02
439, -4.999999999971198e-05, 7.500000000000564e-03, 4.026568651246640e-04, -8.689970838559971e-06, 2.006264732848159e+01, 2.697272244140275e+02, 1.283224366998009e+02, 3.580488683037584e+02
440, 3.205443722953394e-16, 7.499999999999370e-03, 4.024955132972932e-04, -1.267505093244626e-05, 2.069055756973225e+01, 2.009498780485772e+01, 1.129062593134731e+02, 2.258133040190275e+02
441, 5.000000000022125e-05, 7.499999999998177e-03, 4.023377316624770e-04, -1.666040964741271e-05, 1.989803799358052e+01, -2.281123174412152e+02, 8.856827317396606e+01, 3.047728538681994e+02
442, 1.000000000001556e-04, 7.499999999996980e-03, 4.021834818670619e-04, -2.064648678766554e-05, 1.752188329436663e+01, -4.745653334264775e+02, 5.534290631538148e+01, 5.043819762618401e+02
443, 1.500000000000885e-04, 7.499999999995787e-03, 4.020327179959351e-04, -2.463372168394501e-05, 1.339862386642889e+01, -7.189342786947681e+02, 1.326502991182271e+01, 7.328132942625658e+02
444, 2.000000000000339e-04, 7.499999999994593e-03, 4.018853865673185e-04, -2.862255317330776e-05, 7.364201691415829e+00, -9.608892681502097e+02, -3.762992071907482e+01, 9.711739419865232e+02
445, -1.999999999999404e-04, 7.400000000004559e-03, 3.951856505209279e-04, 3.549299084057144e-06, 1.191978987094799e+01, 1.097126060321508e+03, 1.278757631157388e+02, 1.114935645046360e+03
446, -1.499999999998756e-04, 7.400000000003323e-03, 3.950132305387003e-04, -4.286002863533839e-07, 1.587494204683438e+01, 8.267376886911115e+02, 1.391511189976618e+02, 8.572925577471830e+02
447, -9.999999999978329e-05, 7.400000000002085e-03, 3.948447138640398e-04, -4.405428245182874e-06, 1.885679018794758e+01, 5.568352111401765e+02, 1.410766031590606e+02, 6.074793932684876e+02
448, -4.999999999972218e-05, 7.400000000000849e-03, 3.946800837783186e-04, -8.381642059127177e-06, 2.070027228708597e+01, 2.877461016657963e+02, 1.336855106615117e+02, 3.778898490722923e+02
449, 3.077507866600104e-16, 7.399999999999613e-03, 3.945193159902624e-04, -1.235769858030775e-05, 2.124148628759188e+01, 1.979901442873216e+01, 1.170109345414995e+02, 2.340263146190272e+02
450, 5.000000000021107e-05, 7.399999999998373e-03, 3.943623786395902e-04, -1.633405422916427e-05, 2.031672645280416e+01, -2.466767584279835e+02, 9.108634600597168e+01, 3.232219217250986e+02
451, 1.000000000001480e-04, 7.399999999997137e-03, 3.942092322938877e-04, -2.031116498180148e-05, 1.776208502922675e+01, -5.113514500256190e+02, 5.594557535685891e+01, 5.408149060318841e+02
452, 1.500000000000842e-04, 7.399999999995899e-03, 3.940598299430137e-04, -2.428948635687578e-05, 1.341320327854790e+01, -7.738949093644773e+02, 1.162283450833819e+01, 7.876512079350575e+02
453, 2.000000000000320e-04, 7.399999999994663e-03, 3.939141169897998e-04, -2.826947340241500e-05, 7.105003766699838e+00, -1.033976620371233e+03, -4.184722643542841e+01, 1.044440381045768e+03
454, -1.999999999999424e-04, 7.300000000004963e-03, 3.872267057444328e-04, 3.826537828999415e-06, 1.255672723277657e+01, 1.172989771869385e+03, 1.352124629610237e+02, 1.191526118742067e+03
455, -1.499999999998800e-04, 7.300000000003675e-03, 3.870541001266337e-04, -1.417239151890747e-07, 1.655760796656847e+01, 8.834946975482148e+02, 1.461726508930318e+02, 9.149020126596511e+02
456, -9.999999999979085e-05, 7.300000000002383e-03, 3.868856705333714e-04, -4.108886758402845e-06, 1.953816706557677e+01, 5.945274064240509e+02, 1.474553135286060e+02, 6.462080959948696e+02
457, -4.999999999973237e-05, 7.300000000001096e-03, 3.867213992223792e-04, -8.075424164784960e-06, 2.133592783878152e+01, 3.064180127070674e+02, 1.390931639213321e+02, 3.983207603319652e+02
458, 2.949029909160572e-16, 7.299999999999806e-03, 3.865612608717046e-04, -1.204180916909084e-05, 2.178685990453225e+01, 1.949574147077276e+01, 1.211190708733239e+02, 2.422489763457146e+02
459, 5.000000000020089e-05, 7.299999999998517e-03, 3.864052225784056e-04, -1.600851438103394e-05, 2.072682178641671e+01, -2.659096728169505e+02, 9.356601520307879e+01, 3.423140032812523e+02
460, 1.000000000001404e-04, 7.299999999997227e-03, 3.862532438548223e-04, -1.997601197871447e-05, 1.799144804753496e+01, -5.494679509975854e+02, 5.646721544431153e+01, 5.785882432652656e+02
461, 1.500000000000799e-04, 7.299999999995936e-03, 3.861052766221081e-04, -2.394477370100395e-05, 1.341609099027315e+01, -8.308481821477441e+02, 9.856145035113663e+00, 8.444943678184463e+02
462, 2.000000000000302e-04, 7.299999999994650e-03, 3.859612652018332e-04, -2.791527084195781e-05, 6.835506803077365e+00, -1.109718960985443e+03, -4.623352582890880e+01, 1.120376738057693e+03
463, -1.999999999999443e-04, 7.200000000005343e-03, 3.792870901535343e-04, 4.099525548763374e-06, 1.319381619593997e+01, 1.251484209898671e+03, 1.427116965700603e+02, 1.270759462875679e+03
464, -1.499999999998843e-04, 7.200000000003976e-03, 3.791143175712988e-04, 1.415739568485428e-07, 1.723668564250927e+01, 9.422224690137668e+02, 1.533166878800467e+02, 9.744858780757007e+02
465, -9.999999999979844e-05, 7.200000000002606e-03, 3.789460031005016e-04, -3.815251796459927e-06, 2.021494395204317e+01, 6.335325328942599e+02, 1.539165221372632e+02, 6.862358545377941e+02
466, -4.999999999974257e-05, 7.200000000001237e-03, 3.787821279754120e-04, -7.771441352719964e-06, 2.196500121062162e+01, 3.257434759198877e+02, 1.445433365497937e+02, 4.193476675271677e+02
467, 2.821094052807283e-16, 7.199999999999870e-03, 3.786226658533552e-04, -1.172748394340252e-05, 2.232335877632300e+01, 1.918530059346564e+01, 1.252293640568740e+02, 2.504783860885312e+02
468, 5.000000000019069e-05, 7.199999999998501e-03, 3.784675828067641e-04, -1.568386838612018e-05, 2.112590157764583e+01, -2.858116988974396e+02, 9.600695576173844e+01, 3.620497656454824e+02
469, 1.000000000001328e-04, 7.199999999997132e-03, 3.783168373160109e-04, -1.964108308290020e-05, 1.820807837698534e+01, -5.889167171933298e+02, 5.690861015970652e+01, 6.177012846332235e+02
470, 1.500000000000756e-04, 7.199999999995762e-03, 3.781703802612129e-04, -2.359961601646668e-05, 1.340490388458095e+01, -8.897983763885170e+02, 7.967027327380858e+00, 9.033438213625116e+02
471, 2.000000000000282e-04, 7.199999999994395e-03, 3.780281549132534e-04, -2.755995474413598e-05, 6.551546947490252e+00, -1.188124181415364e+03, -5.078493137877560e+01, 1.198985626669438e+03
472, -1.999999999999461e-04, 7.100000000005715e-03, 3.713681620044309e-04, 4.368066194436765e-06, 1.385621860397460e+01, 1.332633518678217e+03, 1.503667539786534e+02, 1.352632326243689e+03
473, -1.499999999998886e-04, 7.100000000004259e-03, 3.711952426337278e-04, 4.211202295261962e-07, 1.792986432670234e+01, 1.002940324364348e+03, 1.605780842408010e+02, 1.036043865353855e+03
474, -9.999999999980600e-05, 7.100000000002804e-03, 3.710270727616676e-04, -3.524673484928435e-06, 2.089675073765481e+01, 6.738631415452958e+02, 1.604565007895623e+02, 7.275646102628140e+02
475, -4.999999999975274e-05, 7.100000000001348e-03, 3.708636326396772e-04, -7.469820775390936e-06, 2.259317287455293e+01, 3.457310700270125e+02, 1.500335277332746e+02, 4.409743057735662e+02
476, 2.692616095367750e-16, 7.099999999999895e-03, 3.707048949372221e-04, -1.141482707333920e-05, 2.285509603996417e+01, 1.887388408941851e+01, 1.293406621125021e+02, 2.587119586555613e+02
477, 5.000000000018050e-05, 7.099999999998441e-03, 3.705508247348678e-04, -1.536019741549309e-05, 2.151822823375161e+01, -3.063778627418462e+02, 9.840948814470275e+01, 3.824311126264272e+02
478, 1.000000000001252e-04, 7.099999999996985e-03, 3.704013795157488e-04, -1.930643644236911e-05, 1.841785739853944e+01, -6.296929891246926e+02, 5.727171746457714e+01, 6.581548965603993e+02
479, 1.500000000000712e-04, 7.099999999995530e-03, 3.702565091571235e-04, -2.325404839569633e-05, 1.338887273902559e+01, -9.507396415590781e+02, 5.959208451974821e+00, 9.642021783548122e+02
480, 2.000000000000263e-04, 7.099999999994075e-03, 3.701161559212156e-04, -2.720353711646064e-05, 6.265551110690140e+00, -1.269185475734776e+03, -5.549582532808812e+01, 1.280271247976982e+03
481, -1.999999999999481e-04, 7.000000000006086e-03, 3.634713265976397e-04, 4.631960739019129e-06, 1.451207047996770e+01, 1.416417932397677e+03, 1.581717557094419e+02, 1.437154571678378e+03
482, -1.499999999998929e-04, 7.000000000004546e-03, 3.632982817725100e-04, 6.967388569686145e-07, 1.861594305549185e+01, 1.065636729016408e+03, 1.679520764200718e+02, 1.099583614887685e+03
483, -9.999999999981362e-05, 7.000000000003004e-03, 3.631302871884157e-04, -3.237304883152490e-06, 2.156976407792217e+01, 7.155132283241983e+02, 1.670718689938608e+02, 7.702009927327604e+02
484, -4.999999999976293e-05, 7.000000000001462e-03, 3.629673221316851e-04, -7.170692490800175e-06, 2.321029953642834e+01, 3.663769361544449e+02, 1.555617345822793e+02, 4.632074627558497e+02
485, 2.564544713742900e-16, 6.999999999999921e-03, 3.628093583082640e-04, -1.110394560165320e-05, 2.337378667247366e+01, 1.855813268876234e+01, 1.334523412526739e+02, 2.669481224256342e+02
486, 5.000000000017032e-05, 6.999999999998381e-03, 3.626563598318816e-04, -1.503758547887621e-05, 2.189579780446000e+01, -3.276123877193072e+02, 1.007744484313056e+02, 4.034574693504280e+02
487, 1.000000000001176e-04, 6.999999999996837e-03, 3.625082832148412e-04, -1.897213301067169e-05, 1.861143770862454e+01, -6.718031657034406e+02, 5.755894166476448e+01, 6.999460348247644e+02
488, 1.500000000000668e-04, 6.999999999995296e-03, 3.623650773586420e-04, -2.290810870874141e-05, 1.335532805495875e+01, -1.013682083065262e+03, 3.836847320310877e+00, 1.027066078414608e+03
489, 2.000000000000244e-04, 6.999999999993755e-03, 3.622266835442952e-04, -2.684603270580511e-05, 5.961124421529433e+00, -1.352916680767748e+03, -6.036080824953918e+01, 1.364229672058990e+03
490, -1.999999999999499e-04, 6.900000000006458e-03, 3.555980350523358e-04, 4.891007297310968e-06, 1.517684286570486e+01, 1.502854970766223e+03, 1.661220001985206e+02, 1.524326831107233e+03
491, -1.499999999998973e-04, 6.900000000004828e-03, 3.554248874303338e-04, 9.682509470106649e-07, 1.930266363732284e+01, 1.130322838437814e+03, 1.754351586555591e+02, 1.165107638110625e+03
492, -9.999999999982122e-05, 6.900000000003202e-03, 3.552571001154084e-04, -2.953301876594434e-06, 2.223742781231816e+01, 7.584898145813011e+02, 1.737601763392131e+02, 8.141486182195249e+02
493, -4.999999999977310e-05, 6.900000000001573e-03, 3.550946514704921e-04, -6.874189360920423e-06, 2.381822890585805e+01, 3.876860940242880e+02, 1.611266199927735e+02, 4.860524395032150e+02
494, 2.436337806846489e-16, 6.899999999999946e-03, 3.549375122709015e-04, -1.079494935265527e-05, 2.388075044835830e+01, 1.824178865592921e+01, 1.375641958509392e+02, 2.751861730003139e+02
495, 5.000000000016015e-05, 6.899999999998319e-03, 3.547856456960777e-04, -1.471611934800700e-05, 2.226028177869223e+01, -3.495122153111323e+02, 1.031027732599629e+02, 4.251300001270021e+02
496, 1.000000000001100e-04, 6.899999999996692e-03, 3.546390073199843e-04, -1.863823649111818e-05, 1.879166400746294e+01, -7.152442807114785e+02, 5.777233880541687e+01, 7.430742497648672e+02
497, 1.500000000000625e-04, 6.899999999995065e-03, 3.544975451015069e-04, -2.256183757211210e-05, 1.330927138891730e+01, -1.078622041210915e+03, 1.602994442923748e+00, 1.091936019096690e+03
498, 2.000000000000225e-04, 6.899999999993437e-03, 3.543611993747213e-04, -2.648745902758490e-05, 5.647591169985660e+00, -1.439311946153693e+03, -6.537505291558017e+01, 1.450863072339192e+03
499, -1.999999999999519e-04, 6.800000000006828e-03, 3.477497849828213e-04, 5.145001324937944e-06, 1.583646554310417e+01, 1.591935681904745e+03, 1.742121477590878e+02, 1.614152480258019e+03
500, -1.499999999999017e-04, 6.800000000005111e-03, 3.475765583964102e-04, 1.235474935879684e-06, 1.998032014823328e+01, 1.196993008481378e+03, 1.830235317102531e+02, 1.232618887221834e+03
501, -9.999999999982880e-05, 6.800000000003401e-03, 3.474090115366145e-04, -2.672823004537560e-06, 2.289455904158076e+01, 8.027909628414061e+02, 1.805190606075209e+02, 8.594108014392112e+02
502, -4.999999999978328e-05, 6.800000000001686e-03, 3.472471218676541e-04, -6.580446885936578e-06, 2.441423885518964e+01, 4.096583944819051e+02, 1.667271762771699e+02, 5.095143419786874e+02
503, 2.308130899950078e-16, 6.799999999999972e-03, 3.470908592659200e-04, -1.048795076836085e-05, 2.437508647823331e+01, 1.792565707553554e+01, 1.416767011409660e+02, 2.834267907667988e+02
504, 5.000000000014997e-05, 6.799999999998255e-03, 3.469401860109246e-04, -1.439588838605380e-05, 2.261244392449751e+01, -3.720760107200906e+02, 1.053965188385468e+02, 4.474513168634882e+02
505, 1.000000000001024e-04, 6.799999999996542e-03, 3.467950567747994e-04, -1.830481314538091e-05, 1.896115036393856e+01, -7.600145829917240e+02, 5.791564165064402e+01, 7.875405255275538e+02
506, 1.500000000000582e-04, 6.799999999994830e-03, 3.466554186117598e-04, -2.221527812270196e-05, 1.325562686411766e+01, -1.145557200379206e+03, -7.367597348842700e-01, 1.158813764089508e+03
507, 2.000000000000206e-04, 6.799999999993115e-03, 3.465212109491088e-04, -2.612783606052641e-05, 5.329793560364223e+00, -1.528370349669416e+03, -7.053125994469798e+01, 1.540173614843662e+03
508, -1.999999999999538e-04, 6.700000000007203e-03, 3.399281199141097e-04, 5.393735807421864e-06, 1.650697194306846e+01, 1.683675073777873e+03, 1.824340033262908e+02, 1.706627710443638e+03
509, -1.499999999999060e-04, 6.700000000005407e-03, 3.397548394974268e-04, 1.498226812241261e-06, 2.066232879365873e+01, 1.265660370161628e+03, 1.907115135501448e+02, 1.302115067347132e+03
510, -9.999999999983645e-05, 6.700000000003612e-03, 3.395875675252496e-04, -2.396029281783803e-06, 2.354883818624938e+01, 8.484254644908654e+02, 1.873446139035959e+02, 9.059875639645584e+02
511, -4.999999999979346e-05, 6.700000000001816e-03, 3.394262806079637e-04, -6.289603053060522e-06, 2.500215197031783e+01, 4.322993904944640e+02, 1.723615093673085e+02, 5.335962894875698e+02
512, 2.179923993053667e-16, 6.700000000000018e-03, 3.392709477686535e-04, -1.018306477928933e-05, 2.485801125319551e+01, 1.761277614134561e+01, 1.457899269897370e+02, 2.916698556219297e+02
513, 5.000000000013978e-05, 6.699999999998221e-03, 3.391215304304212e-04, -1.407698443761430e-05, 2.295154075017393e+01, -3.953029374457946e+02, 1.076576970451962e+02, 4.704227114662758e+02
514, 1.000000000000948e-04, 6.699999999996424e-03, 3.389779824044740e-04, -1.797193170401915e-05, 1.911729969251223e+01, -8.061154875428643e+02, 5.799279483406785e+01, 8.333437526848891e+02
515, 1.500000000000538e-04, 6.699999999994629e-03, 3.388402498788294e-04, -2.186847595024990e-05, 1.318923295860895e+01, -1.214491865268037e+03, -3.176606448574667e+00, 1.227697536959776e+03
516, 2.000000000000187e-04, 6.699999999992831e-03, 3.387082714067490e-04, -2.576718623836365e-05, 5.000641433991291e+00, -1.620098311559632e+03, -7.582211355304447e+01, 1.632158870525653e+03
517, -1.999999999999557e-04, 6.600000000007607e-03, 3.321346303720955e-04, 5.637001363217596e-06, 1.718007238460882e+01, 1.778073109017189e+03, 1.907790499825807e+02, 1.801757716817146e+03
518, -1.499999999999103e-04, 6.600000000005753e-03, 3.319613222872969e-04, 1.756320141688927e-06, 2.134090808915533e+01, 1.336325247371556e+03, 1.984913768733200e+02, 1.373600786011073e+03
519, -9.999999999984406e-05, 6.600000000003900e-03, 3.317943606763841e-04, -2.123084147443499e-06, 2.419397091414996e+01, 8.953936846654339e+02, 1.942319349182866e+02, 9.538831791203392e+02
520, -4.999999999980367e-05, 6.600000000002050e-03, 3.316337213441714e-04, -6.001798272735221e-06, 2.557724099031272e+01, 4.556096207667796e+02, 1.780271214023040e+02, 5.583032074736578e+02
521, 2.051717086157256e-16, 6.600000000000198e-03, 3.314793725047829e-04, -9.880408732870991e-06, 2.532612340251467e+01, 1.730373688482051e+01, 1.499035504581314e+02, 2.999144152008260e+02
522, 5.000000000012958e-05, 6.599999999998345e-03, 3.313312747667830e-04, -1.375950175720709e-05, 2.327535015359118e+01, -4.191924094656413e+02, 1.098879663908323e+02, 4.940437014399776e+02
523, 1.000000000000872e-04, 6.599999999996491e-03, 3.311893811208611e-04, -1.763966330203181e-05, 1.925908702378075e+01, -8.535463686557251e+02, 5.800728775167622e+01, 8.804821095247383e+02
524, 1.500000000000495e-04, 6.599999999994639e-03, 3.310536369281210e-04, -2.152147904692526e-05, 1.311096455913210e+01, -1.285424782034275e+03, -5.711391939735279e+00, 1.298585986822765e+03
525, 2.000000000000168e-04, 6.599999999992787e-03, 3.309239799082450e-04, -2.540553439307286e-05, 4.663886214834662e+00, -1.714493542468517e+03, -8.124076518091206e+01, 1.726818610134218e+03
526, -1.999999999999576e-04, 6.500000000008018e-03, 3.243709535335393e-04, 5.874586006571867e-06, 1.783072208162875e+01, 1.875115820441120e+03, 1.992426493844368e+02, 1.899552176151828e+03
527, -1.499999999999147e-04, 6.500000000006126e-03, 3.241976447997924e-04, 2.009565987790691e-06, 2.199438523773176e+01, 1.408975271664118e+03, 2.063608615836619e+02, 1.447085070093092e+03
528, -9.999999999985163e-05, 6.500000000004228e-03, 3.240310299416356e-04, -1.854153473460792e-06, 2.481554055015931e+01, 9.436882371365159e+02, 2.011796603321453e+02, 1.003105206574720e+03
529, -4.999999999981387e-05, 6.500000000002332e-03, 3.238710839900004e-04, -5.717175329907418e-06, 2.612992294079706e+01, 4.795846931337550e+02, 1.837238373425090e+02, 5.836428893100430e+02
530, 1.923510179260846e-16, 6.500000000000438e-03, 3.237177743808602e-04, -9.580102308791664e-06, 2.577297373230155e+01, 1.699578410906631e+01, 1.540187479214015e+02, 3.081625186533674e+02
531, 5.000000000011942e-05, 6.499999999998543e-03, 3.235710609414817e-04, -1.344353689929699e-05, 2.357937246890000e+01, -4.437465529450660e+02, 1.120899853761174e+02, 5.183147497906002e+02
532, 1.000000000000796e-04, 6.499999999996646e-03, 3.234308958775516e-04, -1.730808134772382e-05, 1.938315301854199e+01, -9.023094803721082e+02, 5.796332361287351e+01, 9.289544111438377e+02
533, 1.500000000000451e-04, 6.499999999994751e-03, 3.232972237603070e-04, -2.117433765373930e-05, 1.301773419877165e+01, -1.358359242701146e+03, -8.335264834432810e+00, 1.371478297068749e+03
534, 2.000000000000149e-04, 6.499999999992855e-03, 3.231699815141285e-04, -2.504290756533533e-05, 4.316137849906795e+00, -1.811560986290118e+03, -8.677968614667351e+01, 1.824152566449941e+03
535, -1.999999999999595e-04, 6.400000000008258e-03, 3.166387719138629e-04, 6.106275718835222e-06, 1.848633704680537e+01, 1.974824972896328e+03, 2.078181579244897e+02, 2.000003601289279e+03
536, -1.499999999999190e-04, 6.400000000006336e-03, 3.164654907343091e-04, 2.257773323485715e-06, 2.264446918900518e+01, 1.483628033204098e+03, 2.143158043531182e+02, 1.522562980734899e+03
537, -9.999999999985919e-05, 6.400000000004416e-03, 3.162992601356043e-04, -1.589405232343669e-06, 2.542729473487952e+01, 9.933207582911836e+02, 2.081853241706570e+02, 1.053651874954524e+03
538, -4.999999999982406e-05, 6.400000000002495e-03, 3.161400544291958e-04, -5.435879115473867e-06, 2.666909560457560e+01, 5.042325597150267e+02, 1.894507882153733e+02, 6.096173118234743e+02
539, 1.795438797635995e-16, 6.400000000000575e-03, 3.159878403224160e-04, -9.282267290225274e-06, 2.620472291527179e+01, 1.669452574440274e+01, 1.581363694037972e+02, 3.164156904502140e+02
540, 5.000000000010922e-05, 6.399999999998654e-03, 3.158425769095290e-04, -1.312918851342023e-05, 2.386865563514164e+01, -4.689611219803170e+02, 1.142664174901983e+02, 5.432388483610866e+02
541, 1.000000000000720e-04, 6.399999999996736e-03, 3.157042156590918e-04, -1.697726133031564e-05, 1.949474891331006e+01, -9.524011907596816e+02, 5.786546571676128e+01, 9.787621600998468e+02
542, 1.500000000000408e-04, 6.399999999994814e-03, 3.155727004008046e-04, -2.082710407063605e-05, 1.291620707699295e+01, -1.433291522811862e+03, -1.104176125637640e+01, 1.446376327224988e+03
543, 2.000000000000129e-04, 6.399999999992895e-03, 3.154479673120291e-04, -2.467933484543686e-05, 3.965720863855978e+00, -1.911296907666571e+03, -9.243020627606847e+01, 1.924163274874101e+03
544, -1.999999999999615e-04, 6.300000000008254e-03, 3.089398149088165e-04, 6.331854663296141e-06, 1.914273826772771e+01, 2.077198841470736e+03, 2.164944780121129e+02, 2.103110639022612e+03
545, -1.499999999999234e-04, 6.300000000006307e-03, 3.087665904392944e-04, 2.500749297520751e-06, 2.329115435809777e+01, 1.560284889911109e+03, 2.223471196745827e+02, 1.600032096440422e+03
546, -9.999999999986685e-05, 6.300000000004357e-03, 3.086007825579527e-04, -1.329009265296042e-06, 2.603014726288939e+01, 1.044293431120417e+03, 2.152427893320217e+02, 1.105521573145469e+03
547, -4.999999999983422e-05, 6.300000000002410e-03, 3.084423649005590e-04, -5.158056419573529e-06, 2.719526174404905e+01, 5.295549801674534e+02, 1.952046536847672e+02, 6.362269359082512e+02
548, 1.667096365468024e-16, 6.300000000000461e-03, 3.082913034976118e-04, -8.987027377247068e-06, 2.662131607706240e+01, 1.640098531153741e+01, 1.622557191799434e+02, 3.246723406564830e+02
549, 5.000000000009904e-05, 6.299999999998514e-03, 3.081475567617126e-04, -1.281655717208484e-05, 2.414248924385302e+01, -4.948361162213143e+02, 1.164190786277175e+02, 5.688166667782128e+02
550, 1.000000000000644e-04, 6.299999999996569e-03, 3.080110754747275e-04, -1.664728065790356e-05, 1.959232213147521e+01, -1.003822868103494e+03, 5.771798365561642e+01, 1.029904905393094e+03
551, 1.500000000000364e-04, 6.299999999994618e-03, 3.078818027742408e-04, -2.047983250596660e-05, 1.280369993543556e+01, -1.510224780594578e+03, -1.382412003853274e+01, 1.523279415499639e+03
552, 2.000000000000111e-04, 6.299999999992672e-03, 3.077596741396199e-04, -2.431484720090270e-05, 3.608454389272481e+00, -2.013706613353619e+03, -9.818361209471465e+01, 2.026849814189095e+03
553, -1.999999999999633e-04, 6.200000000008235e-03, 3.012758589131452e-04, 6.551105063780927e-06, 1.979544544243717e+01, 2.182240399149214e+03, 2.252614634451569e+02, 2.208877335993495e+03
554, -1.499999999999277e-04, 6.200000000006244e-03, 3.011027210754420e-04, 2.738299167066639e-06, 2.392778416534122e+01, 1.638946197467041e+03, 2.304464885565160e+02, 1.679495999297305e+03
555, -9.999999999987445e-05, 6.200000000004252e-03, 3.009373751484206e-04, -1.073137277530310e-06, 2.661864743850197e+01, 1.096606345956392e+03, 2.223461530337855e+02, 1.158716929217531e+03
556, -4.999999999984441e-05, 6.200000000002263e-03, 3.007797941397475e-04, -4.883855880508798e-06, 2.770442950031068e+01, 5.555521541927669e+02, 2.009820476090603e+02, 6.634744564092316e+02
557, 1.538618408028491e-16, 6.200000000000271e-03, 3.006299434505829e-04, -8.694508107799215e-06, 2.701981281297429e+01, 1.611525701327383e+01, 1.663758605818466e+02, 3.329303489839713e+02
558, 5.000000000008886e-05, 6.199999999998280e-03, 3.004877808605448e-04, -1.250574527888794e-05, 2.439865628785319e+01, -5.213717789164675e+02, 1.185493940309576e+02, 5.950472277420866e+02
559, 1.000000000000568e-04, 6.199999999996288e-03, 3.003532565139949e-04, -1.631821856600266e-05, 1.967412640698160e+01, -1.056575331813837e+03, 5.752457865197271e+01, 1.082381265967290e+03
560, 1.500000000000321e-04, 6.199999999994299e-03, 3.002263129059350e-04, -2.013257899267625e-05, 1.267866596190655e+01, -1.589160715411716e+03, -1.667650614342397e+01, 1.602186576884240e+03
561, 2.000000000000091e-04, 6.199999999992307e-03, 3.001068848668370e-04, -2.394947743297504e-05, 3.244222798331492e+00, -2.118791934264150e+03, -1.040316393545568e+02, 2.132211945334631e+03
562, -1.999999999999653e-04, 6.100000000008216e-03, 2.936487270444899e-04, 6.763807288944245e-06, 2.043111651834741e+01, 2.289943609301525e+03, 2.341113958738459e+02, 2.317308684144370e+03
563, -1.499999999999321e-04, 6.100000000006179e-03, 2.934757064205646e-04, 2.970226358361872e-06, 2.454338791594557e+01, 1.719607476168441e+03, 2.386083850208493e+02, 1.760959428519662e+03
564, -9.999999999988203e-05, 6.100000000004146e-03, 2.933108623710631e-04, -8.219627527205268e-07, 2.718527881342624e+01, 1.150257149973319e+03, 2.294916051250201e+02, 1.213241944165307e+03
565, -4.999999999985460e-05, 6.100000000002112e-03, 2.931541673195277e-04, -4.613427873805475e-06, 2.819189874807947e+01, 5.822232755408363e+02, 2.067810032617812e+02, 6.913640862170039e+02
566, 1.410275975860520e-16, 6.100000000000079e-03, 2.930055860812943e-04, -8.404836726058034e-06, 2.739780298156683e+01, 1.583758800533232e+01, 1.704968857621400e+02, 3.411896698152651e+02
567, 5.000000000007866e-05, 6.099999999998046e-03, 2.928650758500935e-04, -1.219685691858112e-05, 2.463683489843302e+01, -5.485670864102665e+02, 1.206596697547082e+02, 6.219306705935403e+02
568, 1.000000000000492e-04, 6.099999999996011e-03, 2.927325861835689e-04, -1.599015594782134e-05, 1.974210104625854e+01, -1.110656802970293e+03, 5.728987559074982e+01, 1.136191093778963e+03
569, 1.500000000000277e-04, 6.099999999993980e-03, 2.926080589881053e-04, -1.978540119758965e-05, 1.254599073857673e+01, -1.670096449515298e+03, -1.959185262054314e+01, 1.683098614015214e+03
570, 2.000000000000072e-04, 6.099999999991945e-03, 2.924914285035195e-04, -2.358325993871010e-05, 2.880174963704093e+00, -2.226549753447834e+03, -1.099646810964687e+02, 2.240251488126202e+03
571, -1.999999999999672e-04, 6.000000000008407e-03, 2.860602885093046e-04, 6.969740239082753e-06, 2.106251035589932e+01, 2.400319485934665e+03, 2.430347135179463e+02, 2.428400140779772e+03
572, -1.499999999999365e-04, 6.000000000006308e-03, 2.858874164644494e-04, 3.196332815535755e-06, 2.514811280393008e+01, 1.802277985863175e+03, 2.468259949920260e+02, 1.844419386401797e+03
573, -9.999999999988962e-05, 6.000000000004209e-03, 2.857231149563455e-04, -5.756606703118109e-07, 2.773624402680511e+01, 1.205252480977641e+03, 2.366744622974312e+02, 1.269095619997946e+03
574, -4.999999999986476e-05, 6.000000000002106e-03, 2.855673558781642e-04, -4.346924274659891e-06, 2.866098041912514e+01, 6.095728301742001e+02, 2.125990822805618e+02, 7.198972540106060e+02
575, 1.282204594235670e-16, 6.000000000000007e-03, 2.854201035148297e-04, -8.118141973693909e-06, 2.775666789442047e+01, 1.557071248830673e+01, 1.746187380326477e+02, 3.494500138755436e+02
576, 5.000000000006848e-05, 5.999999999997906e-03, 2.852813145303558e-04, -1.188999766592080e-05, 2.485705297973965e+01, -5.764209023896866e+02, 1.227523557088460e+02, 6.494672762668818e+02
577, 1.000000000000416e-04, 5.999999999995806e-03, 2.851509379522585e-04, -1.566317517423787e-05, 1.979511047520342e+01, -1.166067842162856e+03, 5.701894244798179e+01, 1.191333530809488e+03
578, 1.500000000000234e-04, 5.999999999993707e-03, 2.850289151552525e-04, -1.943835824694463e-05, 1.240299433719954e+01, -1.753034757280795e+03, -2.256237486210568e+01, 1.766014353813601e+03
579, 2.000000000000053e-04, 5.999999999991606e-03, 2.849151798445685e-04, -2.321623055768205e-05, 2.511919856485292e+00, -2.336985194806773e+03, -1.159723311291247e+02, 2.350966838530013e+03
580, -1.999999999999690e-04, 5.900000000008779e-03, 2.785124594383426e-04, 7.168681614334600e-06, 2.169117556900184e+01, 2.513371720359107e+03, 2.520185007186763e+02, 2.542149727318097e+03
581, -1.499999999999408e-04, 5.900000000006594e-03, 2.783397679646845e-04, 3.416419249488666e-06, 2.574437299525925e+01, 1.886962528678805e+03, 2.550887543441700e+02, 1.929874118541803e+03
582, -9.999999999989724e-05, 5.900000000004408e-03, 2.781760502661541e-04, -3.344072828940104e-07, 2.827295642107561e+01, 1.261596519115366e+03, 2.438874259717340e+02, 1.326277239677063e+03
583, -4.999999999987495e-05, 5.900000000002220e-03, 2.780212777638006e-04, -4.084498260487101e-06, 2.911222677607893e+01, 6.376041747325523e+02, 2.184321610440305e+02, 7.490746869580659e+02
584, 1.153862162067698e-16, 5.900000000000033e-03, 2.778754142756466e-04, -7.834553910825330e-06, 2.809655214366657e+01, 1.531723986441492e+01, 1.787403269718964e+02, 3.577090001193880e+02
585, 5.000000000005830e-05, 5.899999999997847e-03, 2.777384159991167e-04, -1.158527442191972e-05, 2.505948336082918e+01, -6.049312334441331e+02, 1.248292685356826e+02, 6.776560251285636e+02
586, 1.000000000000340e-04, 5.899999999995659e-03, 2.776102314936908e-04, -1.533735994568965e-05, 1.983373717613745e+01, -1.222806924909129e+03, 5.671640583793810e+01, 1.247807203790876e+03
587, 1.500000000000191e-04, 5.899999999993472e-03, 2.774908016637018e-04, -1.909151059951455e-05, 1.225118965969779e+01, -1.837974260270568e+03, -2.558072975442056e+01, 1.850932659636414e+03
588, 2.000000000000034e-04, 5.899999999991286e-03, 2.773800597410790e-04, -2.284842646758858e-05, 2.142912518715860e+00, -2.450096376712714e+03, -1.220444797307699e+02, 2.464357310087416e+03
589, -1.999999999999710e-04, 5.800000000009150e-03, 2.710072032093830e-04, 7.360407856367127e-06, 2.230476574223502e+01, 2.629097142316114e+03, 2.610506833473851e+02, 2.658562831995557e+03
590, -1.499999999999452e-04, 5.800000000006880e-03, 2.708347246710426e-04, 3.630285134691385e-06, 2.632041434953194e+01, 1.973658227745480e+03, 2.633871887724032e+02, 2.017328878571720e+03
591, -9.999999999990477e-05, 5.800000000004606e-03, 2.706716324383786e-04, -9.838006542540256e-08, 2.878642913586415e+01, 1.319287743956246e+03, 2.511240330916535e+02, 1.384791234640805e+03
592, -4.999999999988512e-05, 5.800000000002332e-03, 2.705178975222469e-04, -3.826304215646787e-06, 2.953906094443408e+01, 6.663166972457111e+02, 2.242768401196049e+02, 7.789006112140244e+02
593, 1.025655255171287e-16, 5.800000000000059e-03, 2.703734833352382e-04, -7.554203789213161e-06, 2.841277954377475e+01, 1.507701850505137e+01, 1.828612322298679e+02, 3.659655223282442e+02
594, 5.000000000004811e-05, 5.799999999997786e-03, 2.702383456693550e-04, -1.128279526393211e-05, 2.524094762894805e+01, -6.340981336806784e+02, 1.268928930763561e+02, 7.064950455561400e+02
595, 1.000000000000264e-04, 5.799999999995513e-03, 2.701124326770448e-04, -1.501279512395510e-05, 1.985602203090949e+01, -1.280874284266543e+03, 5.638760159637512e+01, 1.305610039857166e+03
596, 1.500000000000147e-04, 5.799999999993240e-03, 2.699956848532331e-04, -1.874491986066023e-05, 1.208961808412579e+01, -1.924915622494652e+03, -2.863874000647293e+01, 1.937851906556918e+03
597, 2.000000000000015e-04, 5.799999999990969e-03, 2.698880350179738e-04, -2.247988597316150e-05, 1.772549916777365e+00, -2.565885000368891e+03, -1.281700908000974e+02, 2.580421590407625e+03
598, -1.999999999999729e-04, 5.700000000009518e-03, 2.635465298598334e-04, 7.544694279578979e-06, 2.289378304481170e+01, 2.747493744446711e+03, 2.701217538731241e+02, 2.777644325203139e+03
599, -1.499999999999495e-04, 5.700000000007160e-03, 2.633742969110828e-04, 3.837728816816684e-06, 2.686692886941057e+01, 2.062363142797449e+03, 2.717148203097056e+02, 2.106789171041830e+03
600, -9.999999999991239e-05, 5.700000000004800e-03, 2.632118721022446e-04, 1.322424162540894e-07, 2.926916724758533e+01, 1.378324966402938e+03, 2.583802913110833e+02, 1.444642879395004e+03
601, -4.999999999989533e-05, 5.700000000002444e-03, 2.630592261012968e-04, -3.572497579072357e-06, 2.993595095816787e+01, 6.957099434785898e+02, 2.301315862905170e+02, 8.093807491847959e+02
602, 8.974483482748763e-17, 5.700000000000083e-03, 2.629163219758010e-04, -7.277223884336538e-06, 2.870150853128965e+01, 1.485003708696649e+01, 1.869824788334673e+02, 3.742213954653115e+02
603, 5.000000000003792e-05, 5.699999999997726e-03, 2.627831151723312e-04, -1.098266926726133e-05, 2.539906651487658e+01, -6.639214290858877e+02, 1.289469012924272e+02, 7.359836676631888e+02
604, 1.000000000000188e-04, 5.699999999995369e-03, 2.626595534970791e-04, -1.468956654674660e-05, 1.986091648387173e+01, -1.340269755619547e+03, 5.603891608352126e+01, 1.364740592808670e+03
605, 1.500000000000104e-04, 5.699999999993010e-03, 2.625455770971433e-04, -1.839864859242880e-05, 1.191845660135652e+01, -2.013858859999796e+03, -3.172727167524429e+01, 2.026770883826680e+03
606, 1.999999999999996e-04, 5.699999999990651e-03, 2.624411184423050e-04, -2.211064832408025e-05, 1.402236223939298e+00, -2.684351270745872e+03, -1.343372815122601e+02, 2.699158743204456e+03
607, -1.999999999999748e-04, 5.600000000009672e-03, 2.561324956332688e-04, 7.721315444629435e-06, 2.346014193322895e+01, 2.868564059079287e+03, 2.792217919478380e+02, 2.899392270072142e+03
608, -1.499999999999538e-04, 5.600000000007281e-03, 2.559605412579998e-04, 4.038547873941762e-06, 2.738622299561484e+01, 2.153080272287581e+03, 2.800650623114435e+02, 2.198254068051582e+03
609, -9.999999999991998e-05, 5.600000000004890e-03, 2.557988261441726e-04, 3.572808249557640e-07, 2.972265748658845e+01, 1.438710887305969e+03, 2.656522200815206e+02, 1.505832739684762e+03
610, -4.999999999990553e-05, 5.600000000002499e-03, 2.556473206848454e-04, -3.323234558012882e-06, 3.030362704272625e+01, 7.257861102555210e+02, 2.359949909045689e+02, 8.405179518511342e+02
611, 7.692414413784654e-17, 5.600000000000110e-03, 2.555059876685452e-04, -7.003747234101843e-06, 2.896306591129058e+01, 1.463797996190021e+01, 1.911053226641237e+02, 3.824790000636543e+02
612, 5.000000000002774e-05, 5.599999999997718e-03, 2.553747822618687e-04, -1.068500626159323e-05, 2.553406469263325e+01, -6.943999785676101e+02, 1.309953167840769e+02, 7.661227830592721e+02
613, 1.000000000000112e-04, 5.599999999995330e-03, 2.552536519903167e-04, -1.436776079625982e-05, 1.984876783340010e+01, -1.400992804967740e+03, 5.567721691428501e+01, 1.425198437037207e+03
614, 1.500000000000060e-04, 5.599999999992939e-03, 2.551425367187585e-04, -1.805276009043789e-05, 1.173835748472760e+01, -2.104804112923460e+03, -3.483657461237897e+01, 2.117688923511781e+03
615, 1.999999999999977e-04, 5.599999999990549e-03, 2.550413686319198e-04, -2.174075349185778e-05, 1.033042048874762e+00, -2.805496104540650e+03, -1.405334634500844e+02, 2.820568110869446e+03
616, -1.999999999999767e-04, 5.500000000009695e-03, 2.487672032590974e-04, 7.890045547521244e-06, 2.401514654871448e+01, 2.992317412050218e+03, 2.883371499054725e+02, 3.023800851154686e+03
617, -1.499999999999582e-04, 5.500000000007305e-03, 2.485955607397521e-04, 4.232539494293583e-06, 2.788776014692078e+01, 2.245817570363289e+03, 2.884275700839071e+02, 2.291718677277916e+03
618, -9.999999999992762e-05, 5.500000000004914e-03, 2.484345978542071e-04, 5.765553923197703e-07, 3.015334071717049e+01, 1.500451442277713e+03, 2.729330133468249e+02, 1.568357812028507e+03
619, -4.999999999991570e-05, 5.500000000002524e-03, 2.482842847930649e-04, -3.078671824658077e-06, 3.064621118368697e+01, 7.565495232433549e+02, 2.418636982445081e+02, 8.723117634041383e+02
620, 6.410345344820545e-17, 5.500000000000133e-03, 2.481445841408237e-04, -6.733907364212031e-06, 2.920004492658933e+01, 1.444391800513998e+01, 1.952297629129489e+02, 3.907382558566628e+02
621, 5.000000000001756e-05, 5.499999999997745e-03, 2.480154508583189e-04, -1.038991657798655e-05, 2.564766466522423e+01, -7.255317238141887e+02, 1.330414251160031e+02, 7.969131426095903e+02
622, 1.000000000000036e-04, 5.499999999995354e-03, 2.478968322633647e-04, -1.404746496223638e-05, 1.982094229056980e+01, -1.463042242995408e+03, 5.530902744773649e+01, 1.486983382672898e+03
623, 1.500000000000017e-04, 5.499999999992964e-03, 2.477886680106577e-04, -1.770731815773255e-05, 1.155075108905012e+01, -2.197750987765292e+03, -3.795693320332047e+01, 2.210605593139045e+03
624, 1.999999999999958e-04, 5.499999999990576e-03, 2.476908900712000e-04, -2.137024194921783e-05, 6.669420276485596e-01, -2.929319811377952e+03, -1.467457754769444e+02, 2.944649328122724e+03
625, -1.999999999999786e-04, 5.400000000009719e-03, 2.414528027115499e-04, 8.050658514765047e-06, 2.455173619347059e+01, 3.118751881836211e+03, 2.974527439114541e+02, 3.150870844820106e+03
626, -1.499999999999625e-04, 5.400000000007331e-03, 2.412815053685705e-04, 4.419500608638842e-06, 2.836599331837593e+01, 2.340574006536592e+03, 2.967904000863256e+02, 2.387183290559008e+03
627, -9.999999999993521e-05, 5.400000000004939e-03, 2.411213372884568e-04, 7.898860846734434e-07, 3.055744746208833e+01, 1.563546605970161e+03, 2.802144964682718e+02, 1.632218250181990e+03
628, -4.999999999992589e-05, 5.400000000002551e-03, 2.409722685286550e-04, -2.838966328176345e-06, 3.096113872548210e+01, 7.880006754410906e+02, 2.477333133932763e+02, 9.047629736068051e+02
629, 5.128276275856436e-17, 5.400000000000158e-03, 2.408342615432583e-04, -6.467838086999791e-06, 2.941072127675707e+01, 1.426848675905566e+01, 1.993550842770857e+02, 3.989976012141988e+02
630, 5.000000000000737e-05, 5.399999999997771e-03, 2.407072711621136e-04, -1.009751084000038e-05, 2.573880355675885e+01, -7.573161617416980e+02, 1.350880867604749e+02, 8.283539360786485e+02
631, 9.999999999999598e-05, 5.399999999995381e-03, 2.405912445702143e-04, -1.372876642860968e-05, 1.977698583685063e+01, -1.526417903614640e+03, 5.494070195166759e+01, 1.550094371027028e+03
632, 1.499999999999973e-04, 5.399999999992991e-03, 2.404861212868237e-04, -1.736238688841863e-05, 1.135584945552887e+01, -2.292699799480672e+03, -4.107855123632518e+01, 2.305519946320465e+03
633, 1.999999999999938e-04, 5.399999999990601e-03, 2.403918331443083e-04, -2.099915444984740e-05, 3.049068611688597e-01, -3.055823363996865e+03, -1.529609909688283e+02, 3.071401677894049e+03
634, -1.999999999999805e-04, 5.300000000009745e-03, 2.341914909861327e-04, 8.202928088765662e-06, 2.506330777815180e+01, 3.247867367954601e+03, 3.065547442859040e+02, 3.280605013601392e+03
635, -1.499999999999669e-04, 5.300000000007331e-03, 2.340205720237465e-04, 4.599227984831420e-06, 2.881408829115441e+01, 2.437349084434372e+03, 3.051430798686536e+02, 2.484650885821491e+03
636, -9.999999999994280e-05, 5.300000000004915e-03, 2.338612412148259e-04, 9.970927307561307e-07, 3.092945827539819e+01, 1.627996306046138e+03, 2.874895041262809e+02, 1.697416677242057e+03
637, -4.999999999993605e-05, 5.300000000002501e-03, 2.337134685571618e-04, -2.604275136185544e-06, 3.124427065348468e+01, 8.201398468067642e+02, 2.536000994593924e+02, 9.378743369223139e+02
638, 3.846207206892327e-17, 5.300000000000087e-03, 2.335772164479015e-04, -6.205673319368908e-06, 2.959213832795317e+01, 1.411208353728637e+01, 2.034810332877796e+02, 4.072563759203433e+02
639, 4.999999999999720e-05, 5.299999999997673e-03, 2.334524396605907e-04, -9.807899764752503e-06, 2.580553306725668e+01, -7.897530093201606e+02, 1.371385431950517e+02, 8.604438716033328e+02
640, 9.999999999998842e-05, 5.299999999995259e-03, 2.333390853229562e-04, -1.341175266285740e-05, 1.971583844109884e+01, -1.591119832015383e+03, 5.457896779015333e+01, 1.614529966310672e+03
641, 1.499999999999930e-04, 5.299999999992844e-03, 2.332370928949074e-04, -1.701803045000325e-05, 1.115337103981790e+01, -2.389651148581883e+03, -4.419121965497328e+01, 2.402430810036860e+03
642, 1.999999999999920e-04, 5.299999999990430e-03, 2.331463941466957e-04, -2.062753180898193e-05, -5.257943084785666e-02, -3.185008058784754e+03, -1.591653978166144e+02, 3.200824253362711e+03
643, -1.999999999999824e-04, 5.200000000009989e-03, 2.269855118188315e-04, 8.346628127317552e-06, 2.554819031572799e+01, 3.379666191020383e+03, 3.156293152417352e+02, 3.413003812070953e+03
644, -1.499999999999712e-04, 5.200000000007502e-03, 2.268150042526592e-04, 4.771518492521295e-06, 2.923037939027847e+01, 2.536145354417150e+03, 3.134754813845123e+02, 2.584122714139362e+03
645, -9.999999999995044e-05, 5.200000000005017e-03, 2.266565529802085e-04, 1.197995267979915e-06, 3.126745335194690e+01, 1.693802736041186e+03, 2.947513330478468e+02, 1.763954919922989e+03
646, -4.999999999994625e-05, 5.200000000002529e-03, 2.265101280201906e-04, -2.374755195834155e-06, 3.149381999284665e+01, 8.529688812751640e+02, 2.594607849507295e+02, 9.716485331732775e+02
647, 2.564138137928218e-17, 5.200000000000042e-03, 2.263756917917005e-04, -5.947546844928384e-06, 2.974294351071734e+01, 1.397621693319701e+01, 2.076078311593756e+02, 4.155149045482840e+02
648, 4.999999999998700e-05, 5.199999999997556e-03, 2.262531990907867e-04, -9.521193923006135e-06, 2.584715803112340e+01, -8.228411038508359e+02, 1.391965545339701e+02, 8.931822261065965e+02
649, 9.999999999998081e-05, 5.199999999995069e-03, 2.261425970670433e-04, -1.309651097269313e-05, 1.963764807294100e+01, -1.657147239730762e+03, 5.423115144605232e+01, 1.680289151043812e+03
650, 1.499999999999887e-04, 5.199999999992581e-03, 2.260438252005449e-04, -1.667431283632245e-05, 1.094447425745241e+01, -2.488604652867000e+03, -4.728403960381729e+01, 2.501337434356595e+03
651, 1.999999999999900e-04, 5.199999999990096e-03, 2.259568152790707e-04, -2.025541465634826e-05, -4.033732210227186e-01, -3.316874083144356e+03, -1.653444943660716e+02, 3.332916617176023e+03
652, -1.999999999999843e-04, 5.100000000010360e-03, 2.198371557405598e-04, 8.481532921823801e-06, 2.600638991938979e+01, 3.514151339760901e+03, 3.246614318481602e+02, 3.548066427284532e+03
653, -1.499999999999755e-04, 5.100000000007788e-03, 2.196670922928920e-04, 4.936169418324194e-06, 2.961491205986488e+01, 2.636966035405398e+03, 3.217764255092647e+02, 2.685598658114292e+03
654, -9.999999999995803e-05, 5.100000000005215e-03, 2.195095625133507e-04, 1.392414037830313e-06, 3.157095333901765e+01, 1.760968689155317e+03, 3.019926588468712e+02, 1.831833724068905e+03
655, -4.999999999995644e-05, 5.100000000002642e-03, 2.193645365269143e-04, -2.150563053815126e-06, 3.170899277961252e+01, 8.864900292497675e+02, 2.653118453021174e+02, 1.006087531648937e+03
656, 1.282069068964109e-17, 5.100000000000066e-03, 2.192319768594320e-04, -5.693592044087319e-06, 2.986236207375805e+01, 1.386261729023065e+01, 2.117357278734906e+02, 4.237736018980010e+02
657, 4.999999999997683e-05, 5.099999999997495e-03, 2.191118384131956e-04, -9.237503475329824e-06, 2.586318496582055e+01, -8.565792435910007e+02, 1.412661475481816e+02, 9.265684742584755e+02
658, 9.999999999997324e-05, 5.099999999994921e-03, 2.190040684430292e-04, -1.278312824532765e-05, 1.954241121333988e+01, -1.724499488390246e+03, 5.390506905253646e+01, 1.747370931843357e+03
659, 1.499999999999843e-04, 5.099999999992348e-03, 2.189086065324667e-04, -1.633129760791688e-05, 1.072981972044039e+01, -2.589560289647465e+03, -5.034539264588515e+01, 2.602238898932846e+03
660, 1.999999999999881e-04, 5.099999999989774e-03, 2.188253845699351e-04, -1.988284317295206e-05, -7.460091158456237e-01, -3.451422077481100e+03, -1.714829387339504e+02, 3.467678030310198e+03
661, -1.999999999999862e-04, 5.000000000010596e-03, 2.127487602480870e-04, 8.607417443443230e-06, 2.643581605017005e+01, 3.651325078973055e+03, 3.336351102669209e+02, 3.685793227470161e+03
662, -1.499999999999799e-04, 5.000000000007969e-03, 2.125791731876076e-04, 5.092978722982790e-06, 2.996518200418308e+01, 2.739812849897083e+03, 3.300339467643194e+02, 2.789079419315972e+03
663, -9.999999999996564e-05, 5.000000000005344e-03, 2.124226063979854e-04, 1.580170050885457e-06, 3.183763699218707e+01, 1.829495674730296e+03, 3.092056097172458e+02, 1.901054143617926e+03
664, -4.999999999996662e-05, 5.000000000002718e-03, 2.122790301985902e-04, -1.931854589833861e-06, 3.188781156014437e+01, 9.207046470399744e+02, 2.711494298755190e+02, 1.041193267515525e+03
665, 0.000000000000000e+00, 5.000000000000093e-03, 2.121484073083733e-04, -5.443941629541768e-06, 2.994875236624165e+01, 1.377235016545600e+01, 2.158648404052399e+02, 4.320326298798279e+02
666, 4.999999999996663e-05, 4.999999999997467e-03, 2.120306928218965e-04, -8.956937911236678e-06, 2.585231766611440e+01, -8.909668098107056e+02, 1.433513815628430e+02, 9.606017837227145e+02
667, 9.999999999996559e-05, 4.999999999994841e-03, 2.119258341851118e-04, -1.247169069144801e-05, 1.942918465533796e+01, -1.793176575727023e+03, 5.360871014810409e+01, 1.815773999644860e+03
668, 1.499999999999799e-04, 4.999999999992216e-03, 2.118337711708377e-04, -1.598904764109356e-05, 1.050882809937016e+01, -2.692518845020227e+03, -5.336337654976974e+01, 2.705133860177258e+03
669, 1.999999999999863e-04, 4.999999999989590e-03, 2.117544358539569e-04, -1.950985684639766e-05, -1.080528886403670e+00, -3.588653698784949e+03, -1.775649134312401e+02, 3.605107272093756e+03
670, -1.999999999999881e-04, 4.900000000010410e-03, 2.057227098140798e-04, 8.724057564682103e-06, 2.682930002475752e+01, 3.791185105421075e+03, 3.425348157728781e+02, 3.826185441100208e+03
671, -1.499999999999843e-04, 4.900000000007836e-03, 2.055536307966327e-04, 5.241745282702487e-06, 3.027544350628961e+01, 2.844684323954421e+03, 3.382364767553344e+02, 2.894566116566826e+03
672, -9.999999999997321e-05, 4.900000000005265e-03, 2.053980678879063e-04, 1.761085246002917e-06, 3.206358386165579e+01, 1.899383476431900e+03, 3.163824751004987e+02, 1.971617372461355e+03
673, -4.999999999997681e-05, 4.900000000002690e-03, 2.052559916849898e-04, -1.718784748855324e-06, 3.202757145864462e+01, 9.556132016887682e+02, 2.769697358242611e+02, 1.076967666468135e+03
674, -1.282069068964109e-17, 4.900000000000120e-03, 2.051273651855699e-04, -5.198727374872476e-06, 3.000031901982686e+01, 1.370614972030688e+01, 2.199953406462114e+02, 4.402922888006692e+02
675, 4.999999999995644e-05, 4.899999999997547e-03, 2.050121437640003e-04, -8.679605776705600e-06, 2.581356950906019e+01, -9.260030834436086e+02, 1.454564388600843e+02, 9.952814894598669e+02
676, 9.999999999995801e-05, 4.899999999994974e-03, 2.049102751460221e-04, -1.216228357263586e-05, 1.929781944541776e+01, -1.863177987632364e+03, 5.335028013983672e+01, 1.885497327974012e+03
677, 1.499999999999756e-04, 4.899999999992402e-03, 2.048216993830470e-04, -1.564762485608756e-05, 1.028231762872309e+01, -2.797480125562955e+03, -5.632575098360938e+01, 2.810021405308717e+03
678, 1.999999999999843e-04, 4.899999999989829e-03, 2.047463488264558e-04, -1.913649419658753e-05, -1.404904500267577e+00, -3.728569107359676e+03, -1.835741171781584e+02, 3.745203708887886e+03
679, -1.999999999999901e-04, 4.800000000010084e-03, 1.987614356630569e-04, 8.831230426695761e-06, 2.719175314346518e+01, 3.933737120379853e+03, 3.513436412136647e+02, 3.969239993142414e+03
680, -1.499999999999886e-04, 4.800000000007600e-03, 1.985928956789976e-04, 5.382269241146367e-06, 3.054973330076029e+01, 2.951585864850873e+03, 3.463713043673336e+02, 3.002056695630141e+03
681, -9.999999999998080e-05, 4.800000000005114e-03, 1.984383768475502e-04, 1.934982817530354e-06, 3.225100973215865e+01, 1.970636342190297e+03, 3.235146311275885e+02, 2.043522586932508e+03
682, -4.999999999998701e-05, 4.800000000002629e-03, 1.982978501347317e-04, -1.511507229207006e-06, 3.212927975955694e+01, 9.912189329106316e+02, 2.827683601460227e+02, 1.113411309795321e+03
683, -2.564138137928218e-17, 4.800000000000143e-03, 1.981712789112083e-04, -4.958079811699912e-06, 3.001747343462722e+01, 1.366643078990919e+01, 2.241270937498699e+02, 4.485523082168023e+02
684, 4.999999999994627e-05, 4.799999999997659e-03, 1.980586189258665e-04, -8.405614375962975e-06, 2.574721404378056e+01, -9.616863868129319e+02, 1.475854688074189e+02, 1.030607101912885e+03
685, 9.999999999995042e-05, 4.799999999995174e-03, 1.979598182789688e-04, -1.185499090456054e-05, 1.914879774287419e+01, -1.934502766878194e+03, 5.313821404400873e+01, 1.956540087785960e+03
686, 1.499999999999713e-04, 4.799999999992687e-03, 1.978748173952240e-04, -1.530708991867226e-05, 1.005117587800606e+01, -2.904443992409549e+03, -5.921980751975501e+01, 2.916900757376262e+03
687, 1.999999999999824e-04, 4.799999999990203e-03, 1.978035489966859e-04, -1.876279247906758e-05, -1.717956025685623e+00, -3.871169300892067e+03, -1.894935444848734e+02, 3.887966682456785e+03
688, -1.999999999999919e-04, 4.700000000009747e-03, 1.918674162047209e-04, 8.928714783692176e-06, 2.752549014508247e+01, 4.078986767191939e+03, 3.600421376104684e+02, 4.114955630724420e+03
689, -1.499999999999929e-04, 4.700000000007334e-03, 1.916994453839844e-04, 5.514352318340838e-06, 3.078884710833904e+01, 3.060522271681122e+03, 3.544233721802096e+02, 3.111550791962730e+03
690, -9.999999999998839e-05, 4.700000000004922e-03, 1.915460099428828e-04, 2.101687511595383e-06, 3.239941217429083e+01, 2.043257819408139e+03, 3.305919747610017e+02, 2.116770121918902e+03
691, -4.999999999999717e-05, 4.700000000002511e-03, 1.914070813187496e-04, -1.310174191541991e-06, 3.219194997127153e+01, 1.027524544880043e+03, 2.885400383627531e+02, 1.150525266754861e+03
692, -3.846207206892327e-17, 4.700000000000096e-03, 1.912826233564039e-04, -4.722127939953782e-06, 2.999922341507948e+01, 1.365524487049805e+01, 2.282595548127027e+02, 4.568115837934045e+02
693, 4.999999999993608e-05, 4.699999999997685e-03, 1.911725922792179e-04, -8.135069481601725e-06, 2.565258962426554e+01, -9.980152297053958e+02, 1.497425596520803e+02, 1.066577301941013e+03
694, 9.999999999994281e-05, 4.699999999995272e-03, 1.910769366611392e-04, -1.154989516664628e-05, 1.898204797934596e+01, -2.007149956044260e+03, 5.298118131443665e+01, 2.028900914293896e+03
695, 1.499999999999669e-04, 4.699999999992859e-03, 1.909955973989388e-04, -1.496750194953767e-05, 9.816262696505532e+00, -3.013409921176252e+03, -6.203232686304221e+01, 3.025770744315902e+03
696, 1.999999999999805e-04, 4.699999999990447e-03, 1.909285076845416e-04, -1.838878739121661e-05, -2.017633829699946e+00, -4.016454187123672e+03, -1.953055424424898e+02, 4.033395326527986e+03
697, -1.999999999999939e-04, 4.600000000009572e-03, 1.850431772717636e-04, 9.016291110237456e-06, 2.781375865547437e+01, 4.226926464309994e+03, 3.686122036031775e+02, 4.263337582384251e+03
698, -1.499999999999973e-04, 4.600000000007185e-03, 1.848758045879407e-04, 5.637797971159574e-06, 3.097862922932421e+01, 3.171487663488161e+03, 3.623791849552492e+02, 3.223053162610988e+03
699, -9.999999999999598e-05, 4.600000000004799e-03, 1.847234907202403e-04, 2.261025833244696e-06, 3.249870722272510e+01, 2.117244635314796e+03, 3.376055407572331e+02, 2.191363865106935e+03
700, -5.000000000000737e-05, 4.600000000002412e-03, 1.845862076739102e-04, -1.114936018375287e-06, 3.220841179320348e+01, 1.064528343194423e+03, 2.942803252486524e+02, 1.188313123752334e+03
701, -5.126921023140829e-17, 4.600000000000025e-03, 1.844639198639808e-04, -4.490998965705791e-06, 2.994043093851303e+01, 1.367168536933218e+01, 2.323928050900348e+02, 4.650702479334216e+02
702, 4.999999999992590e-05, 4.599999999997638e-03, 1.843565840852193e-04, -7.868075059069001e-06, 2.552595956988802e+01, -1.034990347866348e+03, 1.519323254265128e+02, 1.103190175978838e+03
703, 9.999999999993524e-05, 4.599999999995251e-03, 1.842641494830621e-04, -1.124707701921509e-05, 1.879476383181418e+01, -2.081120634500154e+03, 5.288832448330000e+01, 2.102577793951585e+03
704, 1.499999999999625e-04, 4.599999999992864e-03, 1.841865575247248e-04, -1.462891823957595e-05, 9.575184986031900e+00, -3.124379920381401e+03, -6.474963264063088e+01, 3.136629506678623e+03
705, 1.999999999999786e-04, 4.599999999990477e-03, 1.841237419703135e-04, -1.801451278734217e-05, -2.305702456812469e+00, -4.164426670155592e+03, -2.009918775417513e+02, 4.181487999397924e+03
706, -1.999999999999958e-04, 4.500000000009600e-03, 1.782912913694088e-04, 9.093741962698960e-06, 2.805791261771293e+01, 4.377560286143187e+03, 3.770366039353186e+02, 4.414385268656561e+03
707, -1.500000000000016e-04, 4.500000000007212e-03, 1.781245446139495e-04, 5.752411744863852e-06, 3.111971114518667e+01, 3.284485653957861e+03, 3.702263746298073e+02, 3.336564135714991e+03
708, -1.000000000000036e-04, 4.500000000004825e-03, 1.779733893037204e-04, 2.412826389297287e-06, 3.254863339033011e+01, 2.192599701027011e+03, 3.445471883803204e+02, 2.267304936456827e+03
709, -5.000000000001756e-05, 4.500000000002437e-03, 1.778377981154553e-04, -9.259409777078426e-07, 3.217815953722669e+01, 1.102232820385756e+03, 2.999854067669628e+02, 1.226777059736699e+03
710, -6.409667718462742e-17, 4.500000000000053e-03, 1.777177361363618e-04, -4.264817969006286e-06, 2.984082883791967e+01, 1.371797059658422e+01, 2.365274838103691e+02, 4.733296408936671e+02
711, 4.999999999991571e-05, 4.499999999997665e-03, 1.776131608351290e-04, -7.604732936598969e-06, 2.536774708214233e+01, -1.072609672588053e+03, 1.541599604632893e+02, 1.140445346233564e+03
712, 9.999999999992765e-05, 4.499999999995279e-03, 1.775240220322080e-04, -1.094661497369101e-05, 1.858855176906434e+01, -2.156412725795636e+03, 5.286947086745714e+01, 2.177570040482578e+03
713, 1.499999999999582e-04, 4.499999999992891e-03, 1.774502618699682e-04, -1.429139391679156e-05, 9.331413691233536e+00, -3.237351586128680e+03, -6.735723827608301e+01, 3.249476648863991e+03
714, 1.999999999999767e-04, 4.499999999990504e-03, 1.773918147827792e-04, -1.764000034849318e-05, -2.576936005184166e+00, -4.315084422446836e+03, -2.065332053479942e+02, 4.332244762275160e+03
715, -1.999999999999977e-04, 4.400000000009622e-03, 1.716143778827641e-04, 9.160852496224655e-06, 2.826416480619628e+01, 4.530894614268665e+03, 3.852953411474699e+02, 4.568094894380631e+03
716, -1.500000000000059e-04, 4.400000000007235e-03, 1.714482835567272e-04, 5.858001748095875e-06, 3.121728936861768e+01, 3.399522228745702e+03, 3.779498176214010e+02, 3.452080883060573e+03
717, -1.000000000000112e-04, 4.400000000004850e-03, 1.712983224661423e-04, 2.556920320340497e-06, 3.255217106458633e+01, 2.269327557356782e+03, 3.514069156178376e+02, 2.344591949593526e+03
718, -5.000000000002772e-05, 4.400000000002464e-03, 1.711644680691303e-04, -7.433348238696229e-07, 3.210255195416846e+01, 1.140641291887964e+03, 3.056503114671594e+02, 1.265917291742984e+03
719, -7.691736787426851e-17, 4.400000000000076e-03, 1.710466862353890e-04, -4.043707527475002e-06, 2.970073549826952e+01, 1.379636024449871e+01, 2.406636164289816e+02, 4.815899233195362e+02
720, 4.999999999990552e-05, 4.399999999997690e-03, 1.709449352171408e-04, -7.345142444045348e-06, 2.517761290653578e+01, -1.110871977969076e+03, 1.564304817525090e+02, 1.178342333710341e+03
721, 9.999999999991999e-05, 4.399999999995304e-03, 1.708591656188847e-04, -1.064858504090402e-05, 1.836259251078440e+01, -2.233026156381594e+03, 5.293463849334323e+01, 2.253876572141623e+03
722, 1.499999999999539e-04, 4.399999999992917e-03, 1.707893203666844e-04, -1.395498160203103e-05, 9.083584829949132e+00, -3.352326298753732e+03, -6.984006378751074e+01, 3.364310767972161e+03
723, 1.999999999999748e-04, 4.399999999990530e-03, 1.707353346774150e-04, -1.726527922962189e-05, -2.833183710079993e+00, -4.468430353245411e+03, -2.119096686969755e+02, 4.485663932051865e+03
724, -1.999999999999997e-04, 4.300000000009517e-03, 1.650151035911092e-04, 9.217410724082339e-06, 2.842646799900075e+01, 4.686927896497596e+03, 3.933670713241158e+02, 4.724466760443117e+03
725, -1.500000000000103e-04, 4.300000000007164e-03, 1.648496866357702e-04, 5.954378952992363e-06, 3.126618914321699e+01, 3.516596464533593e+03, 3.855331630175944e+02, 3.569603676558247e+03
726, -1.000000000000188e-04, 4.300000000004808e-03, 1.647009538680830e-04, 2.693141619663864e-06, 3.250569314181377e+01, 2.347428413663124e+03, 3.581736751564370e+02, 2.423225273945050e+03
727, -5.000000000003792e-05, 4.300000000002456e-03, 1.645688796350711e-04, -5.672604691658611e-07, 3.197895001333728e+01, 1.179754508425346e+03, 3.112693062646059e+02, 1.305734680774695e+03
728, -8.973805856390960e-17, 4.300000000000101e-03, 1.644534306997799e-04, -3.827787384617193e-06, 2.951823235849997e+01, 1.390774253609936e+01, 2.448007201644683e+02, 4.898502401394375e+02
729, 4.999999999989533e-05, 4.299999999997747e-03, 1.643545662098093e-04, -7.089400081989915e-06, 2.495426003541559e+01, -1.149776524853486e+03, 1.587485882243299e+02, 1.216879975190062e+03
730, 9.999999999991241e-05, 4.299999999995395e-03, 1.642722376656665e-04, -1.035306040529052e-05, 1.811619680923144e+01, -2.310960558159613e+03, 5.309364315451352e+01, 2.331496144176498e+03
731, 1.499999999999495e-04, 4.299999999993039e-03, 1.642063888889367e-04, -1.361973109059975e-05, 8.831618046677249e+00, -3.469304262070509e+03, -7.218328446955053e+01, 3.481130693723779e+03
732, 1.999999999999729e-04, 4.299999999990687e-03, 1.641569559901043e-04, -1.689037576949979e-05, -3.073314462447570e+00, -4.624465021535733e+03, -2.171012263388691e+02, 4.641744615994842e+03
733, -2.000000000000014e-04, 4.200000000009198e-03, 1.584961824858049e-04, 9.263207802779830e-06, 2.854116991418499e+01, 4.845660853643369e+03, 4.012307401612279e+02, 4.883501456411420e+03
734, -1.500000000000147e-04, 4.200000000006931e-03, 1.583314661017102e-04, 6.041357481162816e-06, 3.126273335461991e+01, 3.635709298991268e+03, 3.929605586054204e+02, 3.689133644503513e+03
735, -1.000000000000264e-04, 4.200000000004664e-03, 1.581839940121166e-04, 2.821327439176194e-06, 3.240604639569142e+01, 2.426903479101050e+03, 3.648367663764352e+02, 2.503206227946992e+03
736, -5.000000000004811e-05, 4.200000000002396e-03, 1.580537415663644e-04, -3.978576605901710e-07, 3.180496839190801e+01, 1.219573903114497e+03, 3.168369496586661e+02, 1.346230906259423e+03
737, -1.025587492535507e-16, 4.200000000000129e-03, 1.579406765353275e-04, -3.617174112051256e-06, 2.929182776525118e+01, 1.405366733748247e+01, 2.489386629538769e+02, 4.981104628355825e+02
738, 4.999999999988515e-05, 4.199999999997860e-03, 1.578447590774769e-04, -6.837599171377843e-06, 2.469727604623625e+01, -1.189321704615558e+03, 1.611194742328288e+02, 1.256057333609957e+03
739, 9.999999999990481e-05, 4.199999999995591e-03, 1.577659417056246e-04, -1.006011106140005e-05, 1.785032452585574e+01, -2.390214246133920e+03, 5.335700923418352e+01, 2.410427940886123e+03
740, 1.499999999999452e-04, 4.199999999993324e-03, 1.577041692539192e-04, -1.328568897532404e-05, 8.578379627345669e+00, -3.588283520421045e+03, -7.437101055395543e+01, 3.599936071218903e+03
741, 1.999999999999710e-04, 4.199999999991056e-03, 1.576593788451840e-04, -1.651531307972677e-05, -3.292839853459213e+00, -4.783186702640261e+03, -2.220867182059478e+02, 4.800486994162246e+03
742, -2.000000000000034e-04, 4.100000000008875e-03, 1.520603756834865e-04, 9.298038448981617e-06, 2.860878483331345e+01, 5.007097254347693e+03, 4.088642900193096e+02, 5.045198457117381e+03
743, -1.500000000000190e-04, 4.100000000006694e-03, 1.518963811688279e-04, 6.118754990345692e-06, 3.120647012551137e+01, 3.756864203441123e+03, 4.002155294854392e+02, 3.810671256613415e+03
744, -1.000000000000340e-04, 4.100000000004513e-03, 1.517502001901399e-04, 2.941318459576033e-06, 3.225177644806121e+01, 2.507755396283690e+03, 3.713852580838972e+02, 2.584535976052079e+03
745, -5.000000000005830e-05, 4.100000000002334e-03, 1.516218092222875e-04, -2.352626153602768e-07, 3.157875860028730e+01, 1.260101469365065e+03, 3.223478177463983e+02, 1.387407839565677e+03
746, -1.153726636796137e-16, 4.100000000000152e-03, 1.515111771646959e-04, -3.411980746778831e-06, 2.901960948611304e+01, 1.423550974661021e+01, 2.530775235165614e+02, 5.063709127134084e+02
747, 4.999999999987496e-05, 4.099999999997971e-03, 1.514182653064819e-04, -6.589829490864975e-06, 2.440481449386209e+01, -1.229506865708872e+03, 1.635487295488437e+02, 1.295873161037378e+03
748, 9.999999999989721e-05, 4.099999999995790e-03, 1.513430272921395e-04, -9.769803451409734e-06, 1.756317472541497e+01, -2.470787507878957e+03, 5.373585581562793e+01, 2.490670449581517e+03
749, 1.499999999999408e-04, 4.099999999993610e-03, 1.512854090875628e-04, -1.295289828318146e-05, 8.321812780695609e+00, -3.709265738542102e+03, -7.638657870330879e+01, 3.720725310927188e+03
750, 1.999999999999691e-04, 4.099999999991429e-03, 1.512453489461955e-04, -1.614011069476986e-05, -3.493826737774270e+00, -4.944598344748189e+03, -2.268439425717572e+02, 4.961889413825033e+03
751, -2.000000000000054e-04, 4.000000000008551e-03, 1.457104915805088e-04, 9.321701294048601e-06, 2.862373639783692e+01, 5.171236414086131e+03, 4.162451640850823e+02, 5.209559031167343e+03
752, -1.500000000000234e-04, 4.000000000006458e-03, 1.455472381000836e-04, 6.186393042415353e-06, 3.109249316902321e+01, 3.880061076065194e+03, 4.072812807593023e+02, 3.934218006001893e+03
753, -1.000000000000416e-04, 4.000000000004365e-03, 1.454023765308618e-04, 3.052959263354924e-06, 3.203908743579052e+01, 2.589984828631018e+03, 3.778080837533753e+02, 2.667216190618300e+03
754, -5.000000000006849e-05, 4.000000000002271e-03, 1.452758845969255e-04, -7.960764724864314e-08, 3.129738317181733e+01, 1.301338241551300e+03, 3.277964896281464e+02, 1.429267622386877e+03
755, -1.282069068964109e-16, 4.000000000000177e-03, 1.451677324490480e-04, -3.212316418217691e-06, 2.869942617843424e+01, 1.445441570461526e+01, 2.572174996023700e+02, 5.146321878100707e+02
756, 4.999999999986478e-05, 3.999999999998083e-03, 1.450778826295299e-04, -6.346176906123277e-06, 2.407554148751990e+01, -1.270330926034798e+03, 1.660421585263043e+02, 1.336326343673545e+03
757, 9.999999999988963e-05, 3.999999999995989e-03, 1.450062900371653e-04, -9.482200098466879e-06, 1.725433596613715e+01, -2.552679437005571e+03, 5.424157903359020e+01, 2.572222422934072e+03
758, 1.499999999999365e-04, 3.999999999993896e-03, 1.449529018923024e-04, -1.262139811689784e-05, 8.062692706306564e+00, -3.832250153652770e+03, -7.821303055061887e+01, 3.843497348835069e+03
759, 1.999999999999672e-04, 3.999999999991804e-03, 1.449176577020027e-04, -1.576478422031764e-05, -3.674169667493800e+00, -5.108699450833205e+03, -2.313503242299305e+02, 5.125951132368141e+03
760, -2.000000000000072e-04, 3.900000000008219e-03, 1.394493856975190e-04, 9.333999261040916e-06, 2.858328496970228e+01, 5.338079026176874e+03, 4.233507302602186e+02, 5.376583337877740e+03
761, -1.500000000000277e-04, 3.900000000006203e-03, 1.392868901119864e-04, 6.244097500077197e-06, 3.091860012162152e+01, 4.005301139479749e+03, 4.141410579512672e+02, 4.059774357360115e+03
762, -1.000000000000492e-04, 3.900000000004186e-03, 1.391433739387185e-04, 3.156098736654545e-06, 3.176606173663879e+01, 2.673593290745349e+03, 3.840941430303753e+02, 2.751247780693842e+03
763, -5.000000000007867e-05, 3.900000000002170e-03, 1.390188162763067e-04, 6.897923627188408e-08, 3.095917974974884e+01, 1.343285803427788e+03, 3.331775761155176e+02, 1.471811929602097e+03
764, -1.410275975860520e-16, 3.900000000000153e-03, 1.389131886528434e-04, -3.018285945542468e-06, 2.832993199375943e+01, 1.471184535565857e+01, 2.613589529318756e+02, 5.228952680932084e+02
765, 4.999999999985460e-05, 3.899999999998138e-03, 1.388264549903651e-04, -6.106722966438833e-06, 2.370854568145251e+01, -1.311792706910052e+03, 1.686059035689525e+02, 1.377416203820287e+03
766, 9.999999999988204e-05, 3.899999999996121e-03, 1.387585715688131e-04, -9.197359200796991e-06, 1.692347651583651e+01, -2.635889269822183e+03, 5.488612144876717e+01, 2.655082938901198e+03
767, 1.499999999999321e-04, 3.899999999994104e-03, 1.387094869899978e-04, -1.229122324286237e-05, 7.801416902242920e+00, -3.957236545572036e+03, -7.983260177123127e+01, 3.968251380782780e+03
768, 1.999999999999652e-04, 3.899999999992088e-03, 1.386791421418483e-04, -1.538934490953772e-05, -3.832778589766349e+00, -5.275490597344779e+03, -2.355823412688889e+02, 5.292671566998256e+03
769, -2.000000000000091e-04, 3.800000000007874e-03, 1.332799606978923e-04, 9.334740046527057e-06, 2.849109174033407e+01, 5.507630261578262e+03, 4.301567858411491e+02, 5.546269510587546e+03
770, -1.500000000000321e-04, 3.800000000005924e-03, 1.331182373991975e-04, 6.291698983456397e-06, 3.068710558860579e+01, 4.132588887077995e+03, 4.207765885141685e+02, 4.187339247631163e+03
771, -1.000000000000568e-04, 3.800000000003971e-03, 1.329760901161990e-04, 3.250590510076911e-06, 3.143356575760674e+01, 2.758584323498559e+03, 3.902312739789826e+02, 2.836630579439644e+03
772, -5.000000000008884e-05, 3.800000000002021e-03, 1.328534994541084e-04, 2.103747627824230e-07, 3.056412932661908e+01, 1.385946951642389e+03, 3.384850169624170e+02, 1.515041590802329e+03
773, -1.538415120121150e-16, 3.800000000000070e-03, 1.327504384511856e-04, -2.829989417330074e-06, 2.791067910410300e+01, 1.500995103339045e+01, 2.655019158233341e+02, 5.311605200014376e+02
774, 4.999999999984441e-05, 3.799999999998119e-03, 1.326668725419150e-04, -5.871544490317403e-06, 2.330329025670875e+01, -1.353890698256513e+03, 1.712460732278986e+02, 1.419142047992679e+03
775, 9.999999999987444e-05, 3.799999999996168e-03, 1.326027595197789e-04, -8.915334221503702e-06, 1.657020283485411e+01, -2.720416223716460e+03, 5.568164702967336e+01, 2.739251080567438e+03
776, 1.499999999999278e-04, 3.799999999994218e-03, 1.325580494999238e-04, -1.196240368470505e-05, 7.537832126843170e+00, -4.084225042919875e+03, -8.122710370622335e+01, 4.094986543948172e+03
777, 1.999999999999633e-04, 3.799999999992265e-03, 1.325326848820271e-04, -1.501379926438967e-05, -3.969157656609980e+00, -5.444972706566849e+03, -2.395157900539331e+02, 5.462050061469086e+03
778, -2.000000000000110e-04, 3.700000000007529e-03, 1.272051667085023e-04, 9.323736503531304e-06, 2.834258119204441e+01, 5.679889544662728e+03, 4.366378844572397e+02, 5.718618159038762e+03
779, -1.500000000000364e-04, 3.700000000005644e-03, 1.270442273499091e-04, 6.329033265318288e-06, 3.039402299740215e+01, 4.261924520034194e+03, 4.271686388496904e+02, 4.316913542268276e+03
780, -1.000000000000644e-04, 3.700000000003758e-03, 1.269034697073751e-04, 3.336293359607604e-06, 3.103839842033892e+01, 2.844958808512863e+03, 3.962066009965615e+02, 2.923365655717443e+03
781, -5.000000000009902e-05, 3.700000000001873e-03, 1.267828760269093e-04, 3.444608011265144e-07, 3.010965281892425e+01, 1.429322895685102e+03, 3.437123072794574e+02, 1.558958081448490e+03
782, -1.666825314924902e-16, 3.699999999999988e-03, 1.266824209924273e-04, -2.647521781878185e-06, 2.743967800816307e+01, 1.535002673475429e+01, 2.696462304468404e+02, 5.394279544523761e+02
783, 4.999999999983423e-05, 3.699999999998102e-03, 1.266020716869312e-04, -5.640713153372438e-06, 2.285843374819308e+01, -1.396623710529812e+03, 1.739688361646533e+02, 1.461502713562318e+03
784, 9.999999999986681e-05, 3.699999999996217e-03, 1.265417875539546e-04, -8.636173474226061e-06, 1.619396793612680e+01, -2.806259355496732e+03, 5.664062746731844e+01, 2.824725722203265e+03
785, 1.499999999999234e-04, 3.699999999994331e-03, 1.265015203588330e-04, -1.163496430607212e-05, 7.272393617207001e+00, -4.213215072943040e+03, -8.237780626666240e+01, 4.223702033436231e+03
786, 1.999999999999614e-04, 3.699999999992445e-03, 1.264812141495615e-04, -1.463814861370767e-05, -4.082026739541618e+00, -5.617146055306356e+03, -2.431257061711152e+02, 5.634086281270063e+03
787, -2.000000000000130e-04, 3.600000000007325e-03, 1.212280012142747e-04, 9.300807032214282e-06, 2.813550750596659e+01, 5.854858508912223e+03, 4.427683540517165e+02, 5.893630137403890e+03
788, -1.500000000000407e-04, 3.600000000005489e-03, 1.210678544905105e-04, 6.355941661704223e-06, 3.003639405900299e+01, 4.393309407605541e+03, 4.332979502684612e+02, 4.448498605773737e+03
789, -1.000000000000720e-04, 3.600000000003653e-03, 1.209285042707126e-04, 3.413071608154322e-06, 3.057762856332977e+01, 2.932718141855193e+03, 4.020072397159889e+02, 3.011454605672520e+03
790, -5.000000000010923e-05, 3.600000000001818e-03, 1.208099345808224e-04, 4.711247709977577e-07, 2.959308693249778e+01, 1.473415062388032e+03, 3.488529638368332e+02, 1.603563362739151e+03
791, -1.794761171278192e-16, 3.599999999999982e-03, 1.207121218890203e-04, -2.470972431950295e-06, 2.691462452269690e+01, 1.573341297398281e+01, 2.737918530190668e+02, 5.476978497403055e+02
792, 4.999999999982404e-05, 3.599999999998146e-03, 1.206350350660868e-04, -5.414295069356113e-06, 2.237213446602908e+01, -1.439990611022840e+03, 1.767806255131287e+02, 1.504496712399530e+03
793, 9.999999999985923e-05, 3.599999999996311e-03, 1.205786353457424e-04, -8.359919701446362e-06, 1.579354798116083e+01, -2.893417843239167e+03, 5.777601769077336e+01, 2.911505313697183e+03
794, 1.499999999999191e-04, 3.599999999994474e-03, 1.205428762847524e-04, -1.130892438477215e-05, 7.004815095126958e+00, -4.344206132275474e+03, -8.326518321702699e+01, 4.354396522075410e+03
795, 1.999999999999595e-04, 3.599999999992638e-03, 1.205277037225006e-04, -1.426238867697222e-05, -4.170352813488819e+00, -5.792010507566820e+03, -2.463860865085442e+02, 5.808779396006967e+03
796, -2.000000000000149e-04, 3.500000000007369e-03, 1.153515090374933e-04, 9.265776040298378e-06, 2.786750884768162e+01, 6.032537932233536e+03, 4.485218235800622e+02, 6.071305806693911e+03
797, -1.500000000000451e-04, 3.500000000005565e-03, 1.151921604708798e-04, 6.372271489259693e-06, 2.961199087089676e+01, 4.526744814800554e+03, 4.391447940061707e+02, 4.582095179770540e+03
798, -1.000000000000796e-04, 3.500000000003764e-03, 1.150542322727119e-04, 3.480795576661938e-06, 3.004894172886736e+01, 3.021863737327723e+03, 4.076199555779890e+02, 3.100898560724911e+03
799, -5.000000000011939e-05, 3.500000000001962e-03, 1.149377103907137e-04, 5.902600895776107e-07, 2.901201470141132e+01, 1.518224771376733e+03, 3.539002528275681e+02, 1.648859057181716e+03
800, -1.923239128717724e-16, 3.500000000000160e-03, 1.148425732193762e-04, -2.300424762312143e-06, 2.633301270493189e+01, 1.616111236718547e+01, 2.779385770567733e+02, 5.559702132505453e+02
801, 4.999999999981385e-05, 3.499999999998358e-03, 1.147687915597303e-04, -5.192350352514011e-06, 2.184175023139431e+01, -1.483990985502051e+03, 1.796877844356299e+02, 1.548122420065033e+03
802, 9.999999999985163e-05, 3.499999999996555e-03, 1.147163285785730e-04, -8.086609643514452e-06, 1.536602174656991e+01, -2.981892207560557e+03, 5.910072639757433e+01, 2.999588051148387e+03
803, 1.499999999999148e-04, 3.499999999994753e-03, 1.146851397674118e-04, -1.098429719254117e-05, 6.731584833868226e+00, -4.477200168813520e+03, -8.386971925112015e+01, 4.487068139731822e+03
804, 1.999999999999576e-04, 3.499999999992950e-03, 1.146751729011651e-04, -1.388650915721350e-05, -4.237790049664795e+00, -5.969569333676909e+03, -2.492706881006666e+02, 5.986127623863270e+03
805, -2.000000000000167e-04, 3.400000000007423e-03, 1.095787823640152e-04, 9.218474432808146e-06, 2.753866091384339e+01, 6.212929785637804e+03, 4.538709906553232e+02, 6.251644493287165e+03
806, -1.500000000000494e-04, 3.400000000005649e-03, 1.094202340938319e-04, 6.377876555231839e-06, 2.912078950648851e+01, 4.662233162376109e+03, 4.446885194827353e+02, 4.717703019169028e+03
807, -1.000000000000872e-04, 3.400000000003875e-03, 1.092837391179738e-04, 3.539342068202293e-06, 2.945192382055831e+01, 3.112398049461113e+03, 4.130308421921443e+02, 3.191697780180623e+03
808, -5.000000000012958e-05, 3.400000000002102e-03, 1.091692854525256e-04, 7.017666507713738e-07, 2.836588738366663e+01, 1.563754444145343e+03, 3.588470373151694e+02, 1.694845953175156e+03
809, -2.051242747706794e-16, 3.400000000000329e-03, 1.090768535663545e-04, -2.135955692766003e-06, 2.569450797648699e+01, 1.663550354179381e+01, 2.820860433825565e+02, 5.642448130432836e+02
810, 4.999999999980369e-05, 3.399999999998554e-03, 1.090064163395688e-04, -4.974932640568418e-06, 2.126755715273435e+01, -1.528622470979328e+03, 1.826967299126290e+02, 1.592379188442965e+03
811, 9.999999999984403e-05, 3.399999999996781e-03, 1.089579390215705e-04, -7.816273559974731e-06, 1.491272984110537e+01, -3.071680027369391e+03, 6.062793992773251e+01, 3.088973589602834e+03
812, 1.499999999999104e-04, 3.399999999995008e-03, 1.089313791889723e-04, -1.066108951368034e-05, 6.455653640635489e+00, -4.612194539636723e+03, -8.417147755957558e+01, 4.621717100645520e+03
813, 1.999999999999557e-04, 3.399999999993234e-03, 1.089266867036919e-04, -1.351049326606883e-05, -4.279938979181111e+00, -6.149820080478231e+03, -2.517525977760410e+02, 6.166131778734874e+03
814, -2.000000000000187e-04, 3.300000000007353e-03, 1.039129608684979e-04, 9.158740096531768e-06, 2.714863938646488e+01, 6.396035756421026e+03, 4.587873535179269e+02, 6.434645790758084e+03
815, -1.500000000000538e-04, 3.300000000005614e-03, 1.037552114004295e-04, 6.372617638675571e-06, 2.856173188840455e+01, 4.799776179122099e+03, 4.499075413731607e+02, 4.855322284321535e+03
816, -1.000000000000948e-04, 3.300000000003875e-03, 1.036201571998659e-04, 3.588594849536034e-06, 2.878526633178137e+01, 3.204322929823028e+03, 4.182254073257523e+02, 3.283852831291714e+03
817, -5.000000000013977e-05, 3.300000000002137e-03, 1.035077885033594e-04, 8.055513084544273e-07, 2.765338329829370e+01, 1.610005971546003e+03, 3.636859515362555e+02, 1.741525078462424e+03
818, -2.179652942510546e-16, 3.300000000000398e-03, 1.034180880074192e-04, -1.977635181730385e-06, 2.499799083834625e+01, 1.715841373399576e+01, 2.862340308023002e+02, 5.725217380383941e+02
819, 4.999999999979350e-05, 3.299999999998659e-03, 1.033510308252467e-04, -4.762088603031327e-06, 2.064885532582878e+01, -1.573883410072370e+03, 1.858144123167882e+02, 1.637266358505678e+03
820, 9.999999999983644e-05, 3.299999999996922e-03, 1.033065844435979e-04, -7.548934729550804e-06, 1.443361458340013e+01, -3.162779917063041e+03, 6.237181842467044e+01, 3.179661428613375e+03
821, 1.499999999999061e-04, 3.299999999995182e-03, 1.032847086796399e-04, -1.033930113412132e-05, 6.177781030295364e+00, -4.749188262024570e+03, -8.414902564823926e+01, 4.758343245028618e+03
822, 1.999999999999538e-04, 3.299999999993444e-03, 1.032853556379572e-04, -1.313431719340513e-05, -4.295386204893020e+00, -6.332762438760936e+03, -2.538033390520481e+02, 6.348791993359308e+03
823, -2.000000000000206e-04, 3.200000000007042e-03, 9.835723176949644e-05, 9.086418361106929e-06, 2.669460824292696e+01, 6.581855786044412e+03, 4.632416449339252e+02, 6.620310366845357e+03
824, -1.500000000000580e-04, 3.200000000005365e-03, 9.820027570619795e-05, 6.356362952381759e-06, 2.793169926736914e+01, 4.939374220848676e+03, 4.547798764977812e+02, 4.994954112608674e+03
825, -1.000000000001024e-04, 3.200000000003689e-03, 9.806666592086692e-05, 3.628445117886616e-06, 2.804598626741313e+01, 3.297639172608124e+03, 4.231889203181016e+02, 3.377365105120499e+03
826, -5.000000000014997e-05, 3.200000000002012e-03, 9.795639502676500e-05, 9.015283463744225e-07, 2.687168347084332e+01, 1.656980364481447e+03, 3.684095442849493e+02, 1.788898175186924e+03
827, -2.307656561499616e-16, 3.200000000000335e-03, 9.786944810444059e-05, -1.825525756116517e-06, 2.424076705100435e+01, 1.773080441984621e+01, 2.903823948039908e+02, 5.808012745008934e+02
828, 4.999999999978330e-05, 3.199999999998658e-03, 9.780580265719008e-05, -4.553857474091364e-06, 1.998301278465863e+01, -1.619773171389883e+03, 1.890480187019992e+02, 1.682782504377573e+03
829, 9.999999999982882e-05, 3.199999999996980e-03, 9.776542856654416e-05, -7.284608990181525e-06, 1.392599713609218e+01, -3.255191884036909e+03, 6.434690358311497e+01, 3.271650014443475e+03
830, 1.499999999999017e-04, 3.199999999995303e-03, 9.774828804776678e-05, -1.001892439198153e-05, 5.895076978485861e+00, -4.888182315119733e+03, -8.378048123123740e+01, 4.896944986007935e+03
831, 1.999999999999519e-04, 3.199999999993626e-03, 9.775433560516134e-05, -1.275794967862118e-05, -4.286645702872136e+00, -6.518398109330747e+03, -2.553936518428703e+02, 6.534106811965553e+03
832, -2.000000000000225e-04, 3.100000000006703e-03, 9.291482976710805e-05, 9.001362496976303e-06, 2.617493484150418e+01, 6.770390336410142e+03, 4.672040841757768e+02, 6.808638631021455e+03
833, -1.500000000000624e-04, 3.100000000005093e-03, 9.275865756362637e-05, 6.328988640076115e-06, 2.722891969257557e+01, 5.081028380085658e+03, 4.592831816380597e+02, 5.136599376008580e+03
834, -1.000000000001100e-04, 3.100000000003483e-03, 9.262649167285440e-05, 3.658791996865966e-06, 2.723212878482525e+01, 3.392348220608462e+03, 4.279064128483367e+02, 3.472235865271441e+03
835, -5.000000000016015e-05, 3.100000000001875e-03, 9.251832724533486e-05, 9.896199725047957e-07, 2.601877495454380e+01, 1.704679245807278e+03, 3.730102455681117e+02, 1.836966942979284e+03
836, -2.436134518939148e-16, 3.100000000000265e-03, 9.243415190671650e-05, -1.679682018847166e-06, 2.342092871395266e+01, 1.835434652008280e+01, 2.945309939419003e+02, 5.890837765757449e+02
837, 4.999999999977311e-05, 3.099999999998656e-03, 9.237394571199350e-05, -4.350270562695706e-06, 1.926840476361167e+01, -1.666290148748649e+03, 1.924048523134242e+02, 1.728926298629686e+03
838, 9.999999999982122e-05, 3.099999999997047e-03, 9.233768109955072e-05, -7.023304252117114e-06, 1.338874040166610e+01, -3.348914475991153e+03, 6.656793827294132e+01, 3.364938050037346e+03
839, 1.499999999998973e-04, 3.099999999995438e-03, 9.232532284516742e-05, -9.699943695090040e-06, 5.607204768456995e+00, -5.029175410873949e+03, -8.304366394352908e+01, 5.037521313826835e+03
840, 1.999999999999499e-04, 3.099999999993829e-03, 9.233682801615253e-05, -1.238135152110273e-05, -4.253134775817500e+00, -6.706726203771556e+03, -2.564938734840233e+02, 6.722075696475941e+03
841, -2.000000000000244e-04, 3.000000000006373e-03, 8.758903705931256e-05, 8.903434255628307e-06, 2.558969793706251e+01, 6.961640640633579e+03, 4.706438897937095e+02, 6.999630373361285e+03
842, -1.500000000000668e-04, 3.000000000004845e-03, 8.743363477426454e-05, 6.290379313787577e-06, 2.645300520225305e+01, 5.224740442032849e+03, 4.633942682569451e+02, 5.280258447019840e+03
843, -1.000000000001176e-04, 3.000000000003318e-03, 8.730290784346770e-05, 3.679543067137553e-06, 2.634268511827361e+01, 3.488452005748827e+03, 4.323623522423767e+02, 3.568466023733895e+03
844, -5.000000000017031e-05, 3.000000000001789e-03, 8.719685412097156e-05, 1.069756845444654e-06, 2.509327664004684e+01, 1.753104592605013e+03, 3.774802040161968e+02, 1.885732835212722e+03
845, -2.564273663199779e-16, 3.000000000000262e-03, 8.711546394441742e-05, -1.540150124315539e-06, 2.253699310077354e+01, 1.903098700785898e+01, 2.986796738612159e+02, 5.973696363141439e+02
846, 4.999999999976296e-05, 2.999999999998735e-03, 8.705872008772226e-05, -4.151350727237375e-06, 1.850370051341201e+01, -1.713432515833193e+03, 1.958924718902180e+02, 1.775696623769397e+03
847, 9.999999999981362e-05, 2.999999999997206e-03, 8.702659771382126e-05, -6.765019968854512e-06, 1.282092181965214e+01, -3.443946086483887e+03, 6.905021119926383e+01, 3.459524515936034e+03
848, 1.499999999998930e-04, 2.999999999995678e-03, 8.701906432734055e-05, -9.382334982923452e-06, 5.313826243971562e+00, -5.172166349072276e+03, -8.191554848695080e+01, 5.180071581950237e+03
849, 1.999999999999481e-04, 2.999999999994151e-03, 8.703607972714551e-05, -1.200447503835500e-05, -4.194744876295545e+00, -6.897746341350793e+03, -2.570732329709621e+02, 6.912698474669400e+03
850, -2.000000000000263e-04, 2.900000000006043e-03, 8.238318343776875e-05, 8.792504404981075e-06, 2.493866499692035e+01, 7.155607792779999e+03, 4.735291095942071e+02, 7.193285861166024e+03
851, -1.500000000000711e-04, 2.900000000004594e-03, 8.222853245270653e-05, 6.240428585726904e-06, 2.560272112799930e+01, 5.370511602626291e+03, 4.670890568001598e+02, 5.425932150280648e+03
852, -1.000000000001252e-04, 2.900000000003146e-03, 8.209923485548120e-05, 3.690614898792205e-06, 2.537597587329026e+01, 3.585951974859573e+03, 4.365406242468603e+02, 3.666056779569640e+03
853, -5.000000000018052e-05, 2.900000000001698e-03, 8.199529137519381e-05, 1.141878606635421e-06, 2.409330930078761e+01, 1.802258060705582e+03, 3.818112649506837e+02, 1.935197470882865e+03
854, -2.692480570096190e-16, 2.900000000000249e-03, 8.191669523287547e-05, -1.406967246642354e-06, 2.158705301694010e+01, 1.976247794006008e+01, 3.028282471667360e+02, 6.056592426459965e+02
855, 4.999999999975274e-05, 2.899999999998802e-03, 8.186343209324382e-05, -3.957111844341239e-06, 1.768715094110735e+01, -1.761198538058016e+03, 1.995186805156589e+02, 1.823092183633270e+03
856, 9.999999999980604e-05, 2.899999999997354e-03, 8.183548001638090e-05, -6.509746606131473e-06, 1.222115447449261e+01, -3.540285110880481e+03, 7.180955165483496e+01, 3.555408163941493e+03
857, 1.499999999998886e-04, 2.899999999995905e-03, 8.183280940920764e-05, -9.066065196551490e-06, 5.014213482542743e+00, -5.317153699287206e+03, -8.037223523307961e+01, 5.324594827449442e+03
858, 1.999999999999462e-04, 2.899999999994458e-03, 8.185538297674245e-05, -1.162726353298626e-05, -4.111049546672064e+00, -7.091457166436012e+03, -2.570998147136940e+02, 7.105974686099697e+03
859, -2.000000000000283e-04, 2.800000000005697e-03, 7.730064632263936e-05, 8.668453248012517e-06, 2.421893226106283e+01, 7.352290586499955e+03, 4.758271817720895e+02, 7.389606227486834e+03
860, -1.500000000000755e-04, 2.800000000004316e-03, 7.714672304958453e-05, 6.179039596954524e-06, 2.467508771793553e+01, 5.518341414711717e+03, 4.703431226889970e+02, 5.573621831860204e+03
861, -1.000000000001328e-04, 2.800000000002934e-03, 7.701884018174673e-05, 3.691933586893368e-06, 2.432920608940719e+01, 3.684848499865669e+03, 4.404248351209099e+02, 3.765009646956218e+03
862, -5.000000000019071e-05, 2.800000000001552e-03, 7.691700149627586e-05, 1.205934419088121e-06, 2.301609650297928e+01, 1.852140495961263e+03, 3.859950882515724e+02, 1.985362662414851e+03
863, -2.820416426449479e-16, 2.800000000000171e-03, 7.684120327149173e-05, -1.280161040627009e-06, 2.056825546173764e+01, 2.054982625677377e+01, 3.069764628130036e+02, 6.139529259026048e+02
864, 4.999999999974258e-05, 2.799999999998790e-03, 7.679143423777080e-05, -3.767558271895520e-06, 1.681574415847729e+01, -1.809587365223003e+03, 2.032913471902214e+02, 1.871111382394965e+03
865, 9.999999999979847e-05, 2.799999999997408e-03, 7.676767552799749e-05, -6.257465109642708e-06, 1.158615982867809e+01, -3.637931202178147e+03, 7.486197385628566e+01, 3.652587334494261e+03
866, 1.499999999998843e-04, 2.799999999996027e-03, 7.676990062772306e-05, -8.751091753645580e-06, 4.704602595567053e+00, -5.464138069742791e+03, -7.838954093737155e+01, 5.471089457804766e+03
867, 1.999999999999443e-04, 2.799999999994645e-03, 7.679807532490096e-05, -1.124965077749023e-05, -4.006266516364576e+00, -7.287860518700895e+03, -2.565411804898678e+02, 7.301902921582510e+03
868, -2.000000000000301e-04, 2.700000000005420e-03, 7.234485068062104e-05, 8.531171204745586e-06, 2.343127480234853e+01, 7.551689641396242e+03, 4.775048783866404e+02, 7.588591283612732e+03
869, -1.500000000000799e-04, 2.700000000004097e-03, 7.219162630948598e-05, 6.106125598809813e-06, 2.367060962033258e+01, 5.668231424900792e+03, 4.731314078541709e+02, 5.723327713296862e+03
870, -1.000000000001404e-04, 2.700000000002773e-03, 7.206513832667368e-05, 3.683435328065383e-06, 2.320209616706620e+01, 3.785143429081351e+03, 4.439981023551590e+02, 3.865325322902179e+03
871, -5.000000000020087e-05, 2.700000000001450e-03, 7.196539373560440e-05, 1.261883540478777e-06, 2.186085778770496e+01, 1.902753996288132e+03, 3.900230395747657e+02, 2.036229575478792e+03
872, -2.948962146524792e-16, 2.700000000000125e-03, 7.189239205169517e-05, -1.159749070850237e-06, 1.947964808726726e+01, 2.139535386759258e+01, 3.111239844782879e+02, 6.222509178773627e+02
873, 4.999999999973239e-05, 2.699999999998801e-03, 7.184612525192094e-05, -3.582684279270722e-06, 1.588871612783339e+01, -1.858596455099630e+03, 2.072184704073682e+02, 1.919753274528664e+03
874, 9.999999999979085e-05, 2.699999999997478e-03, 7.182657772399973e-05, -6.008146335466470e-06, 1.091578816727088e+01, -3.736881550952041e+03, 7.822384197413167e+01, 3.751061286212552e+03
875, 1.499999999998800e-04, 2.699999999996155e-03, 7.183372621536467e-05, -8.437361977833823e-06, 4.386062483079172e+00, -5.613116191096907e+03, -7.594271029388671e+01, 5.619555209263750e+03
876, 1.999999999999424e-04, 2.699999999994831e-03, 7.186753978208716e-05, -1.087156044312318e-05, -3.877832951357050e+00, -7.486952787553277e+03, -2.553640893777228e+02, 7.500483587660556e+03
877, -2.000000000000321e-04, 2.600000000005380e-03, 6.751926913542036e-05, 8.380559430212147e-06, 2.257819256389212e+01, 7.753806565360803e+03, 4.785274913066273e+02, 7.790240457911735e+03
878, -1.500000000000841e-04, 2.600000000004088e-03, 6.736670934450236e-05, 6.021610556317961e-06, 2.259018883227679e+01, 5.820183300764491e+03, 4.754275612650999e+02, 5.875049902389406e+03
879, -1.000000000001480e-04, 2.600000000002797e-03, 6.724159086951253e-05, 3.665067016013369e-06, 2.199438915043174e+01, 3.886838512136897e+03, 4.472426866680336e+02, 3.967004433838609e+03
880, -5.000000000021105e-05, 2.600000000001504e-03, 6.714392412507490e-05, 1.309695914028830e-06, 2.062653192585014e+01, 1.954100386352446e+03, 3.938860112701024e+02, 2.087799297166354e+03
881, -3.077169053421203e-16, 2.600000000000212e-03, 6.707371204948915e-05, -1.045738222821644e-06, 1.831961874499348e+01, 2.230086760615370e+01, 3.152703526189574e+02, 6.305532739621779e+02
882, 4.999999999972220e-05, 2.599999999998920e-03, 6.703095005277773e-05, -3.402473458451187e-06, 1.490408014226796e+01, -1.908224174592280e+03, 2.113082601917403e+02, 1.969016761599400e+03
883, 9.999999999978321e-05, 2.599999999997628e-03, 6.701562596450028e-05, -5.761750459298792e-06, 1.020775960486412e+01, -3.837134929143716e+03, 8.191206258675408e+01, 3.850829015764790e+03
884, 1.499999999998756e-04, 2.599999999996335e-03, 6.702771998146592e-05, -8.124812505484277e-06, 4.055917250582070e+00, -5.764087614517482e+03, -7.300608394311294e+01, 5.769991278697792e+03
885, 1.999999999999405e-04, 2.599999999995043e-03, 6.706720461556500e-05, -1.049290550077118e-05, -3.728782352694452e+00, -7.688734470082295e+03, -2.535341845332968e+02, 7.701716091323035e+03
886, -2.000000000000340e-04, 2.500000000005436e-03, 6.282742210082589e-05, 8.216530373141548e-06, 2.165708345253825e+01, 7.958638996963303e+03, 4.788593769478282e+02, 7.994554841075294e+03
887, -1.500000000000885e-04, 2.500000000004174e-03, 6.267548672035898e-05, 5.925429716392301e-06, 2.143094338283822e+01, 5.974195764197735e+03, 4.772047388364070e+02, 6.028789800864110e+03
888, -1.000000000001556e-04, 2.500000000002911e-03, 6.255170651878983e-05, 3.636786817398457e-06, 2.070348759305864e+01, 3.989933731241651e+03, 4.501405123713799e+02, 4.070048482586729e+03
889, -5.000000000022121e-05, 2.500000000001650e-03, 6.245609550971181e-05, 1.349352749563532e-06, 1.931066778489810e+01, 2.006180519419742e+03, 3.975747383829572e+02, 2.140073479518070e+03
890, -3.205375960317614e-16, 2.500000000000388e-03, 6.238866024359458e-05, -9.381241191051416e-07, 1.708584659086409e+01, 2.326780685015643e+01, 3.194151457237008e+02, 6.388602021596114e+02
891, 4.999999999971200e-05, 2.499999999999127e-03, 6.234939975398871e-05, -3.226898139386664e-06, 1.385970799168945e+01, -1.958468727044642e+03, 2.155691636621959e+02, 2.018900619877298e+03
892, 9.999999999977564e-05, 2.499999999997865e-03, 6.233830550386278e-05, -5.518226393276823e-06, 9.460265911944475e+00, -3.938689365826049e+03, 8.594396932799299e+01, 3.951889545274293e+03
893, 1.499999999998713e-04, 2.499999999996604e-03, 6.235536133182488e-05, -7.813368705701974e-06, 3.712847723801247e+00, -5.917050339207200e+03, -6.955346682790852e+01, 5.922397103767060e+03
894, 1.999999999999386e-04, 2.499999999995341e-03, 6.240054339816734e-05, -1.011358765559573e-05, -3.559810263825739e+00, -7.893203716912944e+03, -2.510163044713735e+02, 7.905600401877609e+03
895, -2.000000000000358e-04, 2.400000000005491e-03, 5.827287764076202e-05, 8.039008386198488e-06, 2.066915097178867e+01, 8.166186934987336e+03, 4.784643184251098e+02, 8.201534757942416e+03
896, -1.500000000000929e-04, 2.400000000004260e-03, 5.812152036850459e-05, 5.817530215139122e-06, 2.019326514930958e+01, 6.130269727621229e+03, 4.784357101436558e+02, 6.184548269050540e+03
897, -1.000000000001632e-04, 2.400000000003029e-03, 5.799904105354269e-05, 3.598564778375558e-06, 1.932871099949739e+01, 4.094430358750381e+03, 4.526732757584882e+02, 4.174458745495714e+03
898, -5.000000000023145e-05, 2.400000000001797e-03, 5.790545750330166e-05, 1.380847130220417e-06, 1.791191031205085e+01, 2.058996057905283e+03, 4.010799073721355e+02, 2.193053776346343e+03
899, -3.333650629849805e-16, 2.400000000000566e-03, 5.784078007540808e-05, -8.368905121965833e-07, 1.577657670356496e+01, 2.429815894170616e+01, 3.235581025222219e+02, 6.471723110539913e+02
900, 4.999999999970184e-05, 2.399999999999334e-03, 5.780501162291842e-05, -3.055918781977103e-06, 1.275370662476405e+01, -2.009327877666263e+03, 2.200100341955236e+02, 2.069403680801735e+03
901, 9.999999999976805e-05, 2.399999999998102e-03, 5.779814743932160e-05, -5.277511175671058e-06, 8.671558811921273e+00, -4.041542447919086e+03, 9.033758691091951e+01, 4.054241854990349e+03
902, 1.499999999998670e-04, 2.399999999996872e-03, 5.782017520336848e-05, -7.502944065988896e-06, 3.355637006568145e+00, -6.072001781207910e+03, -6.555759719361234e+01, 6.076772083372298e+03
903, 1.999999999999366e-04, 2.399999999995640e-03, 5.787107492363465e-05, -9.733496713545125e-06, -3.371445530160599e+00, -8.100358006701042e+03, -2.477740659235973e+02, 8.112136544878858e+03
904, -2.000000000000378e-04, 2.300000000005451e-03, 5.385925154192919e-05, 7.847930378592889e-06, 1.961567171045783e+01, 8.376449819676907e+03, 4.773050065357485e+02, 8.411180491088899e+03
905, -1.500000000000972e-04, 2.300000000004251e-03, 5.370841962511858e-05, 5.697871721292599e-06, 1.887718878463181e+01, 6.288405293742995e+03, 4.790922602247388e+02, 6.342326090173209e+03
906, -1.000000000001708e-04, 2.300000000003051e-03, 5.358719734102890e-05, 3.550383461178233e-06, 1.786918645556295e+01, 4.200329177383142e+03, 4.548220203228786e+02, 4.280236425291513e+03
907, -5.000000000024163e-05, 2.300000000001851e-03, 5.349560648991932e-05, 1.404184642634930e-06, 1.642856439715661e+01, 2.112548252041615e+03, 4.043918246496848e+02, 2.246741804548246e+03
908, -3.461857536746216e-16, 2.300000000000652e-03, 5.343366143648318e-05, -7.420086598645460e-07, 1.438942140482277e+01, 2.539346186444527e+01, 3.276988286285635e+02, 6.554900289436656e+02
909, 4.999999999969163e-05, 2.299999999999453e-03, 5.340136905390315e-05, -2.889483356827851e-06, 1.158308160575098e+01, -2.060800015964353e+03, 2.246398170651006e+02, 2.120524438137516e+03
910, 9.999999999976044e-05, 2.299999999998253e-03, 5.339872866762414e-05, -5.039529357778075e-06, 7.838072917053182e+00, -4.145692748664002e+03, 9.511124889822108e+01, 4.157884424138279e+03
911, 1.499999999998626e-04, 2.299999999997052e-03, 5.342573199887006e-05, -7.193439584944111e-06, 2.980103646719272e+00, -6.228941026312790e+03, -6.099070532616187e+01, 6.233114826038466e+03
912, 1.999999999999347e-04, 2.299999999995853e-03, 5.348236310786664e-05, -9.352509986914938e-06, -3.167976784218126e+00, -8.310196845582997e+03, -2.437701441321858e+02, 8.321323462030379e+03
913, -2.000000000000396e-04, 2.200000000005174e-03, 4.959020735879783e-05, 7.643246445245665e-06, 1.849696934674967e+01, 8.589425818026779e+03, 4.753430425237984e+02, 8.623492642858735e+03
914, -1.500000000001016e-04, 2.200000000004032e-03, 4.943984126473977e-05, 5.566427078057142e-06, 1.748231854299115e+01, 6.448601789589917e+03, 4.791454857004812e+02, 6.502124209575474e+03
915, -1.000000000001784e-04, 2.200000000002889e-03, 4.931982535978197e-05, 3.492238587147517e-06, 1.632390590885643e+01, 4.307630548288678e+03, 4.565672428491011e+02, 4.387382737795337e+03
916, -5.000000000025179e-05, 2.200000000001748e-03, 4.923018563996846e-05, 1.419384019966193e-06, 1.485906441832594e+01, 2.166838270227428e+03, 4.075004519685642e+02, 2.301139060477031e+03
917, -3.590132206278407e-16, 2.200000000000606e-03, 4.917094068141795e-05, -6.534366833511235e-07, 1.292235997578382e+01, 2.655548494421453e+01, 3.318367838002145e+02, 6.638135780683355e+02
918, 4.999999999968146e-05, 2.199999999999464e-03, 4.914210158302771e-05, -2.727526705330976e-06, 1.034550568876193e+01, -2.112882950555702e+03, 2.294674992269276e+02, 2.172261588808330e+03
919, 9.999999999975283e-05, 2.199999999998322e-03, 4.914367190885708e-05, -4.804192366453014e-06, 6.957344226895884e+00, -4.251137822201542e+03, 1.002834883086472e+02, 4.262816153491801e+03
920, 1.499999999998582e-04, 2.199999999997180e-03, 4.917564763028356e-05, -6.884743139934021e-06, 2.583834294679832e+00, -6.387865530619831e+03, -5.582468635991870e+01, 6.391424619594993e+03
921, 1.999999999999328e-04, 2.199999999996038e-03, 4.923801706804812e-05, -8.970491665904168e-06, -2.951850023456473e+00, -8.522717976180587e+03, -2.389667541843299e+02, 8.533160919778558e+03
922, -2.000000000000416e-04, 2.100000000004828e-03, 4.546945639739340e-05, 7.424920545497668e-06, 1.731560191531480e+01, 8.805114166728763e+03, 4.725391881983795e+02, 8.838471403657426e+03
923, -1.500000000001059e-04, 2.100000000003754e-03, 4.531948949203662e-05, 5.423182970022527e-06, 1.600995278339747e+01, 6.610859432212011e+03, 4.785656650806683e+02, 6.663943280032947e+03
924, -1.000000000001860e-04, 2.100000000002678e-03, 4.520062219231509e-05, 3.424139703503746e-06, 1.469295508308335e+01, 4.416335398401620e+03, 4.578889109248033e+02, 4.495898710804636e+03
925, -5.000000000026199e-05, 2.100000000001603e-03, 4.511288489908787e-05, 1.426477808242701e-06, 1.320260987993470e+01, 2.221867722951255e+03, 4.103954888587081e+02, 2.356246890884031e+03
926, -3.718339113174818e-16, 2.100000000000528e-03, 4.505630061028590e-05, -5.711189000829150e-07, 1.137400436473695e+01, 2.778645838043860e+01, 3.359714566476080e+02, 6.721433235363420e+02
927, 4.999999999967128e-05, 2.099999999999452e-03, 4.503088486221813e-05, -2.569969869877014e-06, 9.039307610638730e+00, -2.165573904054361e+03, 2.345024090706343e+02, 2.224614155261017e+03
928, 9.999999999974523e-05, 2.099999999998377e-03, 4.503664567060453e-05, -4.571397829872330e-06, 6.027753535207353e+00, -4.357874404123586e+03, 1.058735267300959e+02, 4.369036376166734e+03
929, 1.499999999998539e-04, 2.099999999997302e-03, 4.507358347139754e-05, -6.576728804791579e-06, 2.165636509937144e+00, -6.548771574090817e+03, -5.003038028859868e+01, 6.551701343394772e+03
930, 1.999999999999309e-04, 2.099999999996226e-03, 4.514169106156105e-05, -8.587292130547313e-06, -2.723764761718598e+00, -8.737917474428663e+03, -2.333247996102862e+02, 8.747649455359860e+03
931, -2.000000000000435e-04, 2.000000000004496e-03, 4.150075778481150e-05, 7.192931177638423e-06, 1.607285878467724e+01, 9.023512517669618e+03, 4.688530493237093e+02, 9.056117376441951e+03
932, -1.500000000001103e-04, 2.000000000003499e-03, 4.135111598085989e-05, 5.268140602713159e-06, 1.446020207453262e+01, 6.775177079963036e+03, 4.773222960864351e+02, 6.827784340496658e+03
933, -1.000000000001936e-04, 2.000000000002501e-03, 4.123333204064708e-05, 3.346110859839422e-06, 1.297553309910518e+01, 4.526443723167340e+03, 4.587664466164138e+02, 4.605785678135929e+03
934, -5.000000000027220e-05, 2.000000000001505e-03, 4.114744098346757e-05, 1.425513041770730e-06, 1.145755893031537e+01, 2.277637505803535e+03, 4.130663575437346e+02, 2.412066917510396e+03
935, -3.846512138753339e-16, 2.000000000000507e-03, 4.109347044410462e-05, -4.949851497547816e-07, 9.741962120345647e+00, 2.908795603126282e+01, 3.401023276609473e+02, 6.804797135859221e+02
936, 4.999999999966107e-05, 1.999999999999510e-03, 4.107144061272613e-05, -2.416719421734061e-06, 7.661429261873536e+00, -2.218870859849807e+03, 2.397541494464463e+02, 2.277580787406686e+03
937, 9.999999999973761e-05, 1.999999999998513e-03, 4.108136417450647e-05, -4.341028907455264e-06, 5.045636939538781e+00, -4.465900297782116e+03, 1.119011510340334e+02, 4.476543870176530e+03
938, 1.499999999998495e-04, 1.999999999997515e-03, 4.112324624893628e-05, -6.269256183378469e-06, 1.721228947772147e+00, -6.711657105301130e+03, -4.357775116022330e+01, 6.713944052518407e+03
939, 1.999999999999290e-04, 1.999999999996517e-03, 4.119708432883498e-05, -8.202747284644874e-06, -2.488198314606393e+00, -8.955793377960805e+03, -2.268040268935105e+02, 8.964788558930988e+03
940, -2.000000000000454e-04, 1.900000000004165e-03, 3.768791845158166e-05, 6.947272078147215e-06, 1.477139300969691e+01, 9.244618970193407e+03, 4.642432867746003e+02, 9.276431081795690e+03
941, -1.500000000001146e-04, 1.900000000003247e-03, 3.753851986302743e-05, 5.101316393779876e-06, 1.283409751992610e+01, 6.941553869090540e+03, 4.753841242520638e+02, 6.993648399463412e+03
942, -1.000000000002012e-04, 1.900000000002328e-03, 3.742174621671552e-05, 3.258191299274412e-06, 1.117138521154038e+01, 4.637955679926266e+03, 4.591787498969277e+02, 4.717044986773653e+03
943, -5.000000000028235e-05, 1.900000000001409e-03, 3.733763736927400e-05, 1.416551931906482e-06, 9.622575407065256e+00, 2.334148682328808e+03, 4.155021593966421e+02, 2.468600777690440e+03
944, -3.974685164331859e-16, 1.900000000000491e-03, 3.728622581252077e-05, -4.249501084722777e-07, 8.023987784517431e+00, 3.046179421959607e+01, 3.442287638436765e+02, 6.888230705972329e+02
945, 4.999999999965091e-05, 1.899999999999572e-03, 3.726753661210836e-05, -2.267666779150718e-06, 6.208884848054140e+00, -2.272771412252177e+03, 2.452324089711755e+02, 2.331159997128100e+03
946, 9.999999999973007e-05, 1.899999999998654e-03, 3.728158734570319e-05, -4.112953613401694e-06, 4.007438568771136e+00, -4.575212681959482e+03, 1.183864216835173e+02, 4.585337314920997e+03
947, 1.499999999998452e-04, 1.899999999997735e-03, 3.732838804075055e-05, -5.962169738748312e-06, 1.246695165798201e+00, -6.876519046399397e+03, -3.643634695079012e+01, 6.878151788479540e+03
948, 1.999999999999271e-04, 1.899999999996817e-03, 3.740794111168795e-05, -7.816677894935296e-06, -2.249411661910699e+00, -9.176342749254040e+03, -2.193634488605473e+02, 9.184577826859340e+03
949, -2.000000000000473e-04, 1.800000000003828e-03, 3.403479315682842e-05, 6.687952935666443e-06, 1.341340229372781e+01, 9.468430430863988e+03, 4.586674891362955e+02, 9.499413164660011e+03
950, -1.500000000001189e-04, 1.800000000002982e-03, 3.388554774062740e-05, 4.922742691630758e-06, 1.113278324720079e+01, 7.109988396994204e+03, 4.727191160066678e+02, 7.161536460521572e+03
951, -1.000000000002088e-04, 1.800000000002135e-03, 3.376970314460598e-05, 3.160436173507750e-06, 9.280448519736751e+00, 4.750871175270423e+03, 4.591041569468574e+02, 4.829677952794746e+03
952, -5.000000000029254e-05, 1.800000000001289e-03, 3.368730428639348e-05, 1.399672580261777e-06, 7.696517667586932e+00, 2.391402274035510e+03, 4.176916803442115e+02, 2.525850053399184e+03
953, -4.102858189910380e-16, 1.800000000000442e-03, 3.363838874031655e-05, -3.609125771669659e-07, 6.218055133022972e+00, 3.190996688959171e+01, 3.483500664499254e+02, 6.971736867613241e+02
954, 4.999999999964072e-05, 1.799999999999596e-03, 3.362298667463587e-05, -2.122687496694661e-06, 4.678992945032974e+00, -2.327272717135839e+03, 2.509470739270437e+02, 2.385350396440590e+03
955, 9.999999999972246e-05, 1.799999999998750e-03, 3.364112078839511e-05, -3.887024105575016e-06, 2.910103853263763e+00, -4.685807955933401e+03, 1.253498808452562e+02, 4.695415574225704e+03
956, 1.499999999998409e-04, 1.799999999997903e-03, 3.369280624782187e-05, -5.655298080396294e-06, 7.389824506425384e-01, -7.043353086272880e+03, -2.857487114893723e+01, 7.044323896989573e+03
957, 1.999999999999252e-04, 1.799999999997057e-03, 3.377805062235417e-05, -7.428888866333188e-06, -2.010069845592056e+00, -9.399560632715144e+03, -2.109610467991365e+02, 9.407017318723092e+03
958, -2.000000000000492e-04, 1.700000000003484e-03, 3.054528449018799e-05, 6.415000133372526e-06, 1.200247594802784e+01, 9.694944064601883e+03, 4.520823427135987e+02, 9.725064091699143e+03
959, -1.500000000001233e-04, 1.700000000002704e-03, 3.039609368294208e-05, 4.732468510068158e-06, 9.358078595443885e+00, 7.280479201439753e+03, 4.692943938025827e+02, 7.331449467553522e+03
960, -1.000000000002164e-04, 1.700000000001925e-03, 3.028108834974812e-05, 3.052917276212190e-06, 7.302957357279524e+00, 4.865189939131033e+03, 4.585204268852239e+02, 4.943685857249724e+03
961, -5.000000000030273e-05, 1.700000000001145e-03, 3.020031869861006e-05, 1.374969709883481e-06, 5.678234881179151e+00, 2.449399066184552e+03, 4.196233726781738e+02, 2.583816286220301e+03
962, -4.231031215488901e-16, 1.700000000000365e-03, 3.015382761709743e-05, -3.027547524530289e-07, 4.321778225296839e+00, 3.343413784439576e+01, 3.524654446395615e+02, 7.055317768481069e+02
963, 4.999999999963053e-05, 1.699999999999585e-03, 3.014165060822504e-05, -1.981640538477901e-06, 3.068251164359140e+00, -2.382372432777285e+03, 2.569081754879171e+02, 2.440150507475737e+03
964, 9.999999999971485e-05, 1.699999999998805e-03, 3.016381572604820e-05, -3.663075961906173e-06, 1.749083778585486e+00, -4.797683345901916e+03, 1.328124571015698e+02, 4.806777323957737e+03
965, 1.499999999998365e-04, 1.699999999998025e-03, 3.022034351091169e-05, -5.348453244132675e-06, 1.924332524121155e-01, -7.212156385631641e+03, -1.996142335849413e+01, 7.212459311424100e+03
966, 1.999999999999232e-04, 1.699999999997246e-03, 3.031124692412769e-05, -7.039168535591243e-06, -1.776763242498873e+00, -9.625444301007101e+03, -2.015537521254393e+02, 9.632106339602340e+03
967, -2.000000000000511e-04, 1.600000000003144e-03, 2.722334289748773e-05, 6.128457497822797e-06, 1.054208174700898e+01, 9.924156096418992e+03, 4.444433610247261e+02, 9.953384471451736e+03
968, -1.500000000001277e-04, 1.600000000002436e-03, 2.707409923605697e-05, 4.530560279231718e-06, 7.511636051974733e+00, 7.453024030898979e+03, 4.650763507430730e+02, 7.503388492534711e+03
969, -1.000000000002240e-04, 1.600000000001727e-03, 2.695983445685765e-05, 2.935723792784627e-06, 5.239235870178504e+00, 4.980911316849566e+03, 4.574048245264718e+02, 5.059070008552770e+03
970, -5.000000000031292e-05, 1.600000000001018e-03, 2.688060429308602e-05, 1.342555414932626e-06, 3.566853892066092e+00, 2.508139784726937e+03, 4.212854379826443e+02, 2.642500945486243e+03
971, -4.359339766338982e-16, 1.600000000000309e-03, 2.683645718169568e-05, -2.503414774762509e-07, 2.333259769518008e+00, 3.503625159296234e+01, 3.565740910394316e+02, 7.138976224057561e+02
972, 4.999999999962034e-05, 1.599999999999600e-03, 2.682743419788695e-05, -1.844367530162672e-06, 1.373965750713410e+00, -2.438067493631063e+03, 2.631259582000745e+02, 2.495559198509528e+03
973, 9.999999999970728e-05, 1.599999999998891e-03, 2.685356898973471e-05, -3.440927434457204e-06, 5.211849472466383e-01, -4.910834694988364e+03, 1.407955189215012e+02, 4.919421723330050e+03
974, 1.499999999998322e-04, 1.599999999998182e-03, 2.691488771268539e-05, -5.041429950424060e-06, -3.962125442459410e-01, -7.382923621415716e+03, -1.056341896880087e+01, 7.382557638516597e+03
975, 1.999999999999214e-04, 1.599999999997473e-03, 2.701140896381322e-05, -6.647287930198634e-06, -1.552760302177603e+00, -9.853987548216215e+03, -1.910976810203655e+02, 9.859845056838578e+03
976, -2.000000000000531e-04, 1.500000000002802e-03, 2.407296664974833e-05, 5.828387074979781e-06, 9.036587764352589e+00, 1.015606250113042e+04, 4.357050785109743e+02, 1.018437482363465e+04
977, -1.500000000001320e-04, 1.500000000002160e-03, 2.392355339255374e-05, 4.317102616339383e-06, 5.596151804963483e+00, 7.627620780380171e+03, 4.600306348269635e+02, 7.677354503898086e+03
978, -1.000000000002316e-04, 1.500000000001518e-03, 2.380992115520258e-05, 2.808963070486038e-06, 3.090224418873390e+00, 5.098034688554883e+03, 4.557341584114061e+02, 5.175831680532317e+03
979, -5.000000000032311e-05, 1.500000000000877e-03, 2.373213143758169e-05, 1.302559930565835e-06, 1.361742838981968e+00, 2.567625075506206e+03, 4.226658939389869e+02, 2.701905498752548e+03
980, -4.487512791917503e-16, 1.500000000000236e-03, 2.369023846823620e-05, -2.035194715633493e-07, 2.504481380756260e-01, 3.671801190743167e+01, 3.606752756653374e+02, 7.222717640281534e+02
981, 4.999999999961016e-05, 1.499999999999595e-03, 2.368428913718892e-05, -1.710691988567708e-06, -4.071831729700079e-01, -2.494355275776738e+03, 2.696109921316093e+02, 2.551575481328102e+03
982, 9.999999999969963e-05, 1.499999999998952e-03, 2.371432292949133e-05, -3.220378680257261e-06, -7.780254817899959e-01, -5.025258533564930e+03, 1.493210149401941e+02, 5.033347935332753e+03
983, 1.499999999998278e-04, 1.499999999998311e-03, 2.378037186008415e-05, -4.734004837025090e-06, -1.032398039643908e+00, -7.555650590308741e+03, -3.474038557621952e-01, 7.554618224220266e+03
984, 1.999999999999195e-04, 1.499999999997670e-03, 2.388246040871373e-05, -6.253000004833265e-06, -1.344158307351563e+00, -1.008518537313201e+04, -1.795477685839543e+02, 1.009023306225433e+04
985, -2.000000000000549e-04, 1.400000000002461e-03, 2.109820185977724e-05, 5.514869920492820e-06, 7.490892022411117e+00, 1.039065879125841e+04, 4.258209022033211e+02, 1.041803577392293e+04
986, -1.500000000001364e-04, 1.400000000001890e-03, 2.094849259154237e-05, 4.092199114468425e-06, 3.614558582316363e+00, 7.804266930802693e+03, 4.541219989843166e+02, 7.853348622853402e+03
987, -1.000000000002392e-04, 1.400000000001320e-03, 2.083537518431441e-05, 2.672761403401556e-06, 8.570398917534021e-01, 5.216559237483063e+03, 4.534846624717827e+02, 5.293972305400492e+03
988, -5.000000000033329e-05, 1.400000000000748e-03, 2.075891715328988e-05, 1.255132417042358e-06, -9.376099633213926e-01, 2.627855543807181e+03, 4.237525026692648e+02, 2.762031531207514e+03
989, -4.615719698813914e-16, 1.400000000000178e-03, 2.071917876834303e-05, -1.621165456997555e-07, -1.928603704442139e+00, 3.848122987765544e+01, 3.647682891747733e+02, 7.306548937768753e+02
990, 4.999999999959998e-05, 1.399999999999606e-03, 2.071621298236109e-05, -1.580418537813493e-06, -2.278426386495653e+00, -2.551232891055119e+03, 2.763740854426330e+02, 2.608198497693593e+03
991, 9.999999999969204e-05, 1.399999999999035e-03, 2.075006536385441e-05, -3.001210981860844e-06, -2.152931199240129e+00, -5.140950917921014e+03, 1.584113033397762e+02, 5.148555264580444e+03
992, 1.499999999998235e-04, 1.399999999998463e-03, 2.082077403319005e-05, -4.425935689340506e-06, -1.721470917096212e+00, -7.730332205867175e+03, 1.072063290528695e+01, 7.728640476841005e+03
993, 1.999999999999176e-04, 1.399999999997893e-03, 2.092836960205292e-05, -5.856038886691850e-06, -1.156968483491255e+00, -1.031903144270491e+04, -1.668580833410687e+02, 1.032326983788058e+04
994, -2.000000000000568e-04, 1.300000000002126e-03, 1.830314249034763e-05, 5.188006902703671e-06, 5.909994752184502e+00, 1.062793957088840e+04, 4.147431527975720e+02, 1.065436811113087e+04
995, -1.500000000001407e-04, 1.300000000001629e-03, 1.815300071589338e-05, 3.855973140717705e-06, 1.569318350481467e+00, 7.982958760980642e+03, 4.473143530706266e+02, 8.031372109221445e+03
996, -1.000000000002468e-04, 1.300000000001133e-03, 1.804027032001735e-05, 2.527264828778893e-06, -1.459906997300209e+00, 5.336482993229794e+03, 4.506319498943546e+02, 5.413493421363621e+03
997, -5.000000000034346e-05, 1.300000000000637e-03, 1.796502508949432e-05, 1.200441755553192e-06, -3.332266670847616e+00, 2.688831202931645e+03, 4.245326632534083e+02, 2.822880811465170e+03
998, -4.743892724392434e-16, 1.300000000000140e-03, 1.792733159117075e-05, -1.259408053738850e-07, -4.205929213425634e+00, 4.032806086170513e+01, 3.688523629260352e+02, 7.390477243158862e+02
999, 4.999999999958981e-05, 1.299999999999644e-03, 1.792724909563847e-05, -1.453332110115821e-06, -4.242661562022477e+00, -2.608696306313584e+03, 2.834263356302258e+02, 2.665426933640238e+03
1000, 9.999999999968445e-05, 1.299999999999148e-03, 1.796482950537213e-05, -2.783185947233449e-06, -3.607559471383070e+00, -5.257906542878543e+03, 1.680893602621162e+02, 5.265042634126225e+03
1001, 1.499999999998191e-04, 1.299999999998652e-03, 1.804011729581454e-05, -4.116960642984147e-06, -2.468825485863363e+00, -7.906962335159291e+03, 2.267561252560145e+01, 7.904623607616178e+03
1002, 1.999999999999157e-04, 1.299999999998155e-03, 1.815314946043413e-05, -5.456119082999303e-06, -9.979788859379823e-01, -1.055551883563986e+04, -1.529816405349766e+02, 1.055895468524307e+04
1003, -2.000000000000587e-04, 1.200000000001781e-03, 1.569193031726567e-05, 4.847919534513355e-06, 4.300363210007731e+00, 1.086789921419377e+04, 4.024233935092383e+02, 1.089337222101905e+04
1004, -1.500000000001450e-04, 1.200000000001350e-03, 1.554120906491316e-05, 3.608568674256131e-06, -5.378299814854017e-01, 8.163689316640069e+03, 4.395708727606137e+02, 8.211424669955295e+03
1005, -1.000000000002543e-04, 1.200000000000919e-03, 1.542872736619538e-05, 2.372639963590949e-06, -3.862429604446902e+00, 5.457799307212339e+03, 4.471505365055301e+02, 5.534394577241243e+03
1006, -5.000000000035367e-05, 1.200000000000488e-03, 1.535456552500695e-05, 1.138677368479818e-06, -5.825180049332630e+00, 2.750549287824037e+03, 4.249923626429099e+02, 2.884453889450032e+03
1007, -4.872353741173022e-16, 1.200000000000057e-03, 1.531879665371950e-05, -9.477985680700977e-08, -6.583927963740734e+00, 4.226192346425626e+01, 3.729255706092854e+02, 7.474488892618481e+02
1008, 4.999999999957962e-05, 1.199999999999626e-03, 1.532148659450195e-05, -1.329197172006227e-06, -6.301645955377126e+00, -2.666736610322456e+03, 2.907785667786756e+02, 2.723255937149189e+03
1009, 9.999999999967686e-05, 1.199999999999196e-03, 1.536269385616209e-05, -2.566044736476575e-06, -5.144559460635833e+00, -5.376114474225680e+03, 1.783790821518329e+02, 5.382805422185402e+03
1010, 1.499999999998148e-04, 1.199999999998765e-03, 1.544246954105184e-05, -3.806797394790924e-06, -3.280296411433937e+00, -8.085532168201080e+03, 3.555420249026784e+01, 8.082564674922565e+03
1011, 1.999999999999137e-04, 1.199999999998334e-03, 1.556085729062786e-05, -5.052934682028254e-06, -8.769667890055644e-01, -1.079464202966114e+04, -1.378695332024085e+02, 1.079728652325300e+04
1012, -2.000000000000607e-04, 1.100000000001707e-03, 1.326875485939837e-05, 4.494750840359506e-06, 2.672804841394736e+00, 1.111053422226449e+04, 3.888139759723713e+02, 1.113504784454572e+04
1013, -1.500000000001494e-04, 1.100000000001301e-03, 1.311729632732913e-05, 3.350151265746883e-06, -2.707655373238481e+00, 8.346440813065208e+03, 4.308548444045462e+02, 8.393498897111713e+03
1014, -1.000000000002619e-04, 1.100000000000895e-03, 1.300491421845595e-05, 2.209074995950896e-06, -6.357914991581424e+00, 5.580485905545764e+03, 4.430122596557954e+02, 5.656665389069575e+03
1015, -5.000000000036384e-05, 1.100000000000489e-03, 1.293169551838222e-05, 1.070050129527652e-06, -8.424290733841985e+00, 2.812997012131458e+03, 4.251123245654049e+02, 2.946743986547141e+03
1016, -5.000628410705213e-16, 1.100000000000083e-03, 1.289772002782722e-05, -6.840004980660099e-08, -9.066092281403826e+00, 4.428957159277581e+01, 3.769803580146929e+02, 7.558462728511655e+02
1017, 4.999999999956943e-05, 1.099999999999677e-03, 1.290306040443265e-05, -1.207757099207240e-06, -8.454128729608101e+00, -2.725329177721725e+03, 2.984387184593654e+02, 2.781667253022652e+03
1018, 9.999999999966927e-05, 1.099999999999272e-03, 1.294778209732903e-05, -2.349507461848313e-06, -6.762631921940851e+00, -5.495545199097294e+03, 1.893057370091722e+02, 5.501825216960860e+03
1019, 1.499999999998105e-04, 1.099999999998866e-03, 1.303194324857456e-05, -3.495142503119551e-06, -4.160770810025610e+00, -8.266022899174706e+03, 4.939773735562048e+01, 8.262452806154479e+03
1020, 1.999999999999118e-04, 1.099999999998460e-03, 1.315559450015017e-05, -4.646158510266216e-06, -8.105624257545969e-01, -1.103640228172369e+04, -1.214682437399609e+02, 1.103826538600999e+04
1021, -2.000000000000626e-04, 1.000000000002109e-03, 1.103785327553933e-05, 4.128666214163272e-06, 1.046804479534899e+00, 1.135584883320385e+04, 3.738727211366758e+02, 1.137939595751736e+04
1022, -1.500000000001537e-04, 1.000000000001674e-03, 1.088548857366090e-05, 3.080909331557197e-06, -4.940973403315525e+00, 8.531173866186706e+03, 4.211324264264086e+02, 8.577567641063530e+03
1023, -1.000000000002696e-04, 1.000000000001239e-03, 1.077304613547090e-05, 2.036781129891958e-06, -8.959825553788846e+00, 5.704486083308006e+03, 4.381829596484636e+02, 5.780266549043800e+03
1024, -5.000000000037402e-05, 1.000000000000804e-03, 1.070061940014952e-05, 9.947935579602167e-07, -1.114304127636706e+01, 2.876140497761029e+03, 4.248583091942278e+02, 3.009721675896597e+03
1025, -5.128852258260569e-16, 1.000000000000369e-03, 1.066829469340608e-05, -4.654581883563556e-08, -1.165897956587946e+01, 4.642441463109571e+01, 3.809923194991545e+02, 7.641951784399222e+02
1026, 4.999999999955924e-05, 9.999999999999337e-04, 1.067615157382907e-05, -1.088734002594219e-06, -1.069899406458592e+01, -2.784416990485501e+03, 3.064044350028814e+02, 2.840606666687064e+03
1027, 9.999999999966167e-05, 9.999999999994987e-04, 1.072426304599347e-05, -2.133273129884885e-06, -8.458785487831506e+00, -5.616129094143106e+03, 2.008965174184401e+02, 5.622046240775450e+03
1028, 1.499999999998061e-04, 9.999999999990637e-04, 1.081269509499052e-05, -3.181670998184607e-06, -5.118779817014342e+00, -8.448396708714603e+03, 6.425907558601324e+01, 8.444255982606750e+03
1029, 1.999999999999099e-04, 9.999999999986283e-04, 1.094150612463478e-05, -4.235441149481528e-06, -8.288511975566735e-01, -1.128082010716944e+04, -1.037123601492877e+02, 1.128189823342655e+04
1030, -2.000000000000644e-04, 9.000000000025380e-04, 9.003510663901615e-06, 3.749854147296752e-06, -5.486962092268186e-01, 1.160386547311552e+04, 3.575688118891479e+02, 1.162642894590460e+04
1031, -1.500000000001581e-04, 9.000000000020734e-04, 8.850059675444809e-06, 2.801056015052214e-06, -7.223661688718266e+00, 8.717832967116507e+03, 4.103758112187893e+02, 8.763574978374518e+03
1032, -1.000000000002772e-04, 9.000000000016087e-04, 8.737386401434086e-06, 1.855994894397972e-06, -1.165063040737800e+01, 5.829732891385052e+03, 4.326170007945807e+02, 5.905115691176095e+03
1033, -5.000000000038420e-05, 9.000000000011442e-04, 8.665589775530416e-06, 9.131655334766039e-07, -1.397529873746248e+01, 2.939944217314992e+03, 4.241698104505136e+02, 3.073324034283736e+03
1034, -5.256991402521199e-16, 9.000000000006796e-04, 8.634761483291451e-06, -2.893919278527295e-08, -1.437478488422812e+01, 4.869072734995473e+01, 3.849060320899707e+02, 7.723910104282299e+02
1035, 4.999999999954906e-05, 9.000000000002148e-04, 8.644988029718945e-06, -9.718293760142602e-07, -1.306518151097214e+01, -2.843923101276121e+03, 3.146543503180694e+02, 2.899963103660701e+03
1036, 9.999999999965402e-05, 8.999999999997502e-04, 8.696350883727475e-06, -1.917020627930462e-06, -1.027004446517822e+01, -5.737777964365288e+03, 2.131797504689376e+02, 5.743355238582973e+03
1037, 1.499999999998018e-04, 8.999999999992857e-04, 8.788925864372411e-06, -2.866036560537537e-06, -6.184815504951416e+00, -8.632605646110937e+03, 8.021132525466589e+01, 8.627912364732809e+03
1038, 1.999999999999080e-04, 8.999999999988212e-04, 8.922780679365481e-06, -3.820409603317862e-06, -9.787104485795908e-01, -1.152795705300680e+04, -8.451469774043201e+01, 1.152821758323215e+04
1039, -2.000000000000664e-04, 8.000000000027327e-04, 7.170063222213470e-06, 3.358526365065162e-06, -2.169996046953429e+00, 1.185455511085370e+04, 3.398615104995212e+02, 1.187619272519120e+04
1040, -1.500000000001624e-04, 8.000000000022627e-04, 7.015333649179861e-06, 2.510830941940266e-06, -9.435419104578727e+00, 8.906523218301481e+03, 3.985387997325264e+02, 8.951516694030386e+03
1041, -1.000000000002848e-04, 8.000000000017928e-04, 6.902247688531136e-06, 1.666980053616036e-06, -1.421333174356971e+01, 5.956446428501362e+03, 4.262594393522130e+02, 6.031215997720155e+03
1042, -5.000000000039436e-05, 8.000000000013229e-04, 6.830907239318477e-06, 8.254496517672913e-07, -1.674673502921200e+01, 3.004617766301783e+03, 4.229897028270432e+02, 3.137566669362411e+03
1043, -5.385198309417610e-16, 8.000000000008525e-04, 6.801408487283649e-06, -1.527947132688531e-08, -1.722882047937367e+01, 5.112679865202665e+01, 3.886825888585765e+02, 7.803647289531082e+02
1044, 4.999999999953886e-05, 8.000000000003829e-04, 6.813844134320439e-06, -8.567246734905752e-07, -1.575940636987548e+01, -2.903994492101558e+03, 3.231765656897691e+02, 2.959674691734826e+03
1045, 9.999999999964645e-05, 7.999999999999128e-04, 6.868306255734836e-06, -1.700409509458987e-06, -1.244540643160008e+01, -5.860684333118145e+03, 2.261865837854326e+02, 5.865708825568304e+03
1046, 1.499999999997974e-04, 7.999999999994429e-04, 6.964882513675823e-06, -2.547871578998041e-06, -7.507416742820737e+00, -8.818774608394191e+03, 9.732562055112518e+01, 8.813416966667040e+03
1047, 1.999999999999061e-04, 7.999999999989728e-04, 7.103653191131762e-06, -3.400665051144257e-06, -1.228433295902164e+00, -1.177785740608351e+04, -6.378310664853012e+01, 1.177731986071005e+04
1048, -2.000000000000683e-04, 7.000000000024487e-04, 5.541911812107989e-06, 2.954917978242866e-06, -4.269924614277443e+00, 1.210754883776246e+04, 3.205232960423191e+02, 1.212877135021864e+04
1049, -1.500000000001667e-04, 7.000000000020254e-04, 5.385694966230650e-06, 2.210495002979647e-06, -1.124906822615151e+01, 9.098127582978474e+03, 3.854026112660518e+02, 9.141929974824505e+03
1050, -1.000000000002923e-04, 7.000000000016023e-04, 5.271991706367649e-06, 1.470018880393264e-06, -1.567640378471640e+01, 6.086504507075728e+03, 4.190743762102171e+02, 6.159472802119799e+03
1051, -5.000000000040459e-05, 7.000000000011791e-04, 5.200910981845886e-06, 7.319482814471846e-07, -1.864023583723565e+01, 3.071697463755698e+03, 4.215474389188299e+02, 3.203278956095058e+03
1052, -5.513337453678241e-16, 7.000000000007558e-04, 5.172556127564301e-06, -5.242779626098925e-09, -2.021882326748744e+01, 5.377939809883287e+01, 3.926680571251567e+02, 7.888146481342498e+02
1053, 4.999999999952868e-05, 7.000000000003326e-04, 5.187031760658768e-06, -7.430734022481956e-07, -1.960901863789468e+01, -2.966098283250241e+03, 3.322360737843214e+02, 3.020483772737455e+03
1054, 9.999999999963887e-05, 6.999999999999092e-04, 5.244436765266048e-06, -1.483069961239068e-06, -1.600005069585779e+01, -5.986716130400655e+03, 2.399566840555034e+02, 5.989972232434561e+03
1055, 1.499999999997930e-04, 6.999999999994860e-04, 5.344869569986213e-06, -2.226780104107590e-06, -9.462863327963873e+00, -9.007833707691418e+03, 1.155004806893932e+02, 9.001335417417140e+03
1056, 1.999999999999042e-04, 6.999999999990628e-04, 5.488419975799891e-06, -2.975780208335073e-06, -1.151532336880223e+00, -1.203025969466247e+04, -4.159866725903862e+01, 1.202939586917809e+04
1057, -2.000000000000702e-04, 6.000000000020976e-04, 4.123562451841395e-06, 2.539290275334568e-06, -9.030891393719457e+00, 1.236060405806305e+04, 2.984472498805660e+02, 1.238402809374508e+04
1058, -1.500000000001711e-04, 6.000000000017323e-04, 3.965612921256741e-06, 1.900295308036377e-06, -1.167699345117114e+01, 9.296568007131315e+03, 3.699259447716939e+02, 9.337601716143699e+03
1059, -1.000000000003000e-04, 6.000000000013669e-04, 3.851021414609326e-06, 1.265350449476635e-06, -1.336046227947634e+01, 6.227299606022627e+03, 4.112205800661218e+02, 6.294620524700443e+03
1060, -5.000000000041474e-05, 6.000000000010013e-04, 3.779926512363139e-06, 6.329354553380001e-07, -1.741560431252901e+01, 3.146960012247879e+03, 4.213980253293814e+02, 3.274687500462918e+03
1061, -5.641662945187267e-16, 6.000000000006360e-04, 3.752493283684989e-06, 1.519278270085840e-09, -2.326060080589230e+01, 5.667189744192376e+01, 3.990909979149091e+02, 8.021743593153604e+02
1062, 4.999999999951849e-05, 6.000000000002706e-04, 3.768850394338188e-06, -6.304511691507448e-07, -2.675272156855408e+01, -3.036007641024295e+03, 3.433692164160170e+02, 3.086620294982390e+03
1063, 9.999999999963128e-05, 5.999999999999052e-04, 3.829093401050907e-06, -1.264538341435398e-06, -2.362294971877657e+01, -6.123329857185350e+03, 2.546420487737848e+02, 6.120930864583447e+03
1064, 1.499999999997888e-04, 5.999999999995398e-04, 3.933278546497621e-06, -1.902299971075834e-06, -1.312829112004442e+01, -9.203820172476087e+03, 1.337453950748923e+02, 9.194583654567445e+03
1065, 1.999999999999023e-04, 5.999999999991742e-04, 4.081484167056266e-06, -2.545298854555632e-06, 1.408133630787688e+00, -1.228304131447199e+04, -1.893422432224409e+01, 1.228450781522790e+04
1066, -2.000000000000721e-04, 5.000000000017480e-04, 2.919692441243755e-06, 2.111963498424468e-06, -2.007783888994982e+01, 1.260930430090985e+04, 2.697854076377002e+02, 1.264090304914135e+04
1067, -1.500000000001754e-04, 5.000000000014432e-04, 2.759689322458604e-06, 1.580330133681624e-06, -9.048170210989383e+00, 9.513418550208951e+03, 3.489865319485359e+02, 9.548012297825720e+03
1068, -1.000000000003076e-04, 5.000000000011384e-04, 2.643715937120379e-06, 1.052948410678195e-06, -4.764961686861511e+00, 6.396135046562567e+03, 4.035613562522212e+02, 6.451586470678981e+03
1069, -5.000000000042491e-05, 5.000000000008338e-04, 2.572122908142425e-06, 5.284904475360309e-07, -1.113757808962146e+01, 3.243008311995686e+03, 4.282555171807674e+02, 3.364977953262422e+03
1070, -5.769852911424733e-16, 5.000000000005289e-04, 2.545278726371393e-06, 5.383626967515869e-09, -2.616365870866866e+01, 5.962148694886491e+01, 4.155082963211509e+02, 8.354326235324460e+02
1071, 4.999999999950832e-05, 5.000000000002242e-04, 2.563450903176411e-06, -5.181815476574614e-07, -3.870575352293849e+01, -3.126552214531240e+03, 3.621556885424479e+02, 3.171659303540674e+03
1072, 9.999999999962365e-05, 4.999999999999196e-04, 2.626616887700076e-06, -1.044027309842428e-06, -3.758247127169932e+01, -6.287994267991066e+03, 2.709033382476663e+02, 6.273850659942707e+03
1073, 1.499999999997844e-04, 4.999999999996149e-04, 2.734649537350175e-06, -1.573761646235960e-06, -2.019930064103028e+01, -9.418508877011249e+03, 1.487722580619822e+02, 9.403018431991270e+03
1074, 1.999999999999003e-04, 4.999999999993100e-04, 2.887435196034454e-06, -2.108763389643406e-06, 1.003722302985182e+01, -1.253190579329007e+04, 3.730451797833609e-01, 1.254194303851149e+04
1075, -2.000000000000740e-04, 4.000000000013997e-04, 1.935134871295801e-06, 1.673361491689079e-06, -4.297444089499822e+01, 1.284533017234373e+04, 2.250469753690054e+02, 1.289616145867139e+04
1076, -1.500000000001797e-04, 4.000000000011572e-04, 1.772495382716555e-06, 1.250198497943984e-06, 3.301733443764533e+00, 9.779434569027047e+03, 3.164551088078670e+02, 9.796598826252510e+03
1077, -1.000000000003152e-04, 4.000000000009148e-04, 1.654235242876258e-06, 8.320469087234643e-07, 3.061235849614832e+00, 6.613980015017223e+03, 4.009978107612304e+02, 6.659387665671082e+03
1078, -5.000000000043512e-05, 4.000000000006724e-04, 1.581200172116330e-06, 4.181696184085912e-07, -2.734978011422845e+01, 3.345753523532766e+03, 4.544149169406649e+02, 3.493393416726355e+03
1079, -5.898025937003254e-16, 4.000000000004300e-04, 1.554489242855159e-06, 6.765964445058916e-09, -2.877879324924038e+01, 6.178615294708970e+01, 4.572080034135564e+02, 9.188898971156374e+02
1080, 4.999999999949812e-05, 4.000000000001875e-04, 1.574536375653433e-06, -4.049892617573833e-07, -2.740748536051478e+01, -3.224857054415687e+03, 4.007029826791691e+02, 3.296351811922241e+03
1081, 9.999999999961606e-05, 3.999999999999452e-04, 1.641164302344422e-06, -8.199361300409835e-07, -4.965565038241311e+01, -6.501718976371242e+03, 2.931912153249893e+02, 6.478654607057318e+03
1082, 1.499999999997800e-04, 3.999999999997027e-04, 1.753535770729273e-06, -1.239921153126802e-06, -3.670991169755359e+01, -9.682651003415423e+03, 1.538619539364312e+02, 9.650848333093205e+03
1083, 1.999999999998984e-04, 3.999999999994603e-04, 1.911062989496839e-06, -1.665748066350640e-06, 3.025707137781433e+01, -1.276873873061069e+04, 6.414854507662540e+00, 1.279900223223485e+04
1084, -2.000000000000760e-04, 3.000000000010516e-04, 1.173823668767160e-06, 1.224146264260181e-06, -1.345574176829587e+01, 1.313582522265012e+04, 1.547079825938203e+02, 1.315292089692360e+04
1085, -1.500000000001842e-04, 3.000000000008717e-04, 1.007819491025928e-06, 9.083099624388486e-07, 3.183014682377916e+00, 1.009619215874853e+04, 2.826863182948169e+02, 1.010883177228740e+04
1086, -1.000000000003227e-04, 3.000000000006917e-04, 8.856497326327619e-07, 6.008183178248876e-07, -1.463322105096083e+02, 6.701241817490576e+03, 4.194172492802217e+02, 6.898761728376900e+03
1087, -5.000000000044532e-05, 3.000000000005118e-04, 8.105882669024443e-07, 3.015078801881099e-07, -1.132817895403846e+02, 3.376837113965133e+03, 5.077752565819919e+02, 3.634869021766009e+03
1088, -6.026207432911247e-16, 3.000000000003319e-04, 7.837650201028808e-07, 6.146152048423464e-09, -3.126248161245326e+01, 6.127107875856325e+01, 5.226994970377656e+02, 1.049486310825000e+03
1089, 4.999999999948792e-05, 3.000000000001520e-04, 8.055744055865988e-07, -2.894565527909969e-07, 5.412705161011786e+01, -3.256483672673336e+03, 4.668002592701245e+02, 3.439731573242196e+03
1090, 9.999999999960845e-05, 2.999999999999720e-04, 8.758779077005104e-07, -5.894996578760886e-07, 9.727365773377574e+01, -6.587434204839468e+03, 3.370122317585581e+02, 6.718603142422395e+03
1091, 1.499999999997756e-04, 2.999999999997920e-04, 9.938012682488583e-07, -8.982506467218000e-07, -3.666696064632367e+01, -9.995905774038514e+03, 1.581624472368085e+02, 9.964261095587632e+03
1092, 1.999999999998966e-04, 2.999999999996122e-04, 1.156353322286177e-06, -1.215961461402709e-06, -1.030621995051888e+00, -1.306010574065070e+04, -1.205014364191197e+01, 1.305909735695918e+04
1093, -2.000000000000778e-04, 2.000000000007014e-04, 6.336787856404667e-07, 7.638199570483017e-07, 1.630661972652904e+02, 1.353643048882903e+04, 1.235287036676821e+02, 1.337564614653780e+04
1094, -1.500000000001885e-04, 2.000000000005817e-04, 4.626648950630544e-07, 5.529607586073630e-07, -6.622359561086005e+02, 9.508645240802922e+03, 3.181451622982185e+02, 1.019076492216671e+04
1095, -1.000000000003304e-04, 2.000000000004620e-04, 3.403001047758800e-07, 3.621244783061530e-07, -4.781888825251432e+02, 6.300036297727787e+03, 4.553639149954620e+02, 6.839134577893233e+03
1096, -5.000000000045550e-05, 2.000000000003424e-04, 2.665513012617298e-07, 1.808694949727301e-07, -2.511731822334677e+02, 3.168353518850408e+03, 4.916513829848180e+02, 3.558096006151199e+03
1097, -6.154388928819240e-16, 2.000000000002227e-04, 2.408233796185915e-07, 4.129289624577446e-09, -3.372496920603680e+01, 5.440972350221841e+01, 4.913423306922330e+02, 9.866290426391680e+02
1098, 4.999999999947777e-05, 2.000000000001030e-04, 2.629311969512938e-07, -1.727502437820373e-07, 1.874175922030333e+02, -3.061226945981949e+03, 4.631690564246207e+02, 3.378134638346467e+03
1099, 9.999999999960084e-05, 1.999999999999833e-04, 3.332872152381198e-07, -3.544307154530772e-07, 4.257972807276697e+02, -6.197722938843824e+03, 3.978577030843438e+02, 6.671145561797211e+03
1100, 1.499999999997714e-04, 1.999999999998636e-04, 4.527234332452379e-07, -5.459868622544492e-07, 6.302631802746864e+02, -9.411898511513160e+03, 2.306024791949349e+02, 1.005274696078911e+04
1101, 1.999999999998946e-04, 1.999999999997439e-04, 6.215006900240811e-07, -7.578495442385790e-07, -1.711495004124711e+02, -1.345500725962682e+04, 4.971332622077341e+00, 1.328386148014316e+04
1102, -2.000000000000798e-04, 1.000000000003506e-04, 2.785324308775062e-07, 2.946440444077922e-07, -4.230902167431221e+03, 7.541606011230173e+03, 7.387139010105991e+02, 1.186485321134799e+04
1103, -1.500000000001928e-04, 1.000000000002906e-04, 1.295701714157639e-07, 2.118212577623713e-07, -1.956432168069779e+03, 6.365694672373610e+03, 5.972669217939552e+02, 8.407419714270554e+03
1104, -1.000000000003380e-04, 1.000000000002307e-04, 3.003389500654972e-08, 1.376105665653706e-07, -7.949852119357304e+02, 4.568606081583090e+03, 2.176436243192246e+02, 5.381225376504698e+03
1105, -5.000000000046567e-05, 1.000000000001708e-04, -2.771951300147833e-08, 6.858676832107183e-08, -2.827014022967120e+02, 2.376545427443489e+03, -1.996070926593785e+01, 2.659546469069662e+03
1106, -6.282434899455673e-16, 1.000000000001108e-04, -4.733535144703268e-08, 1.592470019106419e-09, -2.999982535133893e+01, 3.553244258241330e+01, -1.081433870255747e+02, 2.259965636243039e+02
1107, 4.999999999946757e-05, 1.000000000000509e-04, -2.992388843724929e-08, -6.546538583346143e-08, 2.237622997711562e+02, -2.308197575552995e+03, -3.988629886256246e+01, 2.533216231907435e+03
1108, 9.999999999959325e-05, 9.999999999999091e-05, 2.576052018229950e-08, -1.346880039929618e-07, 7.405901405923744e+02, -4.507596640217786e+03, 1.771680182583374e+02, 5.260134837914791e+03
1109, 1.499999999997670e-04, 9.999999999993101e-05, 1.235192022290395e-07, -2.092593751278441e-07, 1.915789111495224e+03, -6.312757196477131e+03, 5.351998804909737e+02, 8.297875028629662e+03
1110, 1.999999999998927e-04, 9.999999999987105e-05, 2.712113027226472e-07, -2.925809069286131e-07, 4.218796757177452e+03, -7.487322582883670e+03, 6.519981482310799e+02, 1.177852437043538e+04
