"PointID","x","y","Displacement_x","Displacement_y","Sxx","Syy","Sxy","Von_Mises_Stress"
0, -2.500000000000000e-04, 0.000000000000000e+00, 0.000000000000000e+00, 0.000000000000000e+00, 3.813267166499676e+04, 4.660068448318748e+04, 4.782961733272629e+03, 1.277552867230329e+04
1, 2.500000000000000e-04, 0.000000000000000e+00, 0.000000000000000e+00, 0.000000000000000e+00, -3.844966377351883e+04, -4.699888492256036e+04, 4.696594056630438e+03, 1.270122691657480e+04
2, 2.500000000000000e-04, 1.000000000000000e-02, 7.371794786620997e-04, -5.586607672882204e-05, 1.822284868110523e+01, 1.510775240161079e+01, 2.849945046497772e+00, 6.495580951904834e+00
3, -2.500000000000000e-04, 1.000000000000000e-02, 7.396407571821126e-04, -6.344551523819226e-06, 8.632722474513224e+00, 3.493430402845632e+01, 2.916816300256178e+00, 2.694075837010681e+01
4, -2.000000000000817e-04, 0.000000000000000e+00, 0.000000000000000e+00, 0.000000000000000e+00, 2.574327141057661e+04, 3.146123670288380e+04, 2.721163886248806e+03, 7.893925428285243e+03
5, -1.500000000001972e-04, 0.000000000000000e+00, 0.000000000000000e+00, 0.000000000000000e+00, 1.852553887117291e+04, 2.264480068422282e+04, 1.269970212267614e+03, 4.839381700655508e+03
6, -1.000000000003456e-04, 0.000000000000000e+00, 0.000000000000000e+00, 0.000000000000000e+00, 1.205299037578944e+04, 1.473313657886161e+04, 2.995646827768777e+02, 2.746295626204688e+03
7, -5.000000000047588e-05, 0.000000000000000e+00, 0.000000000000000e+00, 0.000000000000000e+00, 6.022589364765972e+03, 7.360826616587976e+03, -2.642966662130937e+02, 1.438850184435308e+03
8, -6.410887445906788e-16, 0.000000000000000e+00, 0.000000000000000e+00, 0.000000000000000e+00, 1.575207414378696e+02, 1.915595757732228e+02, -4.569552153867816e+02, 9.145441037586046e+02
9, 4.999999999945738e-05, 0.000000000000000e+00, 0.000000000000000e+00, 0.000000000000000e+00, -5.726131322792395e+03, -6.998796283330457e+03, -2.890566343427869e+02, 1.397816530597515e+03
10, 9.999999999958566e-05, 0.000000000000000e+00, 0.000000000000000e+00, 0.000000000000000e+00, -1.181313781632001e+04, -1.443662864988930e+04, 2.517298034280618e+02, 2.671362148709496e+03
11, 1.499999999997626e-04, 0.000000000000000e+00, 0.000000000000000e+00, 0.000000000000000e+00, -1.838394816217186e+04, -2.246665029012181e+04, 1.202691710323140e+03, 4.738599589107218e+03
12, 1.999999999998909e-04, 0.000000000000000e+00, 0.000000000000000e+00, 0.000000000000000e+00, -2.573586366856730e+04, -3.145719029639084e+04, 2.640790006900934e+03, 7.786441152698311e+03
13, 2.500000000000000e-04, 9.999999999981111e-05, 5.921831425493064e-07, -5.355241192009348e-07, 2.048423013841250e+03, -1.578522243502696e+04, 1.199098888745389e+03, 1.799417301728256e+04
14, 2.500000000000000e-04, 1.999999999996242e-04, 1.016768754403590e-06, -1.209011522527869e-06, -4.116397299611083e+03, -2.292573561324163e+04, -1.829274021539990e+02, 1.881289604325834e+04
15, 2.500000000000000e-04, 2.999999999994322e-04, 1.672934387997799e-06, -1.890674003827926e-06, -4.387830883738879e+03, -2.328459035939323e+04, -1.254676531483890e+02, 1.889842552194967e+04
16, 2.500000000000000e-04, 3.999999999992179e-04, 2.594214839258738e-06, -2.576798693815750e-06, -4.785410586113502e+03, -2.350562978179281e+04, -1.431737008138838e+02, 1.872240907492139e+04
17, 2.500000000000000e-04, 4.999999999990053e-04, 3.786039367703117e-06, -3.256242773590770e-06, -4.798980350517495e+03, -2.319215969220429e+04, -1.744118948137143e+02, 1.839648673882228e+04
18, 2.500000000000000e-04, 5.999999999988090e-04, 5.244045395125566e-06, -3.926486380422556e-06, -4.731436833221368e+03, -2.275252686294939e+04, -2.146878345375122e+02, 1.802620451799980e+04
19, 2.500000000000000e-04, 6.999999999986395e-04, 6.962688466978651e-06, -4.587272622493745e-06, -4.635846580510282e+03, -2.227684838197515e+04, -2.547136154196343e+02, 1.764835574955376e+04
20, 2.500000000000000e-04, 7.999999999985029e-04, 8.936383884145372e-06, -5.239171195381872e-06, -4.536975867095409e+03, -2.180053948941311e+04, -2.925178841353261e+02, 1.727347376157926e+04
21, 2.500000000000000e-04, 8.999999999983563e-04, 1.115971482931848e-05, -5.882874712992457e-06, -4.439217033992719e+03, -2.132978865829439e+04, -3.275746065736112e+02, 1.690327276852481e+04
22, 2.500000000000000e-04, 9.999999999981935e-04, 1.362738071806001e-05, -6.519048528536288e-06, -4.343232110340405e+03, -2.086511976195176e+04, -3.599489624160795e+02, 1.653756404657727e+04
23, 2.500000000000000e-04, 1.099999999998054e-03, 1.633415793954947e-05, -7.148305854644547e-06, -4.248722713538807e+03, -2.040597911886570e+04, -3.897680699771469e+02, 1.617605054211231e+04
24, 2.500000000000000e-04, 1.199999999997903e-03, 1.927488203205465e-05, -7.771215167048862e-06, -4.155477720497578e+03, -1.995205410975053e+04, -4.171505217764720e+02, 1.581859297955344e+04
25, 2.500000000000000e-04, 1.299999999997659e-03, 2.244444297980568e-05, -8.388307010903787e-06, -4.063399061232766e+03, -1.950323954005147e+04, -4.421979038578201e+02, 1.546514888244124e+04
26, 2.500000000000000e-04, 1.399999999997322e-03, 2.583778472879691e-05, -9.000077772551483e-06, -3.972449236558550e+03, -1.905952334569794e+04, -4.650036134938730e+02, 1.511571098615323e+04
27, 2.500000000000000e-04, 1.499999999997028e-03, 2.944990559271185e-05, -9.606991654129666e-06, -3.882609112103416e+03, -1.862091726938546e+04, -4.856571162052277e+02, 1.477028025045868e+04
28, 2.500000000000000e-04, 1.599999999996764e-03, 3.327585862269207e-05, -1.020948203321308e-05, -3.793864991521084e+03, -1.818743625860467e+04, -5.042453839665116e+02, 1.442885814780990e+04
29, 2.500000000000000e-04, 1.699999999996466e-03, 3.731075189258635e-05, -1.080795269111234e-05, -3.706204157923700e+03, -1.775909287588666e+04, -5.208535358095808e+02, 1.409144545256135e+04
30, 2.500000000000000e-04, 1.799999999996210e-03, 4.154974870149597e-05, -1.140277897670156e-05, -3.619613331278937e+03, -1.733589609396887e+04, -5.355648485398268e+02, 1.375804243539141e+04
31, 2.500000000000000e-04, 1.899999999995898e-03, 4.598806766695518e-05, -1.199430896937575e-05, -3.534084012825370e+03, -1.691785667370186e+04, -5.484604351474500e+02, 1.342864870468036e+04
32, 2.500000000000000e-04, 1.999999999995521e-03, 5.062098301065105e-05, -1.258286465001335e-05, -3.449603071744538e+03, -1.650497910080044e+04, -5.596198690090310e+02, 1.310326451122796e+04
33, 2.500000000000000e-04, 2.099999999995151e-03, 5.544382453248579e-05, -1.316874297987843e-05, -3.366162837001477e+03, -1.609727028627230e+04, -5.691205725680400e+02, 1.278188913225896e+04
34, 2.500000000000000e-04, 2.199999999994897e-03, 6.045197783079506e-05, -1.375221703130710e-05, -3.283754184239870e+03, -1.569473427551897e+04, -5.770381461626986e+02, 1.246452241021026e+04
35, 2.500000000000000e-04, 2.299999999994653e-03, 6.564088437887211e-05, -1.433353704033562e-05, -3.202367586768029e+03, -1.529737277885865e+04, -5.834465572014235e+02, 1.215116414740333e+04
36, 2.500000000000000e-04, 2.399999999994409e-03, 7.100604151566182e-05, -1.491293144669205e-05, -3.121999807575623e+03, -1.490519122552343e+04, -5.884176891147620e+02, 1.184181326906701e+04
37, 2.500000000000000e-04, 2.499999999994080e-03, 7.654300270835509e-05, -1.549060793125261e-05, -3.042645538555466e+03, -1.451819232700052e+04, -5.920212345841221e+02, 1.153646959266939e+04
38, 2.500000000000000e-04, 2.599999999993751e-03, 8.224737765387650e-05, -1.606675443104092e-05, -2.964296508571090e+03, -1.413637461018931e+04, -5.943257601928000e+02, 1.123513335682191e+04
39, 2.500000000000000e-04, 2.699999999993507e-03, 8.811483218868750e-05, -1.664154006499780e-05, -2.886949917195393e+03, -1.375973969753062e+04, -5.953978533124973e+02, 1.093780380251350e+04
40, 2.500000000000000e-04, 2.799999999993264e-03, 9.414108844944390e-05, -1.721511611025236e-05, -2.810603779693672e+03, -1.338828889172288e+04, -5.953020990511247e+02, 1.064448029195334e+04
41, 2.500000000000000e-04, 2.899999999993009e-03, 1.003219250289607e-04, -1.778761691352290e-05, -2.735252597572146e+03, -1.302201948262701e+04, -5.941014590624587e+02, 1.035516292107960e+04
42, 2.500000000000000e-04, 2.999999999992623e-03, 1.066531768760105e-04, -1.835916079307181e-05, -2.660899359006409e+03, -1.266093495132637e+04, -5.918569619395093e+02, 1.006985056995640e+04
43, 2.500000000000000e-04, 3.099999999992220e-03, 1.131307356364691e-04, -1.892985093019140e-05, -2.587537164767591e+03, -1.230502973829456e+04, -5.886280607970865e+02, 9.788544012895016e+03
44, 2.500000000000000e-04, 3.199999999991949e-03, 1.197505494411026e-04, -1.949977620310853e-05, -2.515165783106964e+03, -1.195430267521677e+04, -5.844729307303700e+02, 9.511242804965843e+03
45, 2.500000000000000e-04, 3.299999999991705e-03, 1.265086230289524e-04, -2.006901201028318e-05, -2.443785165354344e+03, -1.160875196947761e+04, -5.794477477420721e+02, 9.237946486645982e+03
46, 2.500000000000000e-04, 3.399999999991461e-03, 1.334010178372069e-04, -2.063762108062547e-05, -2.373395938108799e+03, -1.126837606169115e+04, -5.736067564774555e+02, 8.968654873682641e+03
47, 2.500000000000000e-04, 3.499999999991149e-03, 1.404238521134981e-04, -2.120565427846942e-05, -2.303993904860753e+03, -1.093316843455661e+04, -5.670032062132358e+02, 8.703368520715188e+03
48, 2.500000000000000e-04, 3.599999999990803e-03, 1.475733007420731e-04, -2.177315131457918e-05, -2.235581525063700e+03, -1.060312735973384e+04, -5.596887084203611e+02, 8.442086773815981e+03
49, 2.500000000000000e-04, 3.699999999990560e-03, 1.548455953644189e-04, -2.234014151669607e-05, -2.168166223072247e+03, -1.027825492492005e+04, -5.517126284375671e+02, 8.184808247561414e+03
50, 2.500000000000000e-04, 3.799999999990315e-03, 1.622370247518172e-04, -2.290664454905521e-05, -2.101742241991625e+03, -9.958541736739217e+03, -5.431229175855142e+02, 7.931533793352482e+03
51, 2.500000000000000e-04, 3.899999999990071e-03, 1.697439344857460e-04, -2.347267108765869e-05, -2.036310828448735e+03, -9.643983599366147e+03, -5.339666230591334e+02, 7.682263104549525e+03
52, 2.500000000000000e-04, 3.999999999989709e-03, 1.773627270255907e-04, -2.403822349304683e-05, -1.971874296114946e+03, -9.334576821798781e+03, -5.242889875905714e+02, 7.436995646882288e+03
53, 2.500000000000000e-04, 4.099999999989249e-03, 1.850898617979694e-04, -2.460329646418513e-05, -1.908433541416847e+03, -9.030316195874442e+03, -5.141338004441288e+02, 7.195731151377216e+03
54, 2.500000000000000e-04, 4.199999999988788e-03, 1.929218551633476e-04, -2.516787766620826e-05, -1.845990784116873e+03, -8.731197647530236e+03, -5.035434712741230e+02, 6.958469491335409e+03
55, 2.500000000000000e-04, 4.299999999988333e-03, 2.008552804519964e-04, -2.573194836603023e-05, -1.784549958356073e+03, -8.437218738727945e+03, -4.925588208645086e+02, 6.725210678438281e+03
56, 2.500000000000000e-04, 4.399999999988144e-03, 2.088867681046810e-04, -2.629548403917710e-05, -1.724108618070389e+03, -8.148371227048903e+03, -4.812198173080868e+02, 6.495955674063634e+03
57, 2.500000000000000e-04, 4.499999999988117e-03, 2.170130054419586e-04, -2.685845489985122e-05, -1.664674432707282e+03, -7.864655017267553e+03, -4.695646256102132e+02, 6.270703548998483e+03
58, 2.500000000000000e-04, 4.599999999988090e-03, 2.252307369834636e-04, -2.742082649448982e-05, -1.606249342284030e+03, -7.586064961520051e+03, -4.576296861064106e+02, 6.049454071111085e+03
59, 2.500000000000000e-04, 4.699999999988035e-03, 2.335367644542345e-04, -2.798256019409514e-05, -1.548831102218762e+03, -7.312592829817160e+03, -4.454504844604728e+02, 5.832208311519090e+03
60, 2.500000000000000e-04, 4.799999999987717e-03, 2.419279464975058e-04, -2.854361376260125e-05, -1.492428927351340e+03, -7.044239716079263e+03, -4.330617793204818e+02, 5.618965478864294e+03
61, 2.500000000000000e-04, 4.899999999987257e-03, 2.504011990521265e-04, -2.910394182029035e-05, -1.437040480526159e+03, -6.780996760363053e+03, -4.204963480770068e+02, 5.409726188615517e+03
62, 2.500000000000000e-04, 4.999999999986965e-03, 2.589534951682505e-04, -2.966349632257415e-05, -1.382669443634098e+03, -6.522860262652433e+03, -4.077858509265561e+02, 5.204490259072830e+03
63, 2.500000000000000e-04, 5.099999999987202e-03, 2.675818650935554e-04, -3.022222703212859e-05, -1.329318427335690e+03, -6.269825453250454e+03, -3.949608111218006e+02, 5.003257523094440e+03
64, 2.500000000000000e-04, 5.199999999987608e-03, 2.762833962578411e-04, -3.078008194433182e-05, -1.276991000629442e+03, -6.021888256058968e+03, -3.820504158188818e+02, 4.806027470322259e+03
65, 2.500000000000000e-04, 5.299999999988015e-03, 2.850552333484107e-04, -3.133700772545896e-05, -1.225687430644113e+03, -5.779041921654928e+03, -3.690828577441430e+02, 4.612800206418081e+03
66, 2.500000000000000e-04, 5.399999999988211e-03, 2.938945782087576e-04, -3.189295011019384e-05, -1.175410444061390e+03, -5.541281735661900e+03, -3.560853385014692e+02, 4.423575387399240e+03
67, 2.500000000000000e-04, 5.499999999988184e-03, 3.027986898577094e-04, -3.244785430067139e-05, -1.126164231455345e+03, -5.308604321319688e+03, -3.430836911989924e+02, 4.238352366423934e+03
68, 2.500000000000000e-04, 5.599999999988157e-03, 3.117648845992428e-04, -3.300166534823102e-05, -1.077950243155778e+03, -5.081004143236547e+03, -3.301024427354132e+02, 4.057130884966789e+03
69, 2.500000000000000e-04, 5.699999999988293e-03, 3.207905360024612e-04, -3.355432851278581e-05, -1.030770155761891e+03, -4.858475556612447e+03, -3.171652261924720e+02, 3.879910277122836e+03
70, 2.500000000000000e-04, 5.799999999988694e-03, 3.298730748719837e-04, -3.410578958350102e-05, -9.846266109377423e+02, -4.641013492028454e+03, -3.042947216269069e+02, 3.706689376607143e+03
71, 2.500000000000000e-04, 5.899999999989099e-03, 3.390099892136920e-04, -3.465599520940410e-05, -9.395213809345551e+02, -4.428612686775154e+03, -2.915128254038628e+02, 3.537467604090845e+03
72, 2.500000000000000e-04, 5.999999999989505e-03, 3.481988241906478e-04, -3.520489324140360e-05, -8.954577708047672e+02, -4.221270049321374e+03, -2.788402961967965e+02, 3.372244794653006e+03
73, 2.500000000000000e-04, 6.099999999989911e-03, 3.574371822437392e-04, -3.575243306646114e-05, -8.524360867190130e+02, -4.018980248946006e+03, -2.662967847638789e+02, 3.211021308187812e+03
74, 2.500000000000000e-04, 6.199999999990317e-03, 3.667227230691154e-04, -3.629856587401102e-05, -8.104613669614999e+02, -3.821741548590228e+03, -2.539004088072966e+02, 3.053795998857815e+03
75, 2.500000000000000e-04, 6.299999999990723e-03, 3.760531638026370e-04, -3.684324492517985e-05, -7.695270150526637e+02, -3.629542105438882e+03, -2.416693703642462e+02, 2.900569367473546e+03
76, 2.500000000000000e-04, 6.399999999990975e-03, 3.854262784916270e-04, -3.738642575770095e-05, -7.296451341897531e+02, -3.442384740464203e+03, -2.296207211432916e+02, 2.751337651718436e+03
77, 2.500000000000000e-04, 6.499999999990961e-03, 3.948398986815684e-04, -3.792806643859801e-05, -6.908137261749285e+02, -3.260259877768347e+03, -2.177693789792367e+02, 2.606098143896779e+03
78, 2.500000000000000e-04, 6.599999999990934e-03, 4.042919132754745e-04, -3.846812773453552e-05, -6.530256933229318e+02, -3.083154612013949e+03, -2.061301892636708e+02, 2.464849930758844e+03
79, 2.500000000000000e-04, 6.699999999991035e-03, 4.137802679950774e-04, -3.900657339916587e-05, -6.162938107398866e+02, -2.911071912367307e+03, -1.947182390456114e+02, 2.327588302551987e+03
80, 2.500000000000000e-04, 6.799999999991401e-03, 4.233029658916006e-04, -3.954337030804117e-05, -5.806126140851130e+02, -2.743999752180609e+03, -1.835464782068196e+02, 2.194311087317732e+03
81, 2.500000000000000e-04, 6.899999999991809e-03, 4.328580670578141e-04, -4.007848870287440e-05, -5.459862430951641e+02, -2.581935230216089e+03, -1.726267745498551e+02, 2.065015324719084e+03
82, 2.500000000000000e-04, 6.999999999992214e-03, 4.424436889060514e-04, -4.061190240285795e-05, -5.124026893235750e+02, -2.424862885846529e+03, -1.619712339602272e+02, 1.939701710523299e+03
83, 2.500000000000000e-04, 7.099999999992620e-03, 4.520580053988349e-04, -4.114358896418754e-05, -4.798724383998006e+02, -2.272785537070177e+03, -1.515923140611859e+02, 1.818366931648701e+03
84, 2.500000000000000e-04, 7.199999999993026e-03, 4.616992474981277e-04, -4.167352984264521e-05, -4.484082077686230e+02, -2.125706533101025e+03, -1.414990466378161e+02, 1.701004877406448e+03
85, 2.500000000000000e-04, 7.299999999993359e-03, 4.713657038584485e-04, -4.220171049752493e-05, -4.179832093472068e+02, -1.983597561841530e+03, -1.317004242352123e+02, 1.587617179206360e+03
86, 2.500000000000000e-04, 7.399999999993427e-03, 4.810557193843946e-04, -4.272812055793372e-05, -3.886178772434423e+02, -1.846468192397148e+03, -1.222063899381185e+02, 1.478196586506879e+03
87, 2.500000000000000e-04, 7.499999999993399e-03, 4.907676962355275e-04, -4.325275388147775e-05, -3.603047948996719e+02, -1.714301702335765e+03, -1.130245794066795e+02, 1.372736627160043e+03
88, 2.500000000000000e-04, 7.599999999993372e-03, 5.005000934031641e-04, -4.377560851722340e-05, -3.330485469893866e+02, -1.587089690996295e+03, -1.041602577851731e+02, 1.271226426750817e+03
89, 2.500000000000000e-04, 7.699999999993440e-03, 5.102514270946477e-04, -4.429668682928705e-05, -3.068309472764673e+02, -1.464806038934429e+03, -9.561877660020484e+01, 1.173660135922808e+03
90, 2.500000000000000e-04, 7.799999999993771e-03, 5.200202696263605e-04, -4.481599559237624e-05, -2.816470789833940e+02, -1.347438946399885e+03, -8.740804644138618e+01, 1.080033782333650e+03
91, 2.500000000000000e-04, 7.899999999994177e-03, 5.298052490231348e-04, -4.533354626376410e-05, -2.575192634438604e+02, -1.234997886284280e+03, -7.953555985879264e+01, 9.903373562772487e+02
92, 2.500000000000000e-04, 7.999999999994584e-03, 5.396050501616812e-04, -4.584935490649285e-05, -2.344331589853052e+02, -1.127461324222985e+03, -7.200528439958119e+01, 9.045652811343326e+02
93, 2.500000000000000e-04, 8.099999999994990e-03, 5.494184140329134e-04, -4.636344232262450e-05, -2.123852832485546e+02, -1.024818429168019e+03, -6.482150651589356e+01, 8.227119346506151e+02
94, 2.500000000000000e-04, 8.199999999995398e-03, 5.592441377927687e-04, -4.687583415227090e-05, -1.913767396967264e+02, -9.270602318112178e+02, -5.798801455584366e+01, 7.447688499784936e+02
95, 2.500000000000000e-04, 8.299999999995804e-03, 5.690810746935625e-04, -4.738656078285242e-05, -1.714072465791155e+02, -8.341731730066261e+02, -5.150753601681654e+01, 6.707240701655273e+02
96, 2.500000000000000e-04, 8.399999999996209e-03, 5.789281340539898e-04, -4.789565730397359e-05, -1.524719730770708e+02, -7.461369114233719e+02, -4.538116867666820e+01, 6.005629533225958e+02
97, 2.500000000000000e-04, 8.499999999996616e-03, 5.887842812149589e-04, -4.840316341826418e-05, -1.345523056496600e+02, -6.629185101437449e+02, -3.960948825737508e+01, 5.342719272912716e+02
98, 2.500000000000000e-04, 8.599999999997021e-03, 5.986485365889879e-04, -4.890912343719083e-05, -1.176430201761400e+02, -5.844972318531360e+02, -3.419438995441660e+01, 4.718367092310308e+02
99, 2.500000000000000e-04, 8.699999999997429e-03, 6.085199753085858e-04, -4.941358637665160e-05, -1.017521383572994e+02, -5.108611629760161e+02, -2.913794695148487e+01, 4.132387612926308e+02
100, 2.500000000000000e-04, 8.799999999997834e-03, 6.183977275322554e-04, -4.991660581480683e-05, -8.687214609461631e+01, -4.419853482798338e+02, -2.443921372034566e+01, 3.584612768979574e+02
101, 2.500000000000000e-04, 8.899999999997930e-03, 6.282809781502177e-04, -5.041824001238541e-05, -7.298441801355966e+01, -3.778405726432424e+02, -2.009767809827063e+01, 3.074946205632936e+02
102, 2.500000000000000e-04, 8.999999999997496e-03, 6.381689660153529e-04, -5.091855209423513e-05, -6.007738976380358e+01, -3.184041535038916e+02, -1.611514760183428e+01, 2.603296156670287e+02
103, 2.500000000000000e-04, 9.099999999997034e-03, 6.480609836137056e-04, -5.141760992914398e-05, -4.815481408390177e+01, -2.636605795040451e+02, -1.249064495483110e+01, 2.169488413771146e+02
104, 2.500000000000000e-04, 9.199999999996832e-03, 6.579563776980072e-04, -5.191548589837874e-05, -3.719704361769177e+01, -2.135624779389944e+02, -9.218702829938966e+00, 1.773265472251930e+02
105, 2.500000000000000e-04, 9.299999999997156e-03, 6.678545490877147e-04, -5.241225622610874e-05, -2.715143794254758e+01, -1.680196870221675e+02, -6.290309025322065e+00, 1.414289063427064e+02
106, 2.500000000000000e-04, 9.399999999997563e-03, 6.777549507029238e-04, -5.290800029290988e-05, -1.799204010850451e+01, -1.269511719705528e+02, -3.694481197618425e+00, 1.092093822957050e+02
107, 2.500000000000000e-04, 9.499999999997968e-03, 6.876570862557602e-04, -5.340280011335005e-05, -9.642503062203920e+00, -9.022048971219883e+01, -1.425737619407783e+00, 8.062842453877131e+01
108, 2.500000000000000e-04, 9.599999999998375e-03, 6.975605060701698e-04, -5.389673949148308e-05, -2.139332552612768e+00, -5.779371055172551e+01, 5.187693172981314e-01, 5.566404833360940e+01
109, 2.500000000000000e-04, 9.699999999998783e-03, 7.074648049291328e-04, -5.438990504173663e-05, 4.449209870790130e+00, -2.992210019011428e+01, 2.113854706559165e+00, 3.463034048611994e+01
110, 2.500000000000000e-04, 9.799999999999188e-03, 7.173696093579458e-04, -5.488240215218796e-05, 9.383970936627247e+00, -7.904927116833849e+00, 3.146288097914329e+00, 1.839843773485348e+01
111, 2.500000000000000e-04, 9.899999999999593e-03, 7.272745861626193e-04, -5.537437762603286e-05, 1.191680701931856e+01, 5.903216886261049e+00, 3.263065610785671e+00, 8.874325608719515e+00
112, 2.000000000000817e-04, 1.000000000000000e-02, 7.374252482988036e-04, -5.091381899201658e-05, 1.678412595378058e+01, 1.393771065662830e+01, 4.109096651954841e+00, 8.697170874732111e+00
113, 1.500000000001972e-04, 1.000000000000000e-02, 7.376710366257762e-04, -4.596169831563923e-05, 1.485948528689843e+01, 1.475496189485900e+01, 6.428504373513679e+00, 1.285743361097468e+01
114, 1.000000000003456e-04, 1.000000000000000e-02, 7.379168984937769e-04, -4.100969570254391e-05, 9.762840598472604e+00, 1.496968316216489e+01, 8.460806257697767e+00, 1.770458075200507e+01
115, 5.000000000047588e-05, 1.000000000000000e-02, 7.381628738918196e-04, -3.605776312793353e-05, 2.802410347552757e+00, 1.501938745365294e+01, 9.878065385699459e+00, 2.322841433821067e+01
116, 6.410887445906788e-16, 1.000000000000000e-02, 7.384089856968977e-04, -3.110583445293870e-05, -4.298209661535868e+00, 1.578187892308758e+01, 1.040775946795666e+01, 2.892223687991113e+01
117, -4.999999999945738e-05, 1.000000000000000e-02, 7.386552390126699e-04, -2.615383125804586e-05, -9.325373199983563e+00, 1.867242847016956e+01, 9.860228013965106e+00, 3.424577761287890e+01
118, -9.999999999958566e-05, 1.000000000000000e-02, 7.389016187975410e-04, -2.120167997401536e-05, -9.578309235815901e+00, 2.542636687668252e+01, 8.300774210091344e+00, 3.874195090194333e+01
119, -1.499999999997626e-04, 1.000000000000000e-02, 7.391480827853205e-04, -1.624934387845837e-05, -1.561437730020414e+00, 3.777045871737608e+01, 6.374672697170486e+00, 4.134663089216489e+01
120, -1.999999999998909e-04, 1.000000000000000e-02, 7.393945387334059e-04, -1.129688788651707e-05, 2.183966722694151e+01, 5.808002350010839e+01, 5.486543540366903e+00, 3.786518272618572e+01
121, -2.500000000000000e-04, 9.899999999999590e-03, 7.297358827274048e-04, -5.853801046092125e-06, -1.671570083886346e+01, 3.008000045571082e+01, -1.519485869608279e+00, 4.689427479855914e+01
122, -2.500000000000000e-04, 9.799999999999181e-03, 7.198307051015956e-04, -5.363991173117322e-06, 4.451994235684808e+00, 6.995123477299261e+01, 2.367871475353999e+00, 6.567021982801097e+01
123, -2.500000000000000e-04, 9.699999999999055e-03, 7.099257031286997e-04, -4.874873552236986e-06, 1.225998487231453e+01, 9.595568297927538e+01, 6.012618439815126e+00, 8.455516662879182e+01
124, -2.500000000000000e-04, 9.599999999999458e-03, 7.000211357433112e-04, -4.386559930703708e-06, 1.806528002005628e+01, 1.237890484253585e+02, 9.708349573871399e+00, 1.074919690563530e+02
125, -2.500000000000000e-04, 9.499999999999916e-03, 6.901172920959627e-04, -3.899231284951536e-06, 2.467366139679372e+01, 1.564929777059427e+02, 1.364868338152046e+01, 1.346160405910360e+02
126, -2.500000000000000e-04, 9.400000000000373e-03, 6.802145262153472e-04, -3.413065352440070e-06, 3.223675899807091e+01, 1.939794220297444e+02, 1.784588525381208e+01, 1.656339081424645e+02
127, -2.500000000000000e-04, 9.300000000000832e-03, 6.703132455045088e-04, -2.928240682843862e-06, 4.113973168699538e+01, 2.364130611375454e+02, 2.232084453909165e+01, 2.003111419728224e+02
128, -2.500000000000000e-04, 9.200000000001289e-03, 6.604139265687722e-04, -2.444937490900398e-06, 5.085432376662693e+01, 2.832504881361412e+02, 2.709662150797733e+01, 2.386312737305163e+02
129, -2.500000000000000e-04, 9.100000000001746e-03, 6.505170861787545e-04, -1.963338003360704e-06, 6.172124694621046e+01, 3.347386229143946e+02, 3.219030761386262e+01, 2.805055279270860e+02
130, -2.500000000000000e-04, 9.000000000002204e-03, 6.406233003992075e-04, -1.483630581624745e-06, 7.366251958993831e+01, 3.908397300043300e+02, 3.759311779208877e+01, 3.259667971244536e+02
131, -2.500000000000000e-04, 8.900000000002661e-03, 6.307332002054875e-04, -1.006010259100652e-06, 8.662290831346314e+01, 4.515421135261645e+02, 4.331637405714482e+01, 3.750616741002786e+02
132, -2.500000000000000e-04, 8.800000000003118e-03, 6.208474690937193e-04, -5.306785090120573e-07, 1.006110109852856e+02, 5.168790558253575e+02, 4.937183457355074e+01, 4.278193513056747e+02
133, -2.500000000000000e-04, 8.700000000003576e-03, 6.109668447317201e-04, -5.784288870783961e-08, 1.155832454999216e+02, 5.868354096527150e+02, 5.576642426206224e+01, 4.842707698370784e+02
134, -2.500000000000000e-04, 8.600000000004033e-03, 6.010921175155166e-04, 4.122831602748782e-07, 1.315460220952459e+02, 6.614391918893219e+02, 6.250555675696386e+01, 5.444396659836659e+02
135, -2.500000000000000e-04, 8.500000000004490e-03, 5.912241313419913e-04, 8.794801096028664e-07, 1.485119663101520e+02, 7.407218174513498e+02, 6.959347434041841e+01, 6.083465414315770e+02
136, -2.500000000000000e-04, 8.400000000004949e-03, 5.813637842478575e-04, 1.343522617976318e-06, 1.665277711024786e+02, 8.247492492423562e+02, 7.702476008909690e+01, 6.760079651540929e+02
137, -2.500000000000000e-04, 8.300000000005149e-03, 5.715120307315875e-04, 1.804178816944636e-06, 1.855504076125612e+02, 9.135080932276134e+02, 8.480319606499891e+01, 7.474548282654796e+02
138, -2.500000000000000e-04, 8.200000000005172e-03, 5.616698792813783e-04, 2.261211326917483e-06, 2.056530274344977e+02, 1.007085506472803e+03, 9.292084019315934e+01, 8.226974830557676e+02
139, -2.500000000000000e-04, 8.100000000005195e-03, 5.518383964292199e-04, 2.714376072355410e-06, 2.267740143857948e+02, 1.105456005843029e+03, 1.013796777533141e+02, 9.017723650438146e+02
140, -2.500000000000000e-04, 8.000000000005220e-03, 5.420187034310676e-04, 3.163423451589920e-06, 2.489158677887653e+02, 1.208630010946749e+03, 1.101846382180992e+02, 9.846897250273696e+02
141, -2.500000000000000e-04, 7.900000000005243e-03, 5.322119764931314e-04, 3.608098642133427e-06, 2.721878269219040e+02, 1.316720941415451e+03, 1.193196239036888e+02, 1.071446740565138e+03
142, -2.500000000000000e-04, 7.800000000005240e-03, 5.224194528998908e-04, 4.048140228106248e-06, 2.964358269946536e+02, 1.429615521706861e+03, 1.287875851592560e+02, 1.162084845814909e+03
143, -2.500000000000000e-04, 7.700000000005121e-03, 5.126424230025852e-04, 4.483282268719871e-06, 3.217283796865037e+02, 1.547380107837399e+03, 1.385854117414326e+02, 1.256600900886772e+03
144, -2.500000000000000e-04, 7.600000000005145e-03, 5.028822344428959e-04, 4.913253035689784e-06, 3.480585518208361e+02, 1.670019684399116e+03, 1.487097356714401e+02, 1.355005379318299e+03
145, -2.500000000000000e-04, 7.500000000005337e-03, 4.931402920780085e-04, 5.337776045975013e-06, 3.753616056019201e+02, 1.797481495062315e+03, 1.591590140395143e+02, 1.457309626331675e+03
146, -2.500000000000000e-04, 7.400000000005796e-03, 4.834180545427623e-04, 5.756570251707967e-06, 4.037655529965176e+02, 1.929889633688718e+03, 1.699189766502388e+02, 1.563503931613883e+03
147, -2.500000000000000e-04, 7.300000000006254e-03, 4.737170409885159e-04, 6.169348694527585e-06, 4.332095841799504e+02, 2.067216089335987e+03, 1.809805721413586e+02, 1.673616780766343e+03
148, -2.500000000000000e-04, 7.200000000006711e-03, 4.640388275291898e-04, 6.575819518892056e-06, 4.636808573248135e+02, 2.209457326134969e+03, 1.923417642012770e+02, 1.787656817198283e+03
149, -2.500000000000000e-04, 7.100000000007169e-03, 4.543850468587121e-04, 6.975686418575662e-06, 4.952211803109010e+02, 2.356656664252353e+03, 2.039906263251652e+02, 1.905620834109053e+03
150, -2.500000000000000e-04, 7.000000000007627e-03, 4.447573908949761e-04, 7.368648316694228e-06, 5.277786382187315e+02, 2.508782682740403e+03, 2.159178130199902e+02, 2.027525346901627e+03
151, -2.500000000000000e-04, 6.900000000008085e-03, 4.351576081648653e-04, 7.754399790878378e-06, 5.613772090556183e+02, 2.665862555123642e+03, 2.281152019456808e+02, 2.153370556418456e+03
152, -2.500000000000000e-04, 6.800000000008542e-03, 4.255875054370726e-04, 8.132631238973086e-06, 5.959916290248323e+02, 2.827880240127979e+03, 2.405730167302516e+02, 2.283161903564158e+03
153, -2.500000000000000e-04, 6.700000000009001e-03, 4.160489465283024e-04, 8.503029245148412e-06, 6.316542645558627e+02, 2.994873385102627e+03, 2.532767845929799e+02, 2.416899073228516e+03
154, -2.500000000000000e-04, 6.600000000009459e-03, 4.065438541801236e-04, 8.865276143821038e-06, 6.683514718604541e+02, 3.166840633499199e+03, 2.662136804975470e+02, 2.554589396666806e+03
155, -2.500000000000000e-04, 6.500000000009916e-03, 3.970742096991434e-04, 9.219050739519937e-06, 7.060311957246497e+02, 3.343743470348155e+03, 2.793736576893012e+02, 2.696242683094810e+03
156, -2.500000000000000e-04, 6.400000000010177e-03, 3.876420504872266e-04, 9.564028579647108e-06, 7.447447054412197e+02, 3.525631320297517e+03, 2.927439667122726e+02, 2.841852650098639e+03
157, -2.500000000000000e-04, 6.300000000010201e-03, 3.782494729030950e-04, 9.899881862110520e-06, 7.844917748296987e+02, 3.712514056999145e+03, 3.063065765471293e+02, 2.991422631495735e+03
158, -2.500000000000000e-04, 6.200000000010225e-03, 3.688986322725949e-04, 1.022627964870020e-05, 8.252603916944059e+02, 3.904390677453460e+03, 3.200446084752468e+02, 3.144957475441429e+03
159, -2.500000000000000e-04, 6.100000000010248e-03, 3.595917425646442e-04, 1.054288819973349e-05, 8.670235468977171e+02, 4.101244841361120e+03, 3.339438557855086e+02, 3.302462925882455e+03
160, -2.500000000000000e-04, 6.000000000010509e-03, 3.503310752402193e-04, 1.084937141140927e-05, 9.098056254721100e+02, 4.303103347202194e+03, 3.479869526551350e+02, 3.463935493794797e+03
161, -2.500000000000000e-04, 5.900000000010967e-03, 3.411189607514255e-04, 1.114539084177166e-05, 9.536129619990796e+02, 4.509980383780543e+03, 3.621525391574324e+02, 3.629375577862015e+03
162, -2.500000000000000e-04, 5.800000000011424e-03, 3.319577891168733e-04, 1.143060597491497e-05, 9.984194861715412e+02, 4.721862815243821e+03, 3.764198944319698e+02, 3.798789013950310e+03
163, -2.500000000000000e-04, 5.700000000011876e-03, 3.228500089818051e-04, 1.170467459987542e-05, 1.044203564615653e+03, 4.938739283818497e+03, 3.907711031580437e+02, 3.972180344395283e+03
164, -2.500000000000000e-04, 5.600000000012062e-03, 3.137981269107555e-04, 1.196725323267647e-05, 1.090969275159126e+03, 5.160618476011588e+03, 4.051873321119247e+02, 4.149548374752967e+03
165, -2.500000000000000e-04, 5.500000000012085e-03, 3.048047078226086e-04, 1.221799741778220e-05, 1.138739070137910e+03, 5.387525707294821e+03, 4.196446280202960e+02, 4.330888401169937e+03
166, -2.500000000000000e-04, 5.400000000012110e-03, 2.958723763425961e-04, 1.245656191123884e-05, 1.187500242582895e+03, 5.619458594515585e+03, 4.341171866211132e+02, 4.516202581831914e+03
167, -2.500000000000000e-04, 5.300000000012160e-03, 2.870038163792066e-04, 1.268260106332082e-05, 1.237237663541572e+03, 5.856412136333971e+03, 4.485804596632339e+02, 4.705493653726849e+03
168, -2.500000000000000e-04, 5.200000000012475e-03, 2.782017707068136e-04, 1.289576923086740e-05, 1.287947098928339e+03, 6.098390114007547e+03, 4.630093559548967e+02, 4.898762359630381e+03
169, -2.500000000000000e-04, 5.100000000012934e-03, 2.694690411038274e-04, 1.309572114201539e-05, 1.339628415703376e+03, 6.345399876768266e+03, 4.773769776809755e+02, 5.096008539601461e+03
170, -2.500000000000000e-04, 5.000000000013221e-03, 2.608084886695628e-04, 1.328211227995141e-05, 1.392276452317716e+03, 6.597445047417008e+03, 4.916547477652642e+02, 5.297233019927333e+03
171, -2.500000000000000e-04, 4.900000000012981e-03, 2.522230338833802e-04, 1.345459927334616e-05, 1.445877590192252e+03, 6.854521390439133e+03, 5.058146595059558e+02, 5.502437790382869e+03
172, -2.500000000000000e-04, 4.800000000012570e-03, 2.437156561578007e-04, 1.361284042126405e-05, 1.500440917877733e+03, 7.116642909755632e+03, 5.198264777037000e+02, 5.711620004977625e+03
173, -2.500000000000000e-04, 4.700000000012160e-03, 2.352893946167509e-04, 1.375649606736115e-05, 1.555969164670786e+03, 7.383819667203376e+03, 5.336560734486804e+02, 5.924778198277470e+03
174, -2.500000000000000e-04, 4.600000000011960e-03, 2.269473486475398e-04, 1.388522900460162e-05, 1.612429084318596e+03, 7.656031905252670e+03, 5.472707658872421e+02, 6.141917959561291e+03
175, -2.500000000000000e-04, 4.500000000011985e-03, 2.186926765351839e-04, 1.399870507045915e-05, 1.669821836278101e+03, 7.933287263895256e+03, 5.606386780049766e+02, 6.363038745132393e+03
176, -2.500000000000000e-04, 4.400000000012010e-03, 2.105285958538785e-04, 1.409659362329709e-05, 1.728159658853251e+03, 8.215602429301569e+03, 5.737240438831393e+02, 6.588137127744127e+03
177, -2.500000000000000e-04, 4.300000000011870e-03, 2.024583844001204e-04, 1.417856803311222e-05, 1.787430599378203e+03, 8.502974116683803e+03, 5.864889093189621e+02, 6.817213631377693e+03
178, -2.500000000000000e-04, 4.200000000011467e-03, 1.944853798584291e-04, 1.424430623711590e-05, 1.847625552164251e+03, 8.795400982589385e+03, 5.988953465185371e+02, 7.050268503819227e+03
179, -2.500000000000000e-04, 4.100000000011056e-03, 1.866129796822998e-04, 1.429349131620134e-05, 1.908743675954069e+03, 9.092888717116046e+03, 6.109034695736887e+02, 7.287300746435604e+03
180, -2.500000000000000e-04, 4.000000000010646e-03, 1.788446414457464e-04, 1.432581202497097e-05, 1.970773628533824e+03, 9.395434664481465e+03, 6.224723447462251e+02, 7.528311814651048e+03
181, -2.500000000000000e-04, 3.900000000010236e-03, 1.711838825747254e-04, 1.434096340390630e-05, 2.033710128605113e+03, 9.703040762418339e+03, 6.335606969203395e+02, 7.773302322531572e+03
182, -2.500000000000000e-04, 3.800000000009824e-03, 1.636342803466520e-04, 1.433864739959651e-05, 2.097559261132982e+03, 1.001571765580505e+04, 6.441248551030938e+02, 8.022270232232400e+03
183, -2.500000000000000e-04, 3.700000000009415e-03, 1.561994725113340e-04, 1.431857350134591e-05, 2.162311606318101e+03, 1.033346304810113e+04, 6.541189206684428e+02, 8.275216138208034e+03
184, -2.500000000000000e-04, 3.600000000009160e-03, 1.488831570957234e-04, 1.428045939399944e-05, 2.227960983158275e+03, 1.065627709189755e+04, 6.634962974958014e+02, 8.532140515485928e+03
185, -2.500000000000000e-04, 3.500000000009170e-03, 1.416890924064246e-04, 1.422403164423882e-05, 2.294502897071815e+03, 1.098416120494084e+04, 6.722089945370167e+02, 8.793043911914865e+03
186, -2.500000000000000e-04, 3.400000000009196e-03, 1.346210970670112e-04, 1.414902638270026e-05, 2.361937301763445e+03, 1.131711964843937e+04, 6.802076104996845e+02, 9.057925835186710e+03
187, -2.500000000000000e-04, 3.300000000009092e-03, 1.276830502442544e-04, 1.405519006143289e-05, 2.430261904377890e+03, 1.165515360804989e+04, 6.874405887097257e+02, 9.326785362411785e+03
188, -2.500000000000000e-04, 3.200000000008720e-03, 1.208788917830704e-04, 1.394228021567233e-05, 2.499470100810082e+03, 1.199826047644516e+04, 6.938546917923489e+02, 9.599622697457780e+03
189, -2.500000000000000e-04, 3.100000000008311e-03, 1.142126221175408e-04, 1.381006620948950e-05, 2.569558247417543e+03, 1.234643984735216e+04, 6.993956624737643e+02, 9.876438173242843e+03
190, -2.500000000000000e-04, 3.000000000007901e-03, 1.076883022959455e-04, 1.365833003074083e-05, 2.640526151412048e+03, 1.269969320817964e+04, 7.040075367735765e+02, 1.015723133158315e+04
191, -2.500000000000000e-04, 2.900000000007490e-03, 1.013100541671433e-04, 1.348686712115202e-05, 2.712372103198686e+03, 1.305801993935352e+04, 7.076321802190548e+02, 1.044200183679650e+04
192, -2.500000000000000e-04, 2.800000000007079e-03, 9.508206048340474e-05, 1.329548721342289e-05, 2.785090341020575e+03, 1.342141577125171e+04, 7.102101207379384e+02, 1.073075078082498e+04
193, -2.500000000000000e-04, 2.700000000006744e-03, 8.900856473182608e-05, 1.308401517738828e-05, 2.858682722997733e+03, 1.378988166610478e+04, 7.116808288568745e+02, 1.102347806921364e+04
194, -2.500000000000000e-04, 2.600000000006672e-03, 8.309387131371592e-05, 1.285229193601412e-05, 2.933152931196632e+03, 1.416341820289746e+04, 7.119812578824713e+02, 1.132018230061130e+04
195, -2.500000000000000e-04, 2.500000000006697e-03, 7.734234583595950e-05, 1.260017541239344e-05, 3.008495065421381e+03, 1.454201719068725e+04, 7.110463497591495e+02, 1.162086400660556e+04
196, -2.500000000000000e-04, 2.400000000006722e-03, 7.175841485191526e-05, 1.232754144546193e-05, 3.084711547662572e+03, 1.492567679716199e+04, 7.088098934865374e+02, 1.192552321285194e+04
197, -2.500000000000000e-04, 2.300000000006651e-03, 6.634656600524664e-05, 1.203428474176853e-05, 3.161804381893161e+03, 1.531439309732539e+04, 7.052038688305945e+02, 1.223415965536274e+04
198, -2.500000000000000e-04, 2.200000000006315e-03, 6.111134811674935e-05, 1.172031991816926e-05, 3.239774395265909e+03, 1.570816006389601e+04, 7.001580588722104e+02, 1.254677354586889e+04
199, -2.500000000000000e-04, 2.100000000005904e-03, 5.605737114470457e-05, 1.138558247316116e-05, 3.318626528106854e+03, 1.610697358345238e+04, 6.936009039617112e+02, 1.286336461676612e+04
200, -2.500000000000000e-04, 2.000000000005494e-03, 5.118930632009464e-05, 1.103002988300006e-05, 3.398363260638553e+03, 1.651082564275686e+04, 6.854585915575266e+02, 1.318393278371169e+04
201, -2.500000000000000e-04, 1.900000000005083e-03, 4.651188611454342e-05, 1.065364266308417e-05, 3.478989749976870e+03, 1.691970892041433e+04, 6.756555673091771e+02, 1.350847784175214e+04
202, -2.500000000000000e-04, 1.800000000004675e-03, 4.202990430125016e-05, 1.025642548100304e-05, 3.560510913872169e+03, 1.733361443020392e+04, 6.641143098765901e+02, 1.383700009893480e+04
203, -2.500000000000000e-04, 1.700000000004264e-03, 3.774821592551580e-05, 9.838408266635595e-06, 3.642934152695302e+03, 1.775253286835978e+04, 6.507558007545678e+02, 1.416949922777596e+04
204, -2.500000000000000e-04, 1.600000000003854e-03, 3.367173736414717e-05, 9.399647429238497e-06, 3.726266371576959e+03, 1.817645227253999e+04, 6.354986196063976e+02, 1.450597485708828e+04
205, -2.500000000000000e-04, 1.500000000003443e-03, 2.980544628943207e-05, 8.940227020455636e-06, 3.810516723574820e+03, 1.860536084545135e+04, 6.182596101477408e+02, 1.484642692275770e+04
206, -2.500000000000000e-04, 1.400000000003032e-03, 2.615438167759943e-05, 8.460259954514658e-06, 3.895695618554495e+03, 1.903924545977448e+04, 5.989536423008503e+02, 1.519085526413887e+04
207, -2.500000000000000e-04, 1.300000000002622e-03, 2.272364381972587e-05, 7.959889269187841e-06, 3.981813743032784e+03, 1.947809062615316e+04, 5.774935789255530e+02, 1.553925971766777e+04
208, -2.500000000000000e-04, 1.200000000002211e-03, 1.951839426340635e-05, 7.439289414868974e-06, 4.068886138860768e+03, 1.992188262446471e+04, 5.537905032448842e+02, 1.589164035770089e+04
209, -2.500000000000000e-04, 1.100000000002113e-03, 1.654385574623346e-05, 6.898667510603997e-06, 4.156942438856957e+03, 2.037062352507739e+04, 5.277548375284921e+02, 1.624800157064865e+04
210, -2.500000000000000e-04, 1.000000000002544e-03, 1.380531219388112e-05, 6.338264279925964e-06, 4.246059454903764e+03, 2.082438030544305e+04, 4.992995447062339e+02, 1.660836904589976e+04
211, -2.500000000000000e-04, 9.000000000030026e-04, 1.130810950422324e-05, 5.758353751606025e-06, 4.336394983635826e+03, 2.128335843900758e+04, 4.683470853402620e+02, 1.697283023915259e+04
212, -2.500000000000000e-04, 8.000000000032027e-04, 9.057659822024746e-06, 5.159240923210057e-06, 4.428137626601012e+03, 2.174787822793371e+04, 4.348156927487487e+02, 1.734155913532848e+04
213, -2.500000000000000e-04, 7.000000000028719e-04, 7.059456912975114e-06, 4.541260162415379e-06, 4.520454824725318e+03, 2.221702062354692e+04, 3.985358187830132e+02, 1.771450716975877e+04
214, -2.500000000000000e-04, 6.000000000024631e-04, 5.319108848634863e-06, 3.904807495288510e-06, 4.608795857466701e+03, 2.268416432488597e+04, 3.587048491903965e+02, 1.808959982720197e+04
215, -2.500000000000000e-04, 5.000000000020526e-04, 3.842374028455855e-06, 3.250498823874826e-06, 4.668771129383744e+03, 2.311409530231135e+04, 3.130683635317083e+02, 1.845594839192408e+04
216, -2.500000000000000e-04, 4.000000000016421e-04, 2.634927003349883e-06, 2.579885284764482e-06, 4.649046070893106e+03, 2.341908052743583e+04, 2.524608988354620e+02, 1.877682453242732e+04
217, -2.500000000000000e-04, 3.000000000012316e-04, 1.701152251645423e-06, 1.896896656327726e-06, 4.252979715427639e+03, 2.319767749029798e+04, 1.744272536705413e+02, 1.894790946908047e+04
218, -2.500000000000000e-04, 2.000000000008210e-04, 1.035465890239478e-06, 1.214326845090007e-06, 3.991577780374806e+03, 2.285342680587243e+04, 2.655304648363642e+01, 1.886192378623602e+04
219, -2.500000000000000e-04, 1.000000000004105e-04, 6.030730290855012e-07, 5.373451847597096e-07, -2.050380242530352e+03, 1.580558581535472e+04, 1.361423031107735e+03, 1.806237566154757e+04
220, -1.999999999998928e-04, 9.899999999999593e-03, 7.294892842991609e-04, -1.080655549955412e-05, -2.806282909107387e+00, 4.428743809270659e+01, 3.519173491573197e+00, 4.761677105864971e+01
221, -1.499999999997670e-04, 9.899999999999591e-03, 7.292427364944374e-04, -1.575897098445827e-05, -5.472959757818052e-01, 4.074127528104165e+01, 8.678451978924432e+00, 4.478848324549267e+01
222, -9.999999999959327e-05, 9.899999999999591e-03, 7.289963085277054e-04, -2.071113583360131e-05, 2.458214168000437e+00, 3.521979392606006e+01, 1.208024100024536e+01, 4.070687901006092e+01
223, -4.999999999946756e-05, 9.899999999999593e-03, 7.287500222260562e-04, -2.566307769700193e-05, 5.474775339083431e+00, 2.925503959512461e+01, 1.437364632156352e+01, 3.730828061431853e+01
224, 6.282680539010377e-16, 9.899999999999593e-03, 7.285038733795405e-04, -3.061485900191833e-05, 7.879681738859585e+00, 2.320657397273170e+01, 1.532791391288329e+01, 3.427380056591003e+01
225, 5.000000000046569e-05, 9.899999999999590e-03, 7.282578495544129e-04, -3.556656569830200e-05, 9.688231831764314e+00, 1.747333194872726e+01, 1.483366794128188e+01, 3.067178837629120e+01
226, 1.000000000003380e-04, 9.899999999999590e-03, 7.280119342653875e-04, -4.051829074059045e-05, 1.095300528609905e+01, 1.240863310030223e+01, 1.294944270299609e+01, 2.593975939761579e+01
227, 1.500000000001929e-04, 9.899999999999593e-03, 7.277661061178084e-04, -4.547012184469359e-05, 1.167961181835275e+01, 8.439427639544093e+00, 9.848719836061173e+00, 1.996216228642331e+01
228, 2.000000000000797e-04, 9.899999999999593e-03, 7.275203365555056e-04, -5.042213377885379e-05, 1.163062013497078e+01, 5.921847079916136e+00, 5.820605621207168e+00, 1.296564263677785e+01
229, -1.999999999998947e-04, 9.799999999999184e-03, 7.195839039398550e-04, -1.031659203423390e-05, 1.014378006026986e-01, 5.838050779414954e+01, 6.906460617576167e+00, 5.989362897972751e+01
230, -1.499999999997712e-04, 9.799999999999181e-03, 7.193372600463568e-04, -1.526878946037192e-05, 3.395814171565370e+00, 5.057604037915345e+01, 1.318713634326718e+01, 5.405160501541886e+01
231, -9.999999999960086e-05, 9.799999999999184e-03, 7.190907831735707e-04, -2.022066366829420e-05, 5.457744940450020e+00, 4.077469283606792e+01, 1.766064526057765e+01, 4.994877748996110e+01
232, -4.999999999947776e-05, 9.799999999999184e-03, 7.188444828123251e-04, -2.517230360915552e-05, 7.857081791982933e+00, 3.135046709412174e+01, 2.039812830892723e+01, 4.707731626786499e+01
233, 6.154473632113966e-16, 9.799999999999184e-03, 7.185983548004481e-04, -3.012379496604624e-05, 1.021754826888640e+01, 2.265944947666680e+01, 2.139273262624467e+01, 4.455779328620461e+01
234, 5.000000000045551e-05, 9.799999999999184e-03, 7.183523853603051e-04, -3.507523216235743e-05, 1.213506982912275e+01, 1.474767851007679e+01, 2.055641059249056e+01, 4.119574965828428e+01
235, 1.000000000003303e-04, 9.799999999999184e-03, 7.181065549210126e-04, -4.002671489143439e-05, 1.337274231559813e+01, 7.704803481830515e+00, 1.788252628391349e+01, 3.621138654902291e+01
236, 1.500000000001885e-04, 9.799999999999188e-03, 7.178608387049314e-04, -4.497834234613279e-05, 1.373070302464781e+01, 1.707148436261396e+00, 1.346152539743402e+01, 2.948586998958912e+01
237, 2.000000000000778e-04, 9.799999999999188e-03, 7.176152048540068e-04, -4.993020819940626e-05, 1.284615144563699e+01, -3.025644393242969e+00, 7.424469165561178e+00, 2.173487687364624e+01
238, -1.999999999998966e-04, 9.699999999999027e-03, 7.096786825027808e-04, -9.827150006304144e-06, 1.953774087129217e+00, 7.509322816590601e+01, 1.099612877560381e+01, 7.637433557904218e+01
239, -1.499999999997756e-04, 9.699999999998999e-03, 7.094318733360907e-04, -1.477897839850874e-05, 4.535220215299902e+00, 6.228183017803432e+01, 1.808112826952513e+01, 6.813501126575281e+01
240, -9.999999999960846e-05, 9.699999999998973e-03, 7.091852896165244e-04, -1.973045358559724e-05, 7.173647844640348e+00, 4.915694747917682e+01, 2.308263082920837e+01, 6.240055153757339e+01
241, -4.999999999948794e-05, 9.699999999998947e-03, 7.089389344273563e-04, -2.468167806605998e-05, 9.542677595533830e+00, 3.595217046958110e+01, 2.594649963571384e+01, 5.822666646175744e+01
242, 6.026266725217555e-16, 9.699999999998920e-03, 7.086928034765641e-04, -2.963275945054717e-05, 1.168514526319444e+01, 2.327393997052825e+01, 2.664785435905879e+01, 5.454111046298161e+01
243, 5.000000000044535e-05, 9.699999999998892e-03, 7.084468840219578e-04, -3.458380714932064e-05, 1.336898929084869e+01, 1.140112442390345e+01, 2.517540358609234e+01, 5.038924761320694e+01
244, 1.000000000003228e-04, 9.699999999998864e-03, 7.082011557793425e-04, -3.953493292304106e-05, 1.433717238500482e+01, 5.298350169798582e-01, 2.153147553938806e+01, 4.522234315918983e+01
245, 1.500000000001842e-04, 9.699999999998836e-03, 7.079555913940967e-04, -4.448624936908321e-05, 1.435314025740006e+01, -9.113079523513342e+00, 1.574759536902650e+01, 3.927608063990692e+01
246, 2.000000000000759e-04, 9.699999999998809e-03, 7.077101556784219e-04, -4.943786913690147e-05, 1.326993651563882e+01, -1.714144248619416e+01, 7.866151637041092e+00, 3.423970413278749e+01
247, -1.999999999998985e-04, 9.599999999999352e-03, 6.997738483308911e-04, -9.338383704988194e-06, 2.954521297430235e+00, 9.464166274369310e+01, 1.533326392373053e+01, 9.667971781509357e+01
248, -1.499999999997800e-04, 9.599999999999241e-03, 6.995268368462110e-04, -1.428970059175078e-05, 5.452114136807335e+00, 7.707425254803766e+01, 2.317923391869274e+01, 8.531610780402103e+01
249, -9.999999999961608e-05, 9.599999999999132e-03, 6.992801158829703e-04, -1.924062987810448e-05, 8.053400019688320e+00, 5.921141834521327e+01, 2.851827738846999e+01, 7.661795755446383e+01
250, -4.999999999949810e-05, 9.599999999999024e-03, 6.990336899983384e-04, -2.419129286841318e-05, 1.049748125893259e+01, 4.141383806660803e+01, 3.133682090415433e+01, 6.988423638973009e+01
251, 5.898059818321144e-16, 9.599999999998917e-03, 6.987875544831411e-04, -2.914181369243914e-05, 1.254757680317619e+01, 2.400274243532512e+01, 3.162433399559934e+01, 6.427763858699888e+01
252, 5.000000000043517e-05, 9.599999999998809e-03, 6.985416964682740e-04, -3.409231861445045e-05, 1.403614318529410e+01, 7.339397819073855e+00, 2.938341748559978e+01, 5.914716638210317e+01
253, 1.000000000003152e-04, 9.599999999998698e-03, 6.982960950783224e-04, -3.904293501580337e-05, 1.476390670721045e+01, -8.267259368406854e+00, 2.462807021009535e+01, 5.437464464156258e+01
254, 1.500000000001798e-04, 9.599999999998591e-03, 6.980507216299964e-04, -4.399379120791493e-05, 1.455186696576927e+01, -2.249957667693428e+01, 1.737939175939832e+01, 5.080337102707857e+01
255, 2.000000000000740e-04, 9.599999999998483e-03, 6.978055398476409e-04, -4.894501610950644e-05, 1.325873132601479e+01, -3.500832905758875e+01, 7.658202426334137e+00, 5.063893142321697e+01
256, -1.999999999999004e-04, 9.499999999999719e-03, 6.898696984652928e-04, -8.850438911922181e-06, 3.508263495369579e+00, 1.170805542108309e+02, 1.983755036390404e+01, 1.203028629589462e+02
257, -1.499999999997843e-04, 9.499999999999528e-03, 6.896224588566213e-04, -1.380107862874157e-05, 6.148422841492719e+00, 9.413909431437983e+01, 2.839252886774464e+01, 1.047229728773606e+02
258, -9.999999999962368e-05, 9.499999999999330e-03, 6.893755876275751e-04, -1.875129075284708e-05, 8.782179720576046e+00, 7.082030542732858e+01, 3.401156769622598e+01, 9.206452079833295e+01
259, -4.999999999950831e-05, 9.499999999999136e-03, 6.891290893372907e-04, -2.370121683462632e-05, 1.119978221202650e+01, 4.753161252123321e+01, 3.671097630904809e+01, 8.191938122246135e+01
260, 5.769988436696294e-16, 9.499999999998942e-03, 6.888829593767461e-04, -2.865099938734748e-05, 1.318863516422771e+01, 2.463868816772996e+01, 3.650614595462683e+01, 7.390465806446221e+01
261, 5.000000000042495e-05, 9.499999999998747e-03, 6.886371844432971e-04, -3.360078190443438e-05, 1.454711834922219e+01, 2.487481851264844e+00, 3.341487127003101e+01, 6.790912545773092e+01
262, 1.000000000003075e-04, 9.499999999998551e-03, 6.883917429841168e-04, -3.855070863011246e-05, 1.509721171807573e+01, -1.857310863756494e+01, 2.746040233017994e+01, 6.442037920870132e+01
263, 1.500000000001755e-04, 9.499999999998359e-03, 6.881466054703575e-04, -4.350092419666324e-05, 1.467012226630743e+01, -3.820343230380028e+01, 1.867162256411479e+01, 6.473121912636283e+01
264, 2.000000000000721e-04, 9.499999999998164e-03, 6.879017346908585e-04, -4.845157335270476e-05, 1.312009231035692e+01, -5.606420499160387e+01, 7.086576445601721e+00, 7.062113887529375e+01
265, -1.999999999999023e-04, 9.400000000000087e-03, 6.799665937704857e-04, -8.363462268171337e-06, 3.859728118554877e+00, 1.424339654833888e+02, 2.452541229956127e+01, 1.469993287573083e+02
266, -1.499999999997887e-04, 9.399999999999811e-03, 6.797191070910192e-04, -1.331322789805916e-05, 6.693947877050434e+00, 1.132798479646628e+02, 3.372979666862963e+01, 1.261402030706899e+02
267, -9.999999999963125e-05, 9.399999999999530e-03, 6.794720793312844e-04, -1.826252390361477e-05, 9.431169087834078e+00, 8.375003646383408e+01, 3.957906942142721e+01, 1.085785659930913e+02
268, -4.999999999951849e-05, 9.399999999999249e-03, 6.792255142599335e-04, -2.321151151049356e-05, 1.186452335742561e+01, 5.423377837582095e+01, 4.211279961371736e+01, 9.428205203555061e+01
269, 5.641646004528322e-16, 9.399999999998968e-03, 6.789794066283620e-04, -2.816035207010900e-05, 1.380090667213730e+01, 2.511438968394568e+01, 4.136367385266599e+01, 8.349735897749925e+01
270, 5.000000000041476e-05, 9.399999999998687e-03, 6.787337424655393e-04, -3.310920710802247e-05, 1.505096094885410e+01, -3.240230844776117e+00, 3.736391715605212e+01, 7.693384767583555e+01
271, 1.000000000003000e-04, 9.399999999998406e-03, 6.784884993520022e-04, -3.805823824235773e-05, 1.543184164348836e+01, -3.047368399337929e+01, 3.014846917713898e+01, 7.578283485656043e+01
272, 1.500000000001711e-04, 9.399999999998125e-03, 6.782436466861492e-04, -4.300760697495207e-05, 1.476989862468994e+01, -5.623692718433683e+01, 1.975797678169021e+01, 8.126179851256498e+01
273, 2.000000000000702e-04, 9.399999999997844e-03, 6.779991459282572e-04, -4.795747429727555e-05, 1.288737010614298e+01, -8.019908366029830e+01, 6.241096808747092e+00, 9.391960941313812e+01
274, -1.999999999999042e-04, 9.300000000000464e-03, 6.700649490556208e-04, -7.877599660007420e-06, 4.381882804340439e+00, 1.708984216028724e+02, 2.941520720246093e+01, 1.766034409418396e+02
275, -1.499999999997930e-04, 9.300000000000100e-03, 6.698172021538679e-04, -1.282626501333403e-05, 7.371893894377727e+00, 1.346664999208842e+02, 3.919907084446480e+01, 1.494997837581077e+02
276, -9.999999999963886e-05, 9.299999999999729e-03, 6.695700163437890e-04, -1.777441788153127e-05, 1.017511665040121e+01, 9.808510608370500e+01, 4.523037802484897e+01, 1.261400595657325e+02
277, -4.999999999952863e-05, 9.299999999999361e-03, 6.693233943024382e-04, -2.272223880485421e-05, 1.261168878147852e+01, 6.155327821136065e+01, 4.755569900884685e+01, 1.069647475049761e+02
278, 5.513303572360351e-16, 9.299999999998993e-03, 6.690773297986828e-04, -2.766990796389564e-05, 1.448993846156595e+01, 2.545195088076989e+01, 4.621813654730265e+01, 9.308399593861037e+01
279, 5.000000000040461e-05, 9.299999999998625e-03, 6.688318078506113e-04, -3.261760523510526e-05, 1.562105451246029e+01, -9.846117857106464e+00, 4.126041913164460e+01, 8.636125066357688e+01
280, 1.000000000002923e-04, 9.299999999998258e-03, 6.685868049014665e-04, -3.756551012792864e-05, 1.581960198973980e+01, -4.397638917138147e+01, 3.272736636456156e+01, 8.865597890487609e+01
281, 1.500000000001668e-04, 9.299999999997890e-03, 6.683422889870476e-04, -4.251380162026822e-05, 1.490212509354284e+01, -7.658279205395270e+01, 2.066800108602316e+01, 1.003900151461864e+02
282, 2.000000000000683e-04, 9.299999999997520e-03, 6.680982198609279e-04, -4.746265792992012e-05, 1.268883919215331e+01, -1.073133679806321e+02, 5.137390028246958e+00, 1.204412754480350e+02
283, -1.999999999999061e-04, 9.200000000000841e-03, 6.601652421789320e-04, -7.393002440737605e-06, 4.767433376208331e+00, 2.022031119482753e+02, 3.454306382153499e+01, 2.091739472446966e+02
284, -1.499999999997973e-04, 9.200000000000397e-03, 6.599172229577681e-04, -1.234031242318380e-05, 7.956961797283839e+00, 1.581199562096803e+02, 4.483702502905336e+01, 1.749010009826166e+02
285, -9.999999999964642e-05, 9.199999999999951e-03, 6.596698789859287e-04, -1.728706713974518e-05, 1.088243316227934e+01, 1.137361831490308e+02, 5.099387428673010e+01, 1.448461071117222e+02
286, -4.999999999953884e-05, 9.199999999999505e-03, 6.594232114669361e-04, -2.223346607842875e-05, 1.335907186370028e+01, 6.944118990599556e+01, 5.305975491349991e+01, 1.200273066015923e+02
287, 5.385367716007061e-16, 9.199999999999058e-03, 6.591772127888134e-04, -2.717970820253132e-05, 1.520137977591857e+01, 2.561928256240553e+01, 5.108312610909637e+01, 1.026960359058716e+02
288, 5.000000000039439e-05, 9.199999999998614e-03, 6.589318665878296e-04, -3.212599191444872e-05, 1.622275206263304e+01, -1.735194272751556e+01, 4.511317710987250e+01, 9.627073868023726e+01
289, 1.000000000002848e-04, 9.199999999998171e-03, 6.586871478379285e-04, -3.707251498560594e-05, 1.623705073306196e+01, -5.910057392248728e+01, 3.520093340317174e+01, 1.031124654857915e+02
290, 1.500000000001625e-04, 9.199999999997726e-03, 6.584430229336065e-04, -4.201947444306245e-05, 1.505916657034405e+01, -9.925904361799833e+01, 2.140054634966512e+01, 1.220679594198358e+02
291, 2.000000000000664e-04, 9.199999999997280e-03, 6.581994497543183e-04, -4.696706640735028e-05, 1.250504218618940e+01, -1.374625541102453e+02, 3.770437541580564e+00, 1.501570668864780e+02
292, -1.999999999999080e-04, 9.100000000001274e-03, 6.502679947854991e-04, -6.909826576231295e-06, 5.307487267254945e+00, 2.365638595384112e+02, 3.993584652528868e+01, 2.446609839487720e+02
293, -1.499999999998017e-04, 9.100000000000802e-03, 6.500196952168950e-04, -1.185549835956269e-05, 8.649876551199135e+00, 1.838072706610353e+02, 5.067792557702495e+01, 2.023687754435214e+02
294, -9.999999999965405e-05, 9.100000000000334e-03, 6.497721961455664e-04, -1.680057239603307e-05, 1.167010689164935e+01, 1.308194256329758e+02, 5.689642873285439e+01, 1.647585341241337e+02
295, -4.999999999954905e-05, 9.099999999999862e-03, 6.495254972828482e-04, -2.174526705388349e-05, 1.417284540877824e+01, 7.798078118280844e+01, 5.864231077816210e+01, 1.335182950810598e+02
296, 5.257025283839090e-16, 9.099999999999390e-03, 6.492795894896817e-04, -2.668980009281041e-05, 1.596934050839525e+01, 2.567386296210216e+01, 5.596671846699593e+01, 1.123533357756254e+02
297, 5.000000000038422e-05, 9.099999999998916e-03, 6.490344548355556e-04, -3.163438858063065e-05, 1.687191520062240e+01, -2.572126387183665e+01, 4.892218320494887e+01, 1.067131619888235e+02
298, 1.000000000002772e-04, 9.099999999998446e-03, 6.487900666454462e-04, -3.657924882769449e-05, 1.669321246332640e+01, -7.582731511977204e+01, 3.756290813479762e+01, 1.191802680582145e+02
299, 1.500000000001581e-04, 9.099999999997978e-03, 6.485463895384438e-04, -4.152459630209409e-05, 1.524588317642078e+01, -1.242693456795690e+02, 2.194538108389831e+01, 1.462562753744579e+02
300, 2.000000000000645e-04, 9.099999999997506e-03, 6.483033794478579e-04, -4.647064552583937e-05, 1.234191945648454e+01, -1.706740549961206e+02, 2.129180287498498e+00, 1.830655088748923e+02
301, -1.999999999999099e-04, 9.000000000001736e-03, 6.403737849374103e-04, -6.428232515394947e-06, 5.923105015824554e+00, 2.739276385918832e+02, 4.558820919592458e+01, 2.830893309329871e+02
302, -1.499999999998060e-04, 9.000000000001264e-03, 6.401251992419039e-04, -1.137195636490374e-05, 9.422457643680271e+00, 2.117255285879954e+02, 5.671766851246961e+01, 2.319355690692184e+02
303, -9.999999999966160e-05, 9.000000000000792e-03, 6.398775503559585e-04, -1.631504027449987e-05, 1.252549671237795e+01, 1.493529391519709e+02, 6.293786538706274e+01, 1.859205437881469e+02
304, -4.999999999955923e-05, 9.000000000000320e-03, 6.396308364087396e-04, -2.125772164857182e-05, 1.504209560494665e+01, 8.719592092035606e+01, 6.430223657210540e+01, 1.474628258929912e+02
305, 5.128818376942679e-16, 8.999999999999852e-03, 6.393850466430227e-04, -2.620023713393968e-05, 1.678129910525150e+01, 2.563715794316797e+01, 6.086449038876988e+01, 1.220506902761953e+02
306, 5.000000000037403e-05, 8.999999999999380e-03, 6.391401614560389e-04, -3.114282260821807e-05, 1.755363873362121e+01, -3.494127091366681e+01, 5.267909574328453e+01, 1.177117838289671e+02
307, 1.000000000002695e-04, 8.999999999998908e-03, 6.388961524264181e-04, -3.608571313080364e-05, 1.717009559432541e+01, -9.415835636782631e+01, 3.980182916504765e+01, 1.368603910407379e+02
308, 1.500000000001538e-04, 8.999999999998436e-03, 6.386529823301855e-04, -4.102914288586338e-05, 1.544158209903280e+01, -1.516339905177621e+02, 2.229006250300377e+01, 1.729208909032716e+02
309, 2.000000000000626e-04, 8.999999999997964e-03, 6.384106051431271e-04, -4.597334511891549e-05, 1.217788907508645e+01, -2.069888377839802e+02, 2.027956442477477e-01, 2.191671021536080e+02
310, -1.999999999999118e-04, 8.900000000002187e-03, 6.304832454555830e-04, -5.948387814119126e-06, 6.573106310183540e+00, 3.143022684799350e+02, 5.150960767969562e+01, 3.245153247274492e+02
311, -1.499999999998104e-04, 8.900000000001712e-03, 6.302343696462309e-04, -1.088982665518050e-05, 1.023071379022405e+01, 2.418773977570985e+02, 6.296208846544065e+01, 2.636609271935622e+02
312, -9.999999999966923e-05, 8.900000000001240e-03, 6.299865781191861e-04, -1.583058401250331e-05, 1.341775813137236e+01, 1.693492053038111e+02, 6.912014002586704e+01, 2.083866388376973e+02
313, -4.999999999956943e-05, 8.900000000000770e-03, 6.297398673094363e-04, -2.077091630747849e-05, 1.594366804498536e+01, 9.710292678207654e+01, 7.003848069172508e+01, 1.618900256012541e+02
314, 5.000475944774707e-16, 8.900000000000293e-03, 6.294942247589859e-04, -2.571107916520044e-05, 1.761856639604345e+01, 2.552404532688024e+01, 6.577196360045399e+01, 1.317812633896173e+02
315, 5.000000000036387e-05, 8.899999999999823e-03, 6.292496291227502e-04, -3.065132739786526e-05, 1.825224149394429e+01, -4.500288092850234e+01, 5.637610261473375e+01, 1.292836814790895e+02
316, 1.000000000002620e-04, 8.899999999999349e-03, 6.290060501774461e-04, -3.559191497510303e-05, 1.765459637330153e+01, -1.140936908028459e+02, 4.190738895072516e+01, 1.561490575332367e+02
317, 1.500000000001494e-04, 8.899999999998874e-03, 6.287634488265510e-04, -4.053309498345491e-05, 1.563555130434182e+01, -1.813644308201222e+02, 2.242343587954685e+01, 2.020401813095992e+02
318, 2.000000000000606e-04, 8.899999999998404e-03, 6.285217770995704e-04, -4.547511958898828e-05, 1.200543375038302e+01, -2.464306422835642e+02, -2.017124249472158e+00, 2.584675619043430e+02
319, -1.999999999999137e-04, 8.800000000002590e-03, 6.205970621241089e-04, -5.470466558698901e-06, 7.268527539016404e+00, 3.577285656032606e+02, 5.770992484824518e+01, 3.689769369268923e+02
320, -1.499999999998147e-04, 8.800000000002060e-03, 6.203478943819022e-04, -1.040925610572163e-05, 1.107682522799781e+01, 2.742999166750536e+02, 6.941820892205206e+01, 2.975935933294395e+02
321, -9.999999999967683e-05, 8.800000000001532e-03, 6.200999694843777e-04, -1.534732338886669e-05, 1.433999390918513e+01, 1.908359957193616e+02, 7.544756515109403e+01, 2.322071898195491e+02
322, -4.999999999957961e-05, 8.800000000001001e-03, 6.198532821579829e-04, -2.028494385667874e-05, 1.686895814951195e+01, 1.077241691412551e+02, 7.585250144871122e+01, 1.768306457276598e+02
323, 4.872540088421418e-16, 8.800000000000474e-03, 6.196078182101951e-04, -2.522239217142524e-05, 1.847320939078578e+01, 2.535134012577299e+01, 7.068800502256568e+01, 1.415432262550513e+02
324, 5.000000000035368e-05, 8.799999999999947e-03, 6.193635545225139e-04, -3.015994218281665e-05, 1.896191335194899e+01, -5.589563474937296e+01, 6.000988028354226e+01, 1.414510354657117e+02
325, 1.000000000002544e-04, 8.799999999999419e-03, 6.191204590480223e-04, -3.509786689506830e-05, 1.814407099683906e+01, -1.356300277453785e+02, 4.387487878362795e+01, 1.770494094796519e+02
326, 1.500000000001451e-04, 8.799999999998892e-03, 6.188784908115871e-04, -4.003643843032887e-05, 1.582890001238448e+01, -2.134649573477068e+02, 2.234077238280089e+01, 2.336067496150536e+02
327, 2.000000000000587e-04, 8.799999999998365e-03, 6.186375999122750e-04, -4.497592798986604e-05, 1.182632273715753e+01, -2.890130969999690e+02, -4.533632230588371e+00, 3.009760318573224e+02
328, -1.999999999999156e-04, 8.700000000002964e-03, 6.107159746732363e-04, -4.994649174010372e-06, 7.980949921731380e+00, 4.042107710294066e+02, 6.419669754252592e+01, 4.165128269771371e+02
329, -1.499999999998191e-04, 8.700000000002345e-03, 6.104665152159892e-04, -9.930397978731406e-06, 1.193557682588256e+01, 3.090002827124268e+02, 7.609340484151988e+01, 3.337787658389324e+02
330, -9.999999999968445e-05, 8.700000000001731e-03, 6.102184683132340e-04, -1.486538450402593e-05, 1.527257959353717e+01, 2.138231037456281e+02, 8.192631145205270e+01, 2.574295877975665e+02
331, -4.999999999958977e-05, 8.700000000001117e-03, 6.099718269829403e-04, -1.979990327401240e-05, 1.780183659379048e+01, 1.190682531965248e+02, 8.174871608957335e+01, 1.923182192636288e+02
332, 4.743926605710325e-16, 8.700000000000502e-03, 6.097265752852344e-04, -2.473424806206201e-05, 1.933220948605143e+01, 2.512474824117012e+01, 7.561528739830702e+01, 1.513414690643111e+02
333, 5.000000000034347e-05, 8.699999999999888e-03, 6.094826883101866e-04, -2.966871184749162e-05, 1.967203988949154e+01, -6.761841710414525e+01, 6.358177847483464e+01, 1.542407018210490e+02
334, 1.000000000002468e-04, 8.699999999999274e-03, 6.092401321732654e-04, -3.460358677316144e-05, 1.862955034896480e+01, -1.587721606516818e+02, 4.570500393499010e+01, 1.995674237062422e+02
335, 1.500000000001407e-04, 8.699999999998657e-03, 6.089988640138147e-04, -3.953916410422485e-05, 1.601293696785669e+01, -2.479473725232977e+02, 2.204285829133438e+01, 2.676165080731631e+02
336, 2.000000000000568e-04, 8.699999999998044e-03, 6.087588319953236e-04, -4.447573418401428e-05, 1.163055756179992e+01, -3.347548576107569e+02, -7.345540157064812e+00, 3.466968181063403e+02
337, -1.999999999999175e-04, 8.600000000003331e-03, 6.008407757865210e-04, -4.521122201088789e-06, 8.713866928230743e+00, 4.537728362685258e+02, 7.097655133763752e+01, 4.671489800367576e+02
338, -1.499999999998235e-04, 8.600000000002632e-03, 6.005910271474956e-04, -9.453411626542109e-06, 1.280766242581549e+01, 3.459980340806433e+02, 8.299555744294032e+01, 3.722484036024062e+02
339, -9.999999999969208e-05, 8.600000000001931e-03, 6.003428719382909e-04, -1.438489946448666e-05, 1.621348645885016e+01, 2.383254022267139e+02, 8.856331960923079e+01, 2.840907415719450e+02
340, -4.999999999959999e-05, 8.600000000001230e-03, 6.000963014874481e-04, -1.931589941249162e-05, 1.873869047158405e+01, 1.311456411728734e+02, 8.773266927846933e+01, 2.083828390267855e+02
341, 4.615584173542353e-16, 8.600000000000526e-03, 5.998512981061098e-04, -2.424672445341141e-05, 2.019052570424904e+01, 2.484965086418640e+01, 8.055792302025792e+01, 1.611831979227586e+02
342, 5.000000000033329e-05, 8.599999999999825e-03, 5.996078350852832e-04, -2.917768679317700e-05, 2.037626151327920e+01, -8.017141849802107e+01, 6.709470832000848e+01, 1.676801583188747e+02
343, 1.000000000002392e-04, 8.599999999999124e-03, 5.993658766929886e-04, -3.410909781245243e-05, 1.910309406263207e+01, -1.835263259594990e+02, 4.739981195023115e+01, 2.237088521944859e+02
344, 1.500000000001364e-04, 8.599999999998423e-03, 5.991253781730733e-04, -3.904126802111709e-05, 1.617813990898070e+01, -2.848238003406062e+02, 2.153112846466848e+01, 3.040666473092111e+02
345, 2.000000000000548e-04, 8.599999999997722e-03, 5.988862857438639e-04, -4.397450701618617e-05, 1.140779227358458e+01, -3.836730487136516e+02, -1.045233249228830e+01, 3.956335121464045e+02
346, -1.999999999999195e-04, 8.500000000003703e-03, 5.909723117271876e-04, -4.050077969519145e-06, 9.470617887782211e+00, 5.064321914991566e+02, 7.805317126054059e+01, 5.209030579883388e+02
347, -1.499999999998278e-04, 8.500000000002915e-03, 5.907222788910281e-04, -8.978462129556689e-06, 1.369882731873877e+01, 3.853093344417275e+02, 9.012841934873109e+01, 4.130216663825370e+02
348, -9.999999999969967e-05, 8.500000000002127e-03, 5.904740315696471e-04, -1.390600602839413e-05, 1.716804585863805e+01, 2.643563342405077e+02, 9.536226087743457e+01, 3.122144985611366e+02
349, -4.999999999961013e-05, 8.500000000001340e-03, 5.902275594049103e-04, -1.883304268906712e-05, 1.968318430573534e+01, 1.439658795868932e+02, 9.380746370894209e+01, 2.250456605588455e+02
350, 4.487512791917503e-16, 8.500000000000552e-03, 5.899828429627113e-04, -2.375990441768974e-05, 2.105025010723470e+01, 2.453134134667165e+01, 8.551830108178932e+01, 1.710720236505068e+02
351, 5.000000000032310e-05, 8.499999999999765e-03, 5.897398537344197e-04, -2.868692275396946e-05, 2.107526479194266e+01, -9.355392588238053e+01, 7.055028438599548e+01, 1.817944494819072e+02
352, 1.000000000002316e-04, 8.499999999998977e-03, 5.894985541378815e-04, -3.361442841968787e-05, 1.956428892704317e+01, -2.098964916778315e+02, 4.896012124791746e+01, 2.494807081243789e+02
353, 1.500000000001320e-04, 8.499999999998190e-03, 5.892588975173375e-04, -3.854275127259838e-05, 1.632340650508304e+01, -3.241028386539081e+02, 2.080564354504244e+01, 3.429599504407811e+02
354, 2.000000000000531e-04, 8.499999999997402e-03, 5.890208281436258e-04, -4.347222026364163e-05, 1.115887602356581e+01, -4.357792051314775e+02, -1.385441451467561e+01, 4.477961897925550e+02
355, -1.999999999999213e-04, 8.400000000004074e-03, 5.811114830542644e-04, -3.581714478275926e-06, 1.027960152814648e+01, 5.622302699824993e+02, 8.542270330997830e+01, 5.777868926951746e+02
356, -1.499999999998322e-04, 8.400000000003200e-03, 5.808611735728961e-04, -8.505720089700285e-06, 1.463032990499980e+01, 4.269644070668536e+02, 9.748966101144961e+01, 4.561099946344378e+02
357, -9.999999999970726e-05, 8.400000000002326e-03, 5.806128529107482e-04, -1.342884740076569e-05, 1.815100210980052e+01, 2.919366885967852e+02, 1.023217614507061e+02, 3.418151160944324e+02
358, -4.999999999962035e-05, 8.400000000001451e-03, 5.803665090371940e-04, -1.835144888386828e-05, 2.064610713337201e+01, 1.575429416614094e+02, 9.997252411829237e+01, 2.423195526946331e+02
359, 4.359305885021092e-16, 8.400000000000581e-03, 5.801221207831140e-04, -2.327387629561575e-05, 2.191968805007412e+01, 2.417823016570474e+01, 9.049631816272569e+01, 1.810067275449318e+02
360, 5.000000000031294e-05, 8.399999999999703e-03, 5.798796578508027e-04, -2.819648062169196e-05, 2.177626275437671e+01, -1.077621762240081e+02, 7.394868173121313e+01, 1.966057916036395e+02
361, 1.000000000002240e-04, 8.399999999998832e-03, 5.796390808175871e-04, -3.311961203299462e-05, 2.002054434814504e+01, -2.378828532987007e+02, 5.038625594549916e+01, 2.768921480840662e+02
362, 1.500000000001277e-04, 8.399999999997958e-03, 5.794003411374358e-04, -3.804361984028939e-05, 1.645742389766625e+01, -3.657881702430054e+02, 1.986680243461814e+01, 3.843051568686785e+02
363, 2.000000000000511e-04, 8.399999999997083e-03, 5.791633811424407e-04, -4.296885244928106e-05, 1.089263398219471e+01, -4.910818190030203e+02, -1.755070109492432e+01, 5.032002184871339e+02
364, -1.999999999999233e-04, 8.300000000004210e-03, 5.712592463319060e-04, -3.116235734494621e-06, 1.110279067830255e+01, 6.211551160327080e+02, 9.308650354382132e+01, 6.378277418224867e+02
365, -1.499999999998365e-04, 8.300000000003279e-03, 5.710086699613028e-04, -8.035361894069477e-06, 1.557735203248311e+01, 4.709573467734914e+02, 1.050783760442455e+02, 5.015344455356025e+02
366, -9.999999999971485e-05, 8.300000000002344e-03, 5.707602970817261e-04, -1.295357236266599e-05, 1.914875943026596e+01, 3.210654918015067e+02, 1.094407098319755e+02, 3.729112349605923e+02
367, -4.999999999963053e-05, 8.300000000001409e-03, 5.705141139538066e-04, -1.787123919684262e-05, 2.161993739565386e+01, 1.718769836014135e+02, 1.062268391249463e+02, 2.602186490941584e+02
368, 4.231098978124681e-16, 8.300000000000474e-03, 5.702700976614631e-04, -2.278873370647973e-05, 2.279476944189734e+01, 2.378957380538295e+01, 9.549141603844538e+01, 1.909854229616267e+02
369, 5.000000000030276e-05, 8.299999999999542e-03, 5.700282161162257e-04, -2.770642642839699e-05, 2.247713433602954e+01, -1.227990926041669e+02, 7.728997797574759e+01, 2.121323758787084e+02
370, 1.000000000002164e-04, 8.299999999998609e-03, 5.697884280600086e-04, -3.262468708540895e-05, 2.047086872660578e+01, -2.674913915210833e+02, 5.167907821116613e+01, 3.059496230198382e+02
371, 1.500000000001233e-04, 8.299999999997672e-03, 5.695506830655904e-04, -3.754388454528326e-05, 1.657978188979166e+01, -4.098895607666601e+02, 1.871634448119739e+01, 4.281089889605000e+02
372, 2.000000000000492e-04, 8.299999999996739e-03, 5.693149215351842e-04, -4.246438677546133e-05, 1.060724345875909e+01, -5.495959609262134e+02, -2.153932355282979e+01, 5.618570993051928e+02
373, -1.999999999999252e-04, 8.200000000004194e-03, 5.614166127200668e-04, -2.653851535734372e-06, 1.199192695602057e+01, 6.832691240823708e+02, 1.010389710829672e+02, 7.010339293442419e+02
374, -1.499999999998408e-04, 8.200000000003217e-03, 5.611657818381634e-04, -7.567569553492169e-06, 1.657286095644287e+01, 5.173311506066834e+02, 1.128908310382751e+02, 5.493052189661807e+02
375, -9.999999999972244e-05, 8.200000000002240e-03, 5.609173804237396e-04, -1.248033522110994e-05, 2.017943732063074e+01, 3.517698134481692e+02, 1.167154900548047e+02, 4.055147346463939e+02
376, -4.999999999964069e-05, 8.200000000001265e-03, 5.606713930436278e-04, -1.739254023905148e-05, 2.261403247418758e+01, 1.869840857951712e+02, 1.125674082738975e+02, 2.787529372952908e+02
377, 4.102892071228270e-16, 8.200000000000287e-03, 5.604277950437623e-04, -2.230457556980767e-05, 2.367926884546143e+01, 2.337326545087773e+01, 1.005012564730951e+02, 2.010027458736842e+02
378, 5.000000000029257e-05, 8.199999999999309e-03, 5.601865525537281e-04, -2.721683139602132e-05, 2.317763327439155e+01, -1.386636038589666e+02, 8.057259831798483e+01, 2.283864278710563e+02
379, 1.000000000002088e-04, 8.199999999998328e-03, 5.599476224905054e-04, -3.212969708779117e-05, 2.091167096903852e+01, -2.987273261141225e+02, 5.283785049684275e+01, 3.366547819901506e+02
380, 1.500000000001190e-04, 8.199999999997352e-03, 5.597109525580375e-04, -3.704356116867294e-05, 1.668372414817506e+01, -4.564185478213047e+02, 1.735433699749672e+01, 4.743737469476725e+02
381, 2.000000000000473e-04, 8.199999999996377e-03, 5.594764812415104e-04, -4.195881128016699e-05, 1.029557412907855e+01, -6.113377107288740e+02, -2.581969678534283e+01, 6.237744526763151e+02
382, -1.999999999999271e-04, 8.100000000004175e-03, 5.515846506718180e-04, -2.194777624483734e-06, 1.289353021240385e+01, 7.485510623894770e+02, 1.092796663633753e+02, 7.674374154097674e+02
383, -1.499999999998452e-04, 8.100000000003150e-03, 5.513335797245383e-04, -7.102530925501425e-06, 1.758104383122469e+01, 5.660750113489132e+02, 1.209239188745361e+02, 5.994464188125546e+02
384, -9.999999999973005e-05, 8.100000000002133e-03, 5.510851756823047e-04, -1.200929594347626e-05, 2.121983135670399e+01, 3.840443675033584e+02, 1.241431830376167e+02, 4.396450427434384e+02
385, -4.999999999965090e-05, 8.100000000001112e-03, 5.508394213918429e-04, -1.691548413020505e-05, 2.361350291150700e+01, 2.028617459418197e+02, 1.189912373187312e+02, 2.979355481711178e+02
386, 3.974685164331859e-16, 8.100000000000092e-03, 5.505962904412960e-04, -2.182150617969776e-05, 2.456334115731970e+01, 2.292718961594250e+01, 1.055230133725807e+02, 2.110523688490269e+02
387, 5.000000000028236e-05, 8.099999999999071e-03, 5.503557471712164e-04, -2.672777200092469e-05, 2.387113335573235e+01, -1.553588146496532e+02, 8.379406429780471e+01, 2.453755389361208e+02
388, 1.000000000002012e-04, 8.099999999998051e-03, 5.501177466764646e-04, -3.163469069277670e-05, 2.133862482637620e+01, -3.315955600676082e+02, 5.386059234338089e+01, 3.690073068342965e+02
389, 1.500000000001146e-04, 8.099999999997031e-03, 5.498822348041807e-04, -3.654267051908888e-05, 1.676739805943102e+01, -5.053819800366809e+02, 1.577946615980206e+01, 5.231022263910850e+02
390, 2.000000000000454e-04, 8.099999999996011e-03, 5.496491481471612e-04, -4.145211888645853e-05, 9.958716007742389e+00, -6.763165302823868e+02, -3.039178012771248e+01, 6.889617949261790e+02
391, -1.999999999999291e-04, 8.000000000004158e-03, 5.417644838633215e-04, -1.739235757145341e-06, 1.381118127233457e+01, 8.170141929317740e+02, 1.178124617823095e+02, 8.370508840826981e+02
392, -1.499999999998495e-04, 8.000000000003093e-03, 5.415131897202464e-04, -6.640439603790564e-06, 1.860074918140232e+01, 6.171962586150341e+02, 1.291804140831152e+02, 6.519715495670417e+02
393, -9.999999999973761e-05, 8.000000000002028e-03, 5.412648114147244e-04, -1.154062007571275e-05, 2.227053443800941e+01, 4.178973227715252e+02, 1.317238163030733e+02, 4.753159062906224e+02
394, -4.999999999966106e-05, 8.000000000000966e-03, 5.410193300324676e-04, -1.644020843015838e-05, 2.461857071068398e+01, 2.195162396931848e+02, 1.254970032659247e+02, 3.177783703931446e+02
395, 3.846478257435448e-16, 7.999999999999901e-03, 5.407767173929436e-04, -2.133963514572662e-05, 2.544711343545426e+01, 2.245526429972123e+01, 1.105548475855160e+02, 2.211299356936497e+02
396, 5.000000000027218e-05, 7.999999999998840e-03, 5.405369360485376e-04, -2.623932991520731e-05, 2.455794044043660e+01, -1.728835250903323e+02, 8.695260805109214e+01, 2.631086401061075e+02
397, 1.000000000001936e-04, 7.999999999997775e-03, 5.402999392832000e-04, -3.113972162817229e-05, 2.175258233177246e+01, -3.660978125183203e+02, 5.474605381690637e+01, 4.030092435905996e+02
398, 1.500000000001103e-04, 7.999999999996709e-03, 5.400656711074370e-04, -3.604123835329352e-05, 1.683232598247211e+01, -5.567848779172142e+02, 1.399150501280954e+01, 5.742993517842312e+02
399, 2.000000000000435e-04, 7.999999999995648e-03, 5.398340662520850e-04, -4.094430731968946e-05, 9.598321805725178e+00, -7.445414129239209e+02, -3.525420910700956e+01, 7.574286610217123e+02
400, -1.999999999999309e-04, 7.900000000004136e-03, 5.319572914361365e-04, -1.287452615196531e-06, 1.481975059820198e+01, 8.887311021120779e+02, 1.266238733493744e+02, 9.098656337684168e+02
401, -1.499999999998538e-04, 7.900000000003030e-03, 5.317057938195257e-04, -6.181494273859544e-06, 1.968860977846742e+01, 6.707529649929520e+02, 1.376492903493083e+02, 7.068762997622182e+02
402, -9.999999999974523e-05, 7.900000000001926e-03, 5.314574722839906e-04, -1.107447833531357e-05, 2.336389791713975e+01, 4.533653450968782e+02, 1.394490048919688e+02, 5.125283840316658e+02
403, -4.999999999967128e-05, 7.900000000000816e-03, 5.312123062126154e-04, -1.596685588209740e-05, 2.564807310590016e+01, 2.369710289917454e+02, 1.320785061783846e+02, 3.382843757278559e+02
404, 3.718271350539037e-16, 7.899999999999709e-03, 5.309702656952159e-04, -2.085907722577380e-05, 2.634137709501098e+01, 2.197163994357755e+01, 1.155923500347356e+02, 2.312259936706598e+02
405, 5.000000000026201e-05, 7.899999999998603e-03, 5.307313115316840e-04, -2.575159189236786e-05, 2.524441203033198e+01, -1.912303646370982e+02, 9.004543009651842e+01, 2.815919864951446e+02
406, 1.000000000001860e-04, 7.899999999997496e-03, 5.304953952283451e-04, -3.064484861531658e-05, 2.215769000486324e+01, -4.022319651287291e+02, 5.549301614026149e+01, 4.386621464701310e+02
407, 1.500000000001060e-04, 7.899999999996389e-03, 5.302624589928491e-04, -3.553929532244800e-05, 1.688146743805649e+01, -6.106296660983647e+02, 1.199085434852004e+01, 6.279692230230665e+02
408, 2.000000000000416e-04, 7.899999999995286e-03, 5.300324357269966e-04, -4.043537911938000e-05, 9.216083715510941e+00, -8.160191397857492e+02, -4.040471557002046e+01, 8.291823311361330e+02
409, -1.999999999999328e-04, 7.800000000004094e-03, 5.221643121716656e-04, -8.396608471881812e-07, 1.580291014607886e+01, 9.636290855423899e+02, 1.357137405543511e+02, 9.859246098294806e+02
410, -1.499999999998583e-04, 7.800000000002947e-03, 5.219126324423829e-04, -5.725899408499984e-06, 2.075906878851880e+01, 7.266945000260868e+02, 1.463268645437526e+02, 7.641930634501952e+02
411, -9.999999999975283e-05, 7.800000000001799e-03, 5.216644006285772e-04, -1.061104703416959e-05, 2.444650702390024e+01, 4.904203150750257e+02, 1.473157305648772e+02, 5.513068906490478e+02
412, -4.999999999968147e-05, 7.800000000000654e-03, 5.214195943689759e-04, -1.549557466973831e-05, 2.666767653342828e+01, 2.552097796671088e+02, 1.387334147995412e+02, 3.594709090212059e+02
413, 3.590064443642627e-16, 7.799999999999507e-03, 5.211781820158781e-04, -2.037995247882102e-05, 2.722395203707373e+01, 2.146611615827174e+01, 1.206341233626433e+02, 2.413369419543990e+02
414, 5.000000000025183e-05, 7.799999999998360e-03, 5.209401226206902e-04, -2.526464985888431e-05, 2.591614489539917e+01, -2.104068773243251e+02, 9.307220147514300e+01, 3.008293695449012e+02
415, 1.000000000001784e-04, 7.799999999997211e-03, 5.207053659246671e-04, -3.015013543048703e-05, 2.254464863501110e+01, -4.400049116052674e+02, 5.610238886368393e+01, 4.759642925927564e+02
416, 1.500000000001016e-04, 7.799999999996065e-03, 5.204738523513876e-04, -3.503687702518872e-05, 1.690949607849009e+01, -6.669232171562295e+02, 9.779835940797245e+00, 6.841123887593864e+02
417, 2.000000000000397e-04, 7.799999999994919e-03, 5.202455129995309e-04, -3.992534167526416e-05, 8.809530217290970e+00, -8.907572419655296e+02, -4.583981190318920e+01, 9.042264821584787e+02
418, -1.999999999999347e-04, 7.700000000003952e-03, 5.123868391018752e-04, -3.960988058376984e-07, 1.681727235834030e+01, 1.041765392636850e+03, 1.450823534232286e+02, 1.065229649588172e+03
419, -1.499999999998626e-04, 7.700000000002785e-03, 5.121350011816789e-04, -5.273865022111139e-06, 2.184521252157343e+01, 7.850589837241948e+02, 1.552168281963213e+02, 8.239322275373338e+02
420, -9.999999999976044e-05, 7.700000000001617e-03, 5.118868944732093e-04, -1.015050794442295e-05, 2.553417673625863e+01, 5.290855438366164e+02, 1.553261067259203e+02, 5.916661026551776e+02
421, -4.999999999969162e-05, 7.700000000000449e-03, 5.116424949195717e-04, -1.502651832202130e-05, 2.768413228668162e+01, 2.742462434624373e+02, 1.454634609372314e+02, 3.813546230725352e+02
422, 3.461857536746216e-16, 7.699999999999279e-03, 5.114017691659914e-04, -1.990238619463192e-05, 2.809655446688966e+01, 2.094561196253686e+01, 1.256818395733773e+02, 2.514653756939375e+02
423, 5.000000000024164e-05, 7.699999999998113e-03, 5.111646745390132e-04, -2.477860086355009e-05, 2.657178805918730e+01, -2.304116011653808e+02, 9.603480145159570e+01, 3.208289181117181e+02
424, 1.000000000001708e-04, 7.699999999996944e-03, 5.109311590343498e-04, -2.965565087609310e-05, 2.290964247582966e+01, -4.794201429126246e+02, 5.657641498418504e+01, 5.149162807857811e+02
425, 1.500000000000973e-04, 7.699999999995776e-03, 5.107011613086052e-04, -3.453402400874684e-05, 1.690957454414772e+01, -7.256742734594831e+02, 7.361258413289942e+00, 7.427297784642732e+02
426, 2.000000000000377e-04, 7.699999999994609e-03, 5.104746106738986e-04, -3.941420725140854e-05, 8.370997994087006e+00, -9.687675624581856e+02, -5.155589646467405e+01, 9.825638952067414e+02
427, -1.999999999999367e-04, 7.600000000003967e-03, 5.026262221682918e-04, 4.299036341747241e-08, 1.785488711221497e+01, 1.123142231306256e+03, 1.547252899571826e+02, 1.147789081079295e+03
428, -1.499999999998669e-04, 7.600000000002791e-03, 5.023742522833442e-04, -4.825606214682171e-06, 2.294607955653271e+01, 8.458555498487724e+02, 1.643146929106705e+02, 8.861022906651162e+02
429, -9.999999999976803e-05, 7.600000000001615e-03, 5.021263083759881e-04, -9.693047938684828e-06, 2.662530082205951e+01, 5.693674562172060e+02, 1.634790123855049e+02, 6.336170745845866e+02
430, -4.999999999970180e-05, 7.600000000000435e-03, 5.018823647616352e-04, -1.455984543900897e-05, 2.869690782048242e+01, 2.940853992049704e+02, 1.522691805088220e+02, 4.039488391995294e+02
431, 3.333650629849805e-16, 7.599999999999259e-03, 5.016423864194037e-04, -1.942650867083597e-05, 2.896039558001704e+01, 2.041392915285324e+01, 1.307372280842415e+02, 2.616140923516824e+02
432, 5.000000000023146e-05, 7.599999999998081e-03, 5.014063289823429e-04, -2.429354688550604e-05, 2.721508659585432e+01, -2.512414669324924e+02, 9.893589459544191e+01, 3.416010789802728e+02
433, 1.000000000001632e-04, 7.599999999996904e-03, 5.011741387282055e-04, -2.916146860341152e-05, 2.325997056007992e+01, -5.204746632675073e+02, 5.691856976011588e+01, 5.555233985691054e+02
434, 1.500000000000929e-04, 7.599999999995727e-03, 5.009457525727059e-04, -3.403078159068212e-05, 1.689390902546609e+01, -7.868788416432801e+02, 4.739247999640060e+00, 8.038286363423555e+02
435, 2.000000000000358e-04, 7.599999999994550e-03, 5.007210980658001e-04, -3.890199283817953e-05, 7.916534883210659e+00, -1.050046036957100e+03, -5.754730778042821e+01, 1.064204667320185e+03
436, -1.999999999999386e-04, 7.500000000004145e-03, 4.928838682105593e-04, 4.773580131269573e-07, 1.887386910644014e+01, 1.207733615375359e+03, 1.646435241804326e+02, 1.233619656343400e+03
437, -1.499999999998712e-04, 7.500000000002950e-03, 4.926317946242448e-04, -4.381343303354495e-06, 2.402597896520551e+01, 9.090592188290972e+02, 1.736239096074505e+02, 9.507180884013312e+02
438, -9.999999999977570e-05, 7.500000000001755e-03, 4.923840534005390e-04, -9.238858984444930e-06, 2.770038746773550e+01, 6.112530558447500e+02, 1.717775158244968e+02, 6.771733725873123e+02
439, -4.999999999971198e-05, 7.500000000000564e-03, 4.921406172266120e-04, -1.409571960419053e-05, 2.969481311692829e+01, 3.147197349073539e+02, 1.591538607727706e+02, 4.272692495805802e+02
440, 3.205443722953394e-16, 7.499999999999370e-03, 4.919014494280379e-04, -1.895245509224209e-05, 2.980904647681298e+01, 1.986601024996229e+01, 1.358041118873885e+02, 2.717901602183159e+02
441, 5.000000000022125e-05, 7.499999999998177e-03, 4.916665039615155e-04, -2.380959469743698e-05, 2.784226942433907e+01, -2.729010886542322e+02, 1.017802102922875e+02, 3.631575584466677e+02
442, 1.000000000001556e-04, 7.499999999996980e-03, 4.914357254080249e-04, -2.866766695985061e-05, 2.359326784879387e+01, -5.631739735434234e+02, 5.713478251804561e+01, 5.977903721745357e+02
443, 1.500000000000885e-04, 7.499999999995787e-03, 4.912090489649712e-04, -3.352719968510545e-05, 1.686045028845800e+01, -8.505444754313196e+02, 1.921180853580896e+00, 8.674134359729629e+02
444, 2.000000000000339e-04, 7.499999999994593e-03, 4.909864004391880e-04, -3.838871991349211e-05, 7.441449304797366e+00, -1.134604225584819e+03, -6.380636523394337e+01, 1.149153311143273e+03
445, -1.999999999999404e-04, 7.400000000004559e-03, 4.831612387123275e-04, 9.067510248367133e-07, 1.996046240370538e+01, 1.295612578910218e+03, 1.748263044764746e+02, 1.322703772314553e+03
446, -1.499999999998756e-04, 7.400000000003323e-03, 4.829090925200167e-04, -3.941301172704492e-06, 2.515179038698012e+01, 9.747258405979578e+02, 1.831380665571095e+02, 1.017766713212407e+03
447, -9.999999999978329e-05, 7.400000000002085e-03, 4.826615965118834e-04, -8.788137661373931e-06, 2.880049987645241e+01, 6.547766055522892e+02, 1.802175448807966e+02, 7.223292454335033e+02
448, -4.999999999972218e-05, 7.400000000000849e-03, 4.824187218128818e-04, -1.363430905043167e-05, 3.070277265198935e+01, 3.361700766236455e+02, 1.661154141758964e+02, 4.513176233020716e+02
449, 3.077507866600104e-16, 7.399999999999613e-03, 4.821804301458912e-04, -1.848036530840223e-05, 3.065638857044237e+01, 1.931316274553801e+01, 1.408822295555825e+02, 2.819926935052080e+02
450, 5.000000000021107e-05, 7.399999999998373e-03, 4.819466738359829e-04, -2.332685573578977e-05, 2.845934528189774e+01, -2.953863767506775e+02, 1.045691768961829e+02, 3.855060345906155e+02
451, 1.000000000001480e-04, 7.399999999997137e-03, 4.817173958058522e-04, -2.817432894372563e-05, 2.390935806324194e+01, -6.075201185642145e+02, 5.722805328990801e+01, 6.417190851824761e+02
452, 1.500000000000842e-04, 7.399999999995899e-03, 4.814925295679010e-04, -3.302333283200298e-05, 1.680355434810805e+01, -9.166790734731637e+02, -1.088700123724564e+00, 9.334851672715236e+02
453, 2.000000000000320e-04, 7.399999999994663e-03, 4.812719992116435e-04, -3.787441456717056e-05, 6.938130989047451e+00, -1.222453717171204e+03, -7.032792973307006e+01, 1.237411971465056e+03
454, -1.999999999999424e-04, 7.300000000004963e-03, 4.734598545746268e-04, 1.330911400354672e-06, 2.105685056915711e+01, 1.386747046762636e+03, 1.852631663483105e+02, 1.415061650671302e+03
455, -1.499999999998800e-04, 7.300000000003675e-03, 4.732076687977442e-04, -3.505709464103140e-06, 2.628816505616000e+01, 1.042837533045498e+03, 1.928455947729940e+02, 1.087258162191907e+03
456, -9.999999999979085e-05, 7.300000000002383e-03, 4.729604626153475e-04, -8.341085251822491e-06, 2.990577484281712e+01, 6.999295662103389e+02, 1.887905896411689e+02, 7.690899999003688e+02
457, -4.999999999973237e-05, 7.300000000001096e-03, 4.727182055863846e-04, -1.317578668326410e-05, 3.170918264451855e+01, 3.584321362756313e+02, 1.731480456927774e+02, 4.760975439322816e+02
458, 2.949029909160572e-16, 7.299999999999806e-03, 4.724808578530793e-04, -1.801038382061307e-05, 3.149582125339691e+01, 1.875310891974807e+01, 1.459681678272120e+02, 2.922143062770039e+02
459, 5.000000000020089e-05, 7.299999999998517e-03, 4.722483701386282e-04, -2.284544606854703e-05, 2.906296487695747e+01, -3.186989137448339e+02, 1.073014437234108e+02, 4.086474318077512e+02
460, 1.000000000001404e-04, 7.299999999997227e-03, 4.720206837416372e-04, -2.768154216101407e-05, 2.420756910764788e+01, -6.535145621262633e+02, 5.719881164307063e+01, 6.873093214686911e+02
461, 1.500000000000799e-04, 7.299999999995936e-03, 4.717977305269478e-04, -3.251924014657566e-05, 1.672619031831333e+01, -9.852835891530706e+02, -4.288307142205774e+00, 1.002046484185676e+03
462, 2.000000000000302e-04, 7.299999999994650e-03, 4.715794329138402e-04, -3.735910737579487e-05, 6.414664909034585e+00, -1.313594971112722e+03, -7.710807036323325e+01, 1.328987606131394e+03
463, -1.999999999999443e-04, 7.200000000005343e-03, 4.637812939912535e-04, 1.749575791496474e-06, 2.215894436723069e+01, 1.481146985754090e+03, 1.959517460852324e+02, 1.510706606884761e+03
464, -1.499999999998843e-04, 7.200000000003976e-03, 4.635291036740864e-04, -3.074802876678014e-06, 2.742365192416072e+01, 1.113396076696268e+03, 2.027438266209268e+02, 1.159205048426289e+03
465, -9.999999999979844e-05, 7.200000000002606e-03, 4.632822339906901e-04, -7.897907923640256e-06, 3.100721426928067e+01, 7.467134759629888e+02, 1.974931877090029e+02, 8.174654058695306e+02
466, -4.999999999974257e-05, 7.200000000001237e-03, 4.630406529368067e-04, -1.272033016686279e-05, 3.270757256739529e+01, 3.815070920682570e+02, 1.802488643224879e+02, 5.016171021428781e+02
467, 2.821094052807283e-16, 7.199999999999870e-03, 4.628043190898164e-04, -1.754265979192033e-05, 3.232272813915978e+01, 1.818608006060553e+01, 1.510601637161985e+02, 3.024508837261940e+02
468, 5.000000000019069e-05, 7.199999999998501e-03, 4.625731815975755e-04, -2.236548634366502e-05, 2.964984235337667e+01, -3.428399582134888e+02, 1.099766788292805e+02, 4.325830915230254e+02
469, 1.000000000001328e-04, 7.199999999997132e-03, 4.623471801682112e-04, -2.718939871943128e-05, 2.448547435661601e+01, -7.011606840612520e+02, 5.704833647922864e+01, 7.345613643575318e+02
470, 1.500000000000756e-04, 7.199999999995762e-03, 4.621262450585091e-04, -3.201498515952271e-05, 1.662558005028934e+01, -1.056364943458271e+03, -7.674528651367048e+00, 1.073100301509256e+03
471, 2.000000000000282e-04, 7.199999999994395e-03, 4.619102970611728e-04, -3.684283323485411e-05, 5.866164281723272e+00, -1.408040147764670e+03, -8.414119773471732e+01, 1.423885537488728e+03
472, -1.999999999999461e-04, 7.100000000005715e-03, 4.541271920102260e-04, 2.162476388434112e-06, 2.329946979096653e+01, 1.578846591553894e+03, 2.068824251330407e+02, 1.609636045614238e+03
473, -1.499999999998886e-04, 7.100000000004259e-03, 4.538750344702349e-04, -2.648820712091395e-06, 2.858101674549633e+01, 1.186428596548126e+03, 2.128254807137623e+02, 1.233608430183169e+03
474, -9.999999999980600e-05, 7.100000000002804e-03, 4.536285501463608e-04, -7.458816436623005e-06, 3.211696639767889e+01, 7.951459515265185e+02, 2.063200657286275e+02, 8.674589962850162e+02
475, -4.999999999975274e-05, 7.100000000001348e-03, 4.533877055273292e-04, -1.226812171899014e-05, 3.370491193302733e+01, 4.054067654124822e+02, 1.874143578129718e+02, 5.278814582250986e+02
476, 2.692616095367750e-16, 7.099999999999895e-03, 4.531524576717939e-04, -1.707734688386634e-05, 3.314200033814920e+01, 1.762014106079147e+01, 1.561566136224189e+02, 3.126987048702182e+02
477, 5.000000000018050e-05, 7.099999999998441e-03, 4.529227541982596e-04, -2.188710164245404e-05, 3.022499386781580e+01, -3.678037290188505e+02, 1.125953404927958e+02, 4.573157629532849e+02
478, 1.000000000001252e-04, 7.099999999996985e-03, 4.526985332728883e-04, -2.669799508631973e-05, 2.475006012136470e+01, -7.504537564087257e+02, 5.677935078880549e+01, 7.834772082625065e+02
479, 1.500000000000712e-04, 7.099999999995530e-03, 4.524797235973441e-04, -3.151063567966595e-05, 1.651280016056694e+01, -1.129917896324123e+03, -1.124220618225150e+01, 1.146651163450223e+03
480, 2.000000000000263e-04, 7.099999999994075e-03, 4.522662443956441e-04, -3.632563125210337e-05, 5.307964609034784e+00, -1.505783388745636e+03, -9.141960936155195e+01, 1.522112761291530e+03
481, -1.999999999999481e-04, 7.000000000006086e-03, 4.444992422673375e-04, 2.569340743228110e-06, 2.443565961917176e+01, 1.679821619758251e+03, 2.180471086676114e+02, 1.711864726962619e+03
482, -1.499999999998929e-04, 7.000000000004546e-03, 4.442471566345103e-04, -2.228006848321726e-06, 2.973183926673245e+01, 1.261921484870614e+03, 2.230839299689724e+02, 1.310479714446212e+03
483, -9.999999999981362e-05, 7.000000000003004e-03, 4.440011084212936e-04, -7.024026089799488e-06, 3.321646895015101e+01, 8.452202337743720e+02, 2.152665308344469e+02, 9.190804269914034e+02
484, -4.999999999976293e-05, 7.000000000001462e-03, 4.437610626361306e-04, -1.181934804002774e-05, 3.468767388265880e+01, 4.301268044554025e+02, 1.946417612412739e+02, 5.548997809195349e+02
485, 2.564544713742900e-16, 6.999999999999921e-03, 4.435269748544621e-04, -1.661460317856568e-05, 3.394280298479097e+01, 1.705119765252421e+01, 1.612566974907024e+02, 3.229554400736001e+02
486, 5.000000000017032e-05, 6.999999999998381e-03, 4.432987912021111e-04, -2.141042140350673e-05, 3.077829252613819e+01, -3.935958177105665e+02, 1.151586670844145e+02, 4.828451717246750e+02
487, 1.000000000001176e-04, 6.999999999996837e-03, 4.430764483420099e-04, -2.620743202406954e-05, 2.498991507234989e+01, -8.014025162856375e+02, 5.639530047684914e+01, 8.340540571625213e+02
488, 1.500000000000668e-04, 6.999999999995296e-03, 4.428598734606671e-04, -3.100626375423805e-05, 1.637276293297683e+01, -1.205956220543875e+03, -1.498544627175042e+01, 1.222696363880832e+03
489, 2.000000000000244e-04, 6.999999999993755e-03, 4.426489842542325e-04, -3.580754470538583e-05, 4.720741078125641e+00, -1.606843612989016e+03, -9.893544578750377e+01, 1.623666393392599e+03
490, -1.999999999999499e-04, 6.900000000006458e-03, 4.348991953956469e-04, 2.969891967959938e-06, 2.558773347738179e+01, 1.784097274062636e+03, 2.294388482922765e+02, 1.817394988645040e+03
491, -1.499999999998973e-04, 6.900000000004828e-03, 4.346472228272643e-04, -1.812609574367857e-06, 3.088598951055803e+01, 1.339890946909016e+03, 2.335140372936423e+02, 1.389823442364693e+03
492, -9.999999999982122e-05, 6.900000000003202e-03, 4.344016634661058e-04, -6.593756554786911e-06, 3.430996346441140e+01, 8.969466472425131e+02, 2.243290028602372e+02, 9.723353610235279e+02
493, -4.999999999977310e-05, 6.900000000001573e-03, 4.341624808990617e-04, -1.137420015967499e-05, 3.565800620495034e+01, 4.556743872858068e+02, 2.019291424671490e+02, 5.826793927078011e+02
494, 2.436337806846489e-16, 6.899999999999946e-03, 4.339296292657429e-04, -1.615459104263530e-05, 3.472662171775762e+01, 1.648422014227195e+01, 1.663601604751004e+02, 3.332200431973532e+02
495, 5.000000000016015e-05, 6.899999999998319e-03, 4.337030532463447e-04, -2.093557930786420e-05, 3.131172487212663e+01, -4.202127093876931e+02, 1.176681057305744e+02, 5.091732977666217e+02
496, 1.000000000001100e-04, 6.899999999996692e-03, 4.334826880477166e-04, -2.571781450397897e-05, 2.520858356486397e+01, -8.540041779185397e+02, 5.589931792123572e+01, 8.862922852713489e+02
497, 1.500000000000625e-04, 6.899999999995065e-03, 4.332684593893499e-04, -3.050194561728303e-05, 1.621180140520349e+01, -1.284476902369505e+03, -1.889956655753223e+01, 1.301237825530514e+03
498, 2.000000000000225e-04, 6.899999999993437e-03, 4.330602834891790e-04, -3.528862106766526e-05, 4.115974406869015e+00, -1.711216029197079e+03, -1.066816145905482e+02, 1.728550765859805e+03
499, -1.999999999999519e-04, 6.800000000006828e-03, 4.253288599592748e-04, 3.363849005089344e-06, 2.673698819404962e+01, 1.891663936617136e+03, 2.410497629457747e+02, 1.926232715904156e+03
500, -1.499999999999017e-04, 6.800000000005111e-03, 4.250770434383397e-04, -1.402881352845449e-06, 3.203054206998945e+01, 1.420331304554099e+03, 2.441101256714399e+02, 1.471644665309960e+03
501, -9.999999999982880e-05, 6.800000000003401e-03, 4.248320275393273e-04, -6.168231639021288e-06, 3.539033149016024e+01, 9.503237512199181e+02, 2.335039073125963e+02, 1.027229020939044e+03
502, -4.999999999978328e-05, 6.800000000001686e-03, 4.245937744648344e-04, -1.093287320841268e-05, 3.661201044953512e+01, 4.820498822345593e+02, 2.092749146305895e+02, 6.112273367536285e+02
503, 2.308130899950078e-16, 6.799999999999972e-03, 4.243622369649661e-04, -1.569747690180405e-05, 3.549195360587854e+01, 1.592027241366186e+01, 1.714675656489076e+02, 3.434931658460464e+02
504, 5.000000000014997e-05, 6.799999999998255e-03, 4.241373583240909e-04, -2.046271304639527e-05, 3.182597509679417e+01, -4.476532314281543e+02, 1.201264931759484e+02, 5.363038382678227e+02
505, 1.000000000001024e-04, 6.799999999996542e-03, 4.239190723456005e-04, -2.522925144916522e-05, 2.540916501577870e+01, -9.082576458916254e+02, 5.529663351802409e+01, 9.401939079273537e+02
506, 1.500000000000582e-04, 6.799999999994830e-03, 4.237073033365321e-04, -2.999776139011780e-05, 1.603597963041886e+01, -1.365478803814424e+03, -2.297673075618079e+01, 1.382278849401096e+03
507, 2.000000000000206e-04, 6.799999999993115e-03, 4.235019660938908e-04, -3.476891161330767e-05, 3.500140016590080e+00, -1.818901567152044e+03, -1.146478541309497e+02, 1.836770128273671e+03
508, -1.999999999999538e-04, 6.700000000007203e-03, 4.157901017402659e-04, 3.750926894648441e-06, 2.790295737915986e+01, 2.002542627856854e+03, 2.528681504536750e+02, 2.038374605974012e+03
509, -1.499999999999060e-04, 6.700000000005407e-03, 4.155384862269191e-04, -9.990785076940594e-07, 3.318179386852145e+01, 1.503260661414296e+03, 2.548640045100859e+02, 1.555941682706757e+03
510, -9.999999999983645e-05, 6.700000000003612e-03, 4.152940703123324e-04, -5.747679034145438e-06, 3.646682163077222e+01, 1.005363816334107e+03, 2.427856204558637e+02, 1.083762343111121e+03
511, -4.999999999979346e-05, 6.700000000001816e-03, 4.150568148779825e-04, -1.049556620175535e-05, 3.755419168776277e+01, 5.092610003932083e+02, 2.166763185074367e+02, 6.405480632917566e+02
512, 2.179923993053667e-16, 6.700000000000018e-03, 4.148266713490150e-04, -1.524343105399201e-05, 3.624016048797279e+01, 1.536339781678512e+01, 1.765789516904564e+02, 3.537744252204097e+02
513, 5.000000000013978e-05, 6.699999999998221e-03, 4.146035816760565e-04, -1.999196415762532e-05, 3.232010759019840e+01, -4.759166268310693e+02, 1.225366355330962e+02, 5.642388558104428e+02
514, 1.000000000000948e-04, 6.699999999996424e-03, 4.143874783179655e-04, -2.474185559811759e-05, 2.558860047714438e+01, -9.641655175627633e+02, 5.459280901507242e+01, 9.957583609297891e+02
515, 1.500000000000538e-04, 6.699999999994629e-03, 4.141782842253228e-04, -2.949379497184313e-05, 1.583934047364613e+01, -1.448968615699764e+03, -2.720869704671313e+01, 1.465818406641437e+03
516, 2.000000000000187e-04, 6.699999999992831e-03, 4.139759128236316e-04, -3.424847137565546e-05, 2.865113529082947e+00, -1.929910168388117e+03, -1.228236275487237e+02, 1.948323090333588e+03
517, -1.999999999999557e-04, 6.600000000007607e-03, 4.062848451457116e-04, 4.130836913127430e-06, 2.907527010273404e+01, 2.116736094457970e+03, 2.648818353264571e+02, 2.153828513204158e+03
518, -1.499999999999103e-04, 6.600000000005753e-03, 4.060334772246025e-04, -6.014611792565480e-07, 3.433000716566440e+01, 1.588681806586308e+03, 2.657648620499278e+02, 1.642721328760256e+03
519, -9.999999999984406e-05, 6.600000000003900e-03, 4.057897194599795e-04, -5.332330234120049e-06, 3.753137819258257e+01, 1.062068897357346e+03, 2.521672404226589e+02, 1.141941503206624e+03
520, -4.999999999980367e-05, 6.600000000002050e-03, 4.055535314814981e-04, -1.006248194046368e-05, 3.847844077030700e+01, 5.373093565931009e+02, 2.241298364042330e+02, 6.706482064741248e+02
521, 2.051717086157256e-16, 6.600000000000198e-03, 4.053248634534890e-04, -1.479262755847388e-05, 3.696685570520515e+01, 1.481466458431674e+01, 1.816938929274288e+02, 3.640623607020536e+02
522, 5.000000000012958e-05, 6.599999999998345e-03, 4.051036560537529e-04, -1.952347791642760e-05, 3.279132665912391e+01, -5.050024245476459e+02, 1.249009533346113e+02, 5.929781711097197e+02
523, 1.000000000000872e-04, 6.599999999996491e-03, 4.048898404556560e-04, -2.425574340231299e-05, 2.574573953176048e+01, -1.021727862179961e+03, 5.379292041434893e+01, 1.052984168651050e+03
524, 1.500000000000495e-04, 6.599999999994639e-03, 4.046833383109839e-04, -2.899013395544556e-05, 1.562320667609211e+01, -1.534946280689267e+03, -3.158793444310236e+01, 1.551855961601462e+03
525, 2.000000000000168e-04, 6.599999999992787e-03, 4.044840617326631e-04, -3.372735906010449e-05, 2.215872853801997e+00, -2.044241160880203e+03, -1.311989262771465e+02, 2.063210853001817e+03
526, -1.999999999999576e-04, 6.500000000008018e-03, 3.968150728444621e-04, 4.503286294369466e-06, 3.021998817145328e+01, 2.234227236428691e+03, 2.770838331590745e+02, 2.272608578872072e+03
527, -1.499999999999147e-04, 6.500000000006126e-03, 3.965640004809019e-04, -2.102934051961639e-07, 3.544595948277862e+01, 1.676579529167012e+03, 2.768089071523672e+02, 1.731996558270271e+03
528, -9.999999999985163e-05, 6.500000000004228e-03, 3.963209604975303e-04, -4.922420524653693e-06, 3.856453235374411e+01, 1.120430069394963e+03, 2.616464278166060e+02, 1.201777206055368e+03
529, -4.999999999981387e-05, 6.500000000002332e-03, 3.960859113199776e-04, -9.633826926260477e-06, 3.937183965539188e+01, 5.661896288855887e+02, 2.316349594910846e+02, 7.015383103460121e+02
530, 1.923510179260846e-16, 6.500000000000438e-03, 3.958588018985008e-04, -1.434524410535394e-05, 3.766344607210115e+01, 1.427053136456362e+01, 1.868139362408344e+02, 3.743594737063460e+02
531, 5.000000000011942e-05, 6.499999999998543e-03, 3.956395716881705e-04, -1.905740317098789e-05, 3.323383487071476e+01, -5.349137279367571e+02, 1.272232274149327e+02, 6.225228120314604e+02
532, 1.000000000000796e-04, 6.499999999996646e-03, 3.954281506300904e-04, -2.377103483606636e-05, 2.587655974058808e+01, -1.080948338182499e+03, 5.290307221309255e+01, 1.111870628652806e+03
533, 1.500000000000451e-04, 6.499999999994751e-03, 3.952244591325989e-04, -2.848686940875603e-05, 1.538428342308760e+01, -1.623417151571730e+03, -3.610589285574141e+01, 1.640391625599422e+03
534, 2.000000000000149e-04, 6.499999999992855e-03, 3.950284080530118e-04, -3.320563678234912e-05, 1.549042172835328e+00, -2.161902463375421e+03, -1.397627031047366e+02, 2.181434589799929e+03
535, -1.999999999999595e-04, 6.400000000008258e-03, 3.873828240544042e-04, 4.867979014893312e-06, 3.137252824367664e+01, 2.355046522517247e+03, 2.894639598414994e+02, 2.394706321838186e+03
536, -1.499999999999190e-04, 6.400000000006336e-03, 3.871320970115495e-04, 1.741574520961411e-07, 3.655729353956818e+01, 1.766978047350721e+03, 2.879896566101423e+02, 1.823762088233569e+03
537, -9.999999999985919e-05, 6.400000000004416e-03, 3.868898361535546e-04, -4.518188521241152e-06, 3.958362864832577e+01, 1.180463375291364e+03, 2.712192478698894e+02, 1.263268030926421e+03
538, -4.999999999982406e-05, 6.400000000002495e-03, 3.866559987795234e-04, -9.209810986848566e-06, 4.024549725318496e+01, 5.959126131692437e+02, 2.391901782680083e+02, 7.332214598809810e+02
539, 1.795438797635995e-16, 6.400000000000575e-03, 3.864305326970914e-04, -1.390146169542409e-05, 3.833755151022064e+01, 1.373824880056799e+01, 1.919401477872258e+02, 3.846676578868172e+02
540, 5.000000000010922e-05, 6.399999999998654e-03, 3.862133762085589e-04, -1.859389205628993e-05, 3.365385231135608e+01, -5.656456091908912e+02, 1.295072179342972e+02, 6.528769581974919e+02
541, 1.000000000000720e-04, 6.399999999996736e-03, 3.860044580922165e-04, -2.328785312863654e-05, 2.598754780489730e+01, -1.141823435253725e+03, 5.192982312746284e+01, 1.172420282267645e+03
542, 1.500000000000408e-04, 6.399999999994814e-03, 3.858036975829527e-04, -2.798409561282670e-05, 1.513083814487487e+01, -1.714378293536097e+03, -4.075321112656459e+01, 1.731428639429409e+03
543, 2.000000000000129e-04, 6.399999999992895e-03, 3.856110043523836e-04, -3.268336984244172e-05, 8.750983396805054e-01, -2.282891770371130e+03, -1.485025007128662e+02, 2.302998715043732e+03
544, -1.999999999999615e-04, 6.300000000008254e-03, 3.779901965772125e-04, 5.224616079535087e-06, 3.252694224190481e+01, 2.479193909020281e+03, 3.020062730065868e+02, 2.520121108610818e+03
545, -1.499999999999234e-04, 6.300000000006307e-03, 3.777398661081210e-04, 5.516210605002921e-07, 3.766378003298985e+01, 1.859881114024406e+03, 2.992941409423189e+02, 1.918015626502659e+03
546, -9.999999999986685e-05, 6.300000000004357e-03, 3.774984472100626e-04, -4.119875853022090e-06, 4.058960090379168e+01, 1.242173041963066e+03, 2.808769504432003e+02, 1.326412534239983e+03
547, -4.999999999983422e-05, 6.300000000002410e-03, 3.772658961206849e-04, -8.790646989778010e-06, 4.109987153312397e+01, 6.264814427352946e+02, 2.467907682862971e+02, 7.656985811326055e+02
548, 1.667096365468024e-16, 6.300000000000461e-03, 3.770421595803810e-04, -1.346146437846078e-05, 3.898902271888446e+01, 1.321947520063290e+01, 1.970715739042959e+02, 3.949846712769507e+02
549, 5.000000000009904e-05, 6.299999999998514e-03, 3.768271748134759e-04, -1.813309975016531e-05, 3.405055551393508e+01, -5.971982349786242e+02, 1.317555870612310e+02, 6.840417928648201e+02
550, 1.000000000000644e-04, 6.299999999996569e-03, 3.766208695090887e-04, -2.280632453263221e-05, 2.607703311724430e+01, -1.204355567787252e+03, 5.087936891674012e+01, 1.234633235456614e+03
551, 1.500000000000364e-04, 6.299999999994618e-03, 3.764231618010520e-04, -2.748190984338084e-05, 1.486005457180872e+01, -1.807834893674848e+03, -4.552012875239181e+01, 1.824967178567993e+03
552, 2.000000000000111e-04, 6.299999999992672e-03, 3.762339602472640e-04, -3.216062648109917e-05, 1.898122824301254e-01, -2.407217376229154e+03, -1.574055793586056e+02, 2.427903506515471e+03
553, -1.999999999999633e-04, 6.200000000008235e-03, 3.686393470092436e-04, 5.572895375312998e-06, 3.367613402668999e+01, 2.606674895291028e+03, 3.146961299896388e+02, 2.648859611680023e+03
554, -1.499999999999277e-04, 6.200000000006244e-03, 3.683894655952354e-04, 9.218240514694874e-07, 3.875576037266930e+01, 1.955290538025070e+03, 3.107104412528664e+02, 2.014762881126546e+03
555, -9.999999999987445e-05, 6.200000000004252e-03, 3.681489527417637e-04, -3.727727135089598e-06, 4.157465546877549e+01, 1.305560230217006e+03, 2.906111192871031e+02, 1.391214873333672e+03
556, -4.999999999984441e-05, 6.200000000002263e-03, 3.679177636952379e-04, -8.376550753184545e-06, 4.192928951294425e+01, 6.578970169099471e+02, 2.544319608306037e+02, 7.989735489758417e+02
557, 1.538618408028491e-16, 6.200000000000271e-03, 3.676958441990622e-04, -1.302543912672316e-05, 3.961377857637734e+01, 1.271454436600283e+01, 2.022070092488600e+02, 4.053076204052656e+02
558, 5.000000000008886e-05, 6.199999999998280e-03, 3.674831304714690e-04, -1.767518432914160e-05, 3.442104500581908e+01, -6.295721532723657e+02, 1.339705840482769e+02, 7.160163663776398e+02
559, 1.000000000000568e-04, 6.199999999996288e-03, 3.672795491850848e-04, -2.232657817906375e-05, 2.614299539526712e+01, -1.268546486093636e+03, 4.975730618346644e+01, 1.298508379469515e+03
560, 1.500000000000321e-04, 6.199999999994299e-03, 3.670850174459546e-04, -2.698041223505286e-05, 1.457048766139732e+01, -1.903790289737157e+03, -5.039786838699997e+01, 1.921006989267088e+03
561, 2.000000000000091e-04, 6.199999999992307e-03, 3.668994427712271e-04, -3.163747779100233e-05, -5.064008692233699e-01, -2.534883536170935e+03, -1.664596449109670e+02, 2.556149979456536e+03
562, -1.999999999999653e-04, 6.100000000008216e-03, 3.593324903918463e-04, 5.912511815132825e-06, 3.480218823837600e+01, 2.737483574363937e+03, 3.275220172299727e+02, 2.780929585946244e+03
563, -1.499999999999321e-04, 6.100000000006179e-03, 3.590831115933207e-04, 1.284490127172879e-06, 3.981832093241192e+01, 2.053201913348192e+03, 3.222302453217533e+02, 2.114011072395208e+03
564, -9.999999999988203e-05, 6.100000000004146e-03, 3.588435699856317e-04, -3.341989829262934e-06, 4.252841692842304e+01, 1.370622849815396e+03, 3.004160442852901e+02, 1.457681042382542e+03
565, -4.999999999985460e-05, 6.100000000002112e-03, 3.586138198901589e-04, -7.967740874516332e-06, 4.272715058376289e+01, 6.901588260425494e+02, 2.621108246029179e+02, 8.330522864043156e+02
566, 1.410275975860520e-16, 6.100000000000079e-03, 3.583938061188577e-04, -1.259357563769283e-05, 4.020831272936468e+01, 1.222384368018217e+01, 2.073465900698829e+02, 4.156363364317379e+02
567, 5.000000000007866e-05, 6.099999999998046e-03, 3.581834639541442e-04, -1.722030654853326e-05, 3.476463829580217e+01, -6.627664883027246e+02, 1.361556182080656e+02, 7.488010964550546e+02
568, 1.000000000000492e-04, 6.099999999996011e-03, 3.579827191272862e-04, -2.184874583341822e-05, 2.618777601476503e+01, -1.334394912516320e+03, 4.857045532971248e+01, 1.364046043524271e+03
569, 1.500000000000277e-04, 6.099999999993980e-03, 3.577914877958312e-04, -2.647970551209009e-05, 1.426831023302864e+01, -2.002242460720332e+03, -5.537604971356924e+01, 2.019549879774807e+03
570, 2.000000000000072e-04, 6.099999999991945e-03, 3.576096765207491e-04, -3.111399739374015e-05, -1.204247642184043e+00, -2.665888465914421e+03, -1.756506581263326e+02, 2.687741542245083e+03
571, -1.999999999999672e-04, 6.000000000008407e-03, 3.500718994195966e-04, 6.243157889209793e-06, 3.592103015227289e+01, 2.871636179348733e+03, 3.404696382544888e+02, 2.916326234438608e+03
572, -1.499999999999365e-04, 6.000000000006308e-03, 3.498230780227645e-04, 1.639340555711459e-06, 4.086403136672408e+01, 2.153628716579056e+03, 3.338433194636514e+02, 2.215757221105779e+03
573, -9.999999999988962e-05, 6.000000000004209e-03, 3.495845740360271e-04, -2.962913839799326e-06, 4.345845465785632e+01, 1.437370591661864e+03, 3.102847205229720e+02, 1.525810432801911e+03
574, -4.999999999986476e-05, 6.000000000002106e-03, 3.493563409350163e-04, -7.564438387704598e-06, 4.349741294618354e+01, 7.232733590916100e+02, 2.698237203708551e+02, 8.679370353067020e+02
575, 1.282204594235670e-16, 6.000000000000007e-03, 3.491383226819185e-04, -1.216606603050725e-05, 4.077426022759113e+01, 1.175116436563243e+01, 2.124902152826510e+02, 4.259703117083183e+02
576, 5.000000000006848e-05, 5.999999999997906e-03, 3.489304537061779e-04, -1.676862956276470e-05, 3.508143845958651e+01, -6.967799597870700e+02, 1.383142850231305e+02, 7.823966206530997e+02
577, 1.000000000000416e-04, 5.999999999995806e-03, 3.487326588812450e-04, -2.137296163071085e-05, 2.621024992867592e+01, -1.401902206871861e+03, 4.732624824709802e+01, 1.431245710687529e+03
578, 1.500000000000234e-04, 5.999999999993707e-03, 3.485448535003053e-04, -2.597989473044002e-05, 1.395079133555910e+01, -2.103196028916626e+03, -6.044328147011771e+01, 2.120595251245141e+03
579, 2.000000000000053e-04, 5.999999999991606e-03, 3.483669432514428e-04, -3.059026120470481e-05, -1.908187615094221e+00, -2.800240219899904e+03, -1.849633636000929e+02, 2.822677442856034e+03
580, -1.999999999999690e-04, 5.900000000008779e-03, 3.408599055576581e-04, 6.564524031462025e-06, 3.703407068854349e+01, 3.009139728162349e+03, 3.535202297850672e+02, 3.055047994820531e+03
581, -1.499999999999408e-04, 5.900000000006594e-03, 3.406116973575289e-04, 1.986094518965271e-06, 4.189558721415841e+01, 2.256579050208372e+03, 3.455344564371101e+02, 2.319999802500250e+03
582, -9.999999999989724e-05, 5.900000000004408e-03, 3.403742983487230e-04, -2.590751196863117e-06, 4.436620847087019e+01, 1.505810227704026e+03, 3.202066726638327e+02, 1.595602668030526e+03
583, -4.999999999987495e-05, 5.900000000002220e-03, 3.401476612471006e-04, -7.166866477993290e-06, 4.424047605052041e+01, 7.572457964912098e+02, 2.775647836219346e+02, 9.036290297489871e+02
584, 1.153862162067698e-16, 5.900000000000033e-03, 3.399317292581873e-04, -1.174310458389491e-05, 4.131160582667761e+01, 1.130019358861929e+01, 2.176364426329803e+02, 4.363062794783920e+02
585, 5.000000000005830e-05, 5.899999999997847e-03, 3.397264360511827e-04, -1.632031868269285e-05, 3.537161487268625e+01, -7.316102087962242e+02, 1.404493981666482e+02, 8.168018435459010e+02
586, 1.000000000000340e-04, 5.899999999995659e-03, 3.395317057331837e-04, -2.089936185283347e-05, 2.621129104406305e+01, -1.471067163317064e+03, 4.603162809524977e+01, 1.500106133923344e+03
587, 1.500000000000191e-04, 5.899999999993472e-03, 3.393474528235398e-04, -2.548108708217850e-05, 1.362018440660034e+01, -2.206650564660785e+03, -6.558860638844212e+01, 2.224142455041079e+03
588, 2.000000000000034e-04, 5.899999999991286e-03, 3.391735822280939e-04, -3.006634726668584e-05, -2.613353642416826e+00, -2.937938410108284e+03, -1.943827346507137e+02, 2.960957915478960e+03
589, -1.999999999999710e-04, 5.800000000009150e-03, 3.316988995128305e-04, 6.876298566071444e-06, 3.812395431517436e+01, 3.149991726321076e+03, 3.666562366828373e+02, 3.197103097186993e+03
590, -1.499999999999452e-04, 5.800000000006880e-03, 3.314513609598785e-04, 2.324469134262674e-06, 4.289669132004309e+01, 2.362050565329617e+03, 3.572899010397664e+02, 2.426746584395173e+03
591, -9.999999999990477e-05, 5.800000000004606e-03, 3.312151349658819e-04, -2.225755962297409e-06, 4.523922114739349e+01, 1.575940826663376e+03, 3.301725341968704e+02, 1.667064190270171e+03
592, -4.999999999988512e-05, 5.800000000002332e-03, 3.309901735784466e-04, -6.775250328418994e-06, 4.494723434454892e+01, 7.920759796955915e+02, 2.853291152330156e+02, 9.401341277330831e+02
593, 1.025655255171287e-16, 5.800000000000059e-03, 3.307764193375126e-04, -1.132488754080896e-05, 4.181393609508251e+01, 1.087093325053527e+01, 2.227847361502652e+02, 4.466426133624184e+02
594, 5.000000000004811e-05, 5.799999999997786e-03, 3.305738052428266e-04, -1.587554114976994e-05, 3.563093282682982e+01, -7.672575686403507e+02, 1.425646911875220e+02, 8.520145013330398e+02
595, 1.000000000000264e-04, 5.799999999995513e-03, 3.303822547258108e-04, -2.042808467885943e-05, 2.618849716832864e+01, -1.541890830114216e+03, 4.469452952019041e+01, 1.570625092288738e+03
596, 1.500000000000147e-04, 5.799999999993240e-03, 3.302016816227209e-04, -2.498339162323321e-05, 1.327565087885694e+01, -2.312608179709862e+03, -7.079990187480462e+01, 2.330190141987555e+03
597, 2.000000000000015e-04, 5.799999999990969e-03, 3.300319901485746e-04, -2.954233544740060e-05, -3.319779780633354e+00, -3.078986964607619e+03, -2.038924324287998e+02, 3.102582332159533e+03
598, -1.999999999999729e-04, 5.700000000009518e-03, 3.225913304842832e-04, 7.178167924502180e-06, 3.917744466799161e+01, 3.294191260429593e+03, 3.798633376422707e+02, 3.342498999541780e+03
599, -1.499999999999495e-04, 5.700000000007160e-03, 3.223445185597064e-04, 2.654179635588182e-06, 4.385434821280589e+01, 2.470041999377297e+03, 3.690997605243924e+02, 2.536005727820765e+03
600, -9.999999999991239e-05, 5.700000000004800e-03, 3.221095341663028e-04, -1.868184020102712e-06, 4.606700001465276e+01, 1.647761738678905e+03, 3.401761340917802e+02, 1.740202644719074e+03
601, -4.999999999989533e-05, 5.700000000002444e-03, 3.218863287828714e-04, -6.389816884454469e-06, 4.560993983163334e+01, 8.277638369739890e+02, 2.931142460189872e+02, 9.774602619503733e+02
602, 8.974483482748763e-17, 5.700000000000083e-03, 3.216748443741276e-04, -1.091161285365274e-05, 4.227591235239925e+01, 1.046347653675952e+01, 2.279364643852516e+02, 4.569815732152889e+02
603, 5.000000000003792e-05, 5.699999999997726e-03, 3.214750133602351e-04, -1.543446586820052e-05, 3.585618207314997e+01, -8.037221477452108e+02, 1.446654905897933e+02, 8.880338893144396e+02
604, 1.000000000000188e-04, 5.699999999995369e-03, 3.212867585879086e-04, -1.995926990849779e-05, 2.614062827454464e+01, -1.614373801908169e+03, 4.332432734956710e+01, 1.642801139821519e+03
605, 1.500000000000104e-04, 5.699999999993010e-03, 3.211099933024072e-04, -2.448691899150331e-05, 1.291780312406723e+01, -2.421070200127360e+03, -7.606369890744942e+01, 2.438737448996469e+03
606, 1.999999999999996e-04, 5.699999999990651e-03, 3.209446211201564e-04, -2.901830716710508e-05, -4.025008127152375e+00, -3.223387996709254e+03, -2.134748900587725e+02, 3.247550487212586e+03
607, -1.999999999999748e-04, 5.600000000009672e-03, 3.135397055913055e-04, 7.469817187062081e-06, 4.019640555012757e+01, 3.441743452545587e+03, 3.931263433906648e+02, 3.491234108505815e+03
608, -1.499999999999538e-04, 5.600000000007281e-03, 3.132936778415492e-04, 2.974939891384144e-06, 4.477090125919585e+01, 2.580558615250886e+03, 3.809537771375861e+02, 2.647776888578941e+03
609, -9.999999999991998e-05, 5.600000000004890e-03, 3.130600041811884e-04, -1.518292616385723e-06, 4.685090481150337e+01, 1.721277440937866e+03, 3.502111813267326e+02, 1.815019479506816e+03
610, -4.999999999990553e-05, 5.600000000002499e-03, 3.128386356212913e-04, -6.010794439629989e-06, 4.622911054032681e+01, 8.643127900309746e+02, 3.009177934690291e+02, 1.015611628701658e+03
611, 7.692414413784654e-17, 5.600000000000110e-03, 3.126295136497397e-04, -1.050347980393574e-05, 4.269770806615364e+01, 1.008015706635089e+01, 2.330932705919199e+02, 4.673262199087236e+02
612, 5.000000000002774e-05, 5.599999999997718e-03, 3.124325702048130e-04, -1.499726304871780e-05, 3.604761221202017e+01, -8.410027677066248e+02, 1.467575978984434e+02, 9.248613620857582e+02
613, 1.000000000000112e-04, 5.599999999995330e-03, 3.122477276464201e-04, -1.949305862235419e-05, 2.606832983347533e+01, -1.688516162691135e+03, 4.193107916526714e+01, 1.716634161260264e+03
614, 1.500000000000060e-04, 5.599999999992939e-03, 3.120748987268252e-04, -2.399178107826107e-05, 1.254794112174639e+01, -2.532038084786034e+03, -8.136563627728069e+01, 2.549784208577733e+03
615, 1.999999999999977e-04, 5.599999999990549e-03, 3.119139865613924e-04, -2.849434507053884e-05, -4.726912839990689e+00, -3.371144487327419e+03, -2.231115032269104e+02, 3.395862520377777e+03
616, -1.999999999999767e-04, 5.500000000009695e-03, 3.045465902684611e-04, 7.750930625414760e-06, 4.119467692760560e+01, 3.592662360599292e+03, 4.064249420576386e+02, 3.643301750098467e+03
617, -1.499999999999582e-04, 5.500000000007305e-03, 3.043014047456085e-04, 3.286462936353465e-06, 4.565798815688959e+01, 2.693612329006380e+03, 3.928366147814026e+02, 2.762054419245809e+03
618, -9.999999999992762e-05, 5.500000000004914e-03, 3.040691114117190e-04, -1.176339876163963e-06, 4.759877992412103e+01, 1.796496803395278e+03, 3.602675758388879e+02, 1.891511353734001e+03
619, -4.999999999991570e-05, 5.500000000002524e-03, 3.038496609175374e-04, -5.638412200345442e-06, 4.680971974138504e+01, 9.017291678200943e+02, 3.087347643606241e+02, 1.054588015104688e+03
620, 6.410345344820545e-17, 5.500000000000133e-03, 3.036429943849468e-04, -1.010068860481485e-05, 4.308248120604793e+01, 9.725211032879486e+00, 2.382551342984480e+02, 4.776764004550483e+02
621, 5.000000000001756e-05, 5.499999999997745e-03, 3.034490433802110e-04, -1.456410383957291e-05, 3.620745188664586e+01, -8.790969849936264e+02, 1.488458699419378e+02, 9.624980956697013e+02
622, 1.000000000000036e-04, 5.499999999995354e-03, 3.032677298847814e-04, -1.902959283410976e-05, 2.597359903347441e+01, -1.764317092386180e+03, 4.052445077941789e+01, 1.792124349543791e+03
623, 1.500000000000017e-04, 5.499999999992964e-03, 3.030989662650885e-04, -2.349809069463485e-05, 1.216840649089733e+01, -2.645512559213666e+03, -8.669130351085542e+01, 2.663330554753950e+03
624, 1.999999999999958e-04, 5.499999999990576e-03, 3.029426552416787e-04, -2.797053270064700e-05, -5.422159545626016e+00, -3.522258609116546e+03, -2.327831864712455e+02, 3.547518944367376e+03
625, -1.999999999999786e-04, 5.400000000009719e-03, 2.956146092892940e-04, 8.021191850913521e-06, 4.216197279295841e+01, 3.746947351277816e+03, 4.197370209035477e+02, 3.798703906268970e+03
626, -1.499999999999625e-04, 5.400000000007331e-03, 2.953703241901131e-04, 3.588461175392118e-06, 4.650757976287673e+01, 2.809203392604946e+03, 4.047308399040986e+02, 2.878839412918514e+03
627, -9.999999999993521e-05, 5.400000000004939e-03, 2.951394809312188e-04, -8.425845515809324e-07, 4.830508908491606e+01, 1.873420970545016e+03, 3.703334135073243e+02, 1.969678991459731e+03
628, -4.999999999992589e-05, 5.400000000002551e-03, 2.949220299068838e-04, -5.272900003126840e-06, 4.734797993452219e+01, 9.400143473191770e+02, 3.165588021380904e+02, 1.094390763988863e+03
629, 5.128276275856436e-17, 5.400000000000158e-03, 2.947179119826929e-04, -9.703440099944984e-06, 4.342773438453389e+01, 9.399740329189228e+00, 2.434211172710503e+02, 4.880299844408909e+02
630, 5.000000000000737e-05, 5.399999999997771e-03, 2.945270584642241e-04, -1.413516001473100e-05, 3.633428457672346e+01, -9.180043468105396e+02, 1.509346508708415e+02, 1.000943204528671e+03
631, 9.999999999999598e-05, 5.399999999995381e-03, 2.943493910660145e-04, -1.856901517254165e-05, 2.585605685729047e+01, -1.841777072566478e+03, 3.911396019606174e+01, 1.869270743806283e+03
632, 1.499999999999973e-04, 5.399999999992991e-03, 2.941848218801122e-04, -2.300596124952454e-05, 1.177995658262839e+01, -2.761495249951612e+03, -9.202607954452341e+01, 2.779375931471466e+03
633, 1.999999999999938e-04, 5.399999999990601e-03, 2.940332533441880e-04, -2.744695417115718e-05, -6.108692185612057e+00, -3.676733375360475e+03, -2.424702361474180e+02, 3.702519794194503e+03
634, -1.999999999999805e-04, 5.300000000009745e-03, 2.867464465079698e-04, 8.280283971942154e-06, 4.308865346660008e+01, 3.904600080591383e+03, 4.330420352719195e+02, 3.957445150480934e+03
635, -1.499999999999669e-04, 5.300000000007331e-03, 2.865031199493983e-04, 3.880646551432601e-06, 4.730983031916003e+01, 2.927332542750226e+03, 4.166208859076904e+02, 2.998136533651666e+03
636, -9.999999999994280e-05, 5.300000000004915e-03, 2.862737964432770e-04, -5.172858116148833e-07, 4.896189929583238e+01, 1.952050881670923e+03, 3.803980673177437e+02, 2.049526392441375e+03
637, -4.999999999993605e-05, 5.300000000002501e-03, 2.860584262373709e-04, -4.914488064533462e-06, 4.783796632963299e+01, 9.791693399078640e+02, 3.243843909598001e+02, 1.135023814642035e+03
638, 3.846207206892327e-17, 5.300000000000087e-03, 2.858569500511144e-04, -9.311935483006359e-06, 4.372930802688364e+01, 9.104491388286363e+00, 2.485908930692620e+02, 4.983860014036806e+02
639, 4.999999999999720e-05, 5.299999999997673e-03, 2.856692990413236e-04, -1.371060367160388e-05, 3.642550786314791e+01, -9.577247019049956e+02, 1.530288219757057e+02, 1.040195136021666e+03
640, 9.999999999998842e-05, 5.299999999995259e-03, 2.854953947688182e-04, -1.811146856418105e-05, 2.571452768686663e+01, -1.920896848609704e+03, 3.770968623245669e+01, 1.948071849822339e+03
641, 1.499999999999930e-04, 5.299999999992844e-03, 2.853351491652693e-04, -2.251550642317861e-05, 1.138273242147841e+01, -2.879988114621389e+03, -9.735469388483008e+01, 2.897919446916188e+03
642, 1.999999999999920e-04, 5.299999999990430e-03, 2.851884645001915e-04, -2.692369383808158e-05, -6.785058625034026e+00, -3.834572183745149e+03, -2.521521591392189e+02, 3.860864815124921e+03
643, -1.999999999999824e-04, 5.200000000009989e-03, 2.779448445162879e-04, 8.527890039845034e-06, 4.397171250263551e+01, 4.065625445832645e+03, 4.463192035366044e+02, 4.119526923882086e+03
644, -1.499999999999712e-04, 5.200000000007502e-03, 2.777025344185583e-04, 4.162730941097971e-06, 4.806177758579281e+01, 3.048004557438218e+03, 4.284914912349079e+02, 3.119948158965395e+03
645, -9.999999999995044e-05, 5.200000000005017e-03, 2.774748001328063e-04, -2.007028726864643e-07, 4.956602922986758e+01, 2.032390450134293e+03, 3.904514195234069e+02, 2.131056528618221e+03
646, -4.999999999994625e-05, 5.200000000002529e-03, 2.772615918804255e-04, -4.563406622630694e-06, 4.827683491153033e+01, 1.019197196788232e+03, 3.322065701778297e+02, 1.176491041268081e+03
647, 2.564138137928218e-17, 5.200000000000042e-03, 2.770628503527630e-04, -8.926375941351958e-06, 4.398511891066244e+01, 8.841646655691079e+00, 2.537647403031648e+02, 5.087447663874947e+02
648, 4.999999999998700e-05, 5.199999999997556e-03, 2.768785066759462e-04, -1.329060687263835e-05, 3.648011606994964e+01, -9.982567764156622e+02, 1.551339625855899e+02, 1.080253036126633e+03
649, 9.999999999998081e-05, 5.199999999995069e-03, 2.767084823756915e-04, -1.765709587100026e-05, 2.554934608592964e+01, -2.001676122255784e+03, 3.632254513799272e+01, 2.028526659581896e+03
650, 1.499999999999887e-04, 5.199999999992581e-03, 2.765526893425217e-04, -2.202683980054945e-05, 1.097864731646899e+01, -3.000991901566871e+03, -1.026608838198053e+02, 3.018960684673993e+03
651, 1.999999999999900e-04, 5.199999999990096e-03, 2.764110297973183e-04, -2.640083593323718e-05, -7.447760809968429e+00, -3.995777056928226e+03, -2.618073143599777e+02, 4.022554269824671e+03
652, -1.999999999999843e-04, 5.100000000010360e-03, 2.692126047460138e-04, 8.763693514443304e-06, 4.481016312762927e+01, 4.230029137270096e+03, 4.595459906277965e+02, 4.284948999875081e+03
653, -1.499999999999755e-04, 5.100000000007788e-03, 2.689713686709345e-04, 4.434426615347350e-06, 4.876263518120970e+01, 3.171225100861055e+03, 4.403258709708967e+02, 3.244274855829045e+03
654, -9.999999999995803e-05, 5.100000000005215e-03, 2.687452926965312e-04, 1.069054354482111e-07, 5.011615289957535e+01, 2.114444397339800e+03, 4.004824440361279e+02, 2.214270952868746e+03
655, -4.999999999995644e-05, 5.100000000002642e-03, 2.685343271450949e-04, -4.219885523386335e-06, 4.866302371039700e+01, 1.060101518501354e+03, 3.400199958972040e+02, 1.218795396768767e+03
656, 1.282069068964109e-17, 5.100000000000066e-03, 2.683384128065324e-04, -8.546962255791054e-06, 4.419383715059678e+01, 8.613695473550024e+00, 2.589429617360943e+02, 5.191067098510675e+02
657, 4.999999999997683e-05, 5.099999999997495e-03, 2.681574809016093e-04, -1.287534125315283e-05, 3.649738054585509e+01, -1.039599227701925e+03, 1.572560229287134e+02, 1.121116290699498e+03
658, 9.999999999997324e-05, 5.099999999994921e-03, 2.679914530458513e-04, -1.720603950243198e-05, 2.536068154075673e+01, -2.084114768867945e+03, 3.496414868186994e+01, 2.110634180204895e+03
659, 1.499999999999843e-04, 5.099999999992348e-03, 2.678402412135366e-04, -2.154007448489036e-05, 1.056901463629515e+01, -3.124507803509010e+03, -1.079273625554494e+02, 3.142498992525660e+03
660, 1.999999999999881e-04, 5.099999999989774e-03, 2.677037477016813e-04, -2.587846417393682e-05, -8.094129161065439e+00, -4.160350586161842e+03, -2.714128321018720e+02, 4.187588015364320e+03
661, -1.999999999999862e-04, 5.000000000010596e-03, 2.605525877203690e-04, 8.987378631657036e-06, 4.560010248700769e+01, 4.397815813510608e+03, 4.726985139391845e+02, 4.453712736089062e+03
662, -1.499999999999799e-04, 5.000000000007969e-03, 2.603124826351104e-04, 4.695446623619526e-06, 4.940815862773854e+01, 3.296997822431773e+03, 4.521061391610774e+02, 3.371118281626342e+03
663, -9.999999999996564e-05, 5.000000000005344e-03, 2.600881334632310e-04, 4.052810649701899e-07, 5.060846625953843e+01, 2.198215738474355e+03, 4.104793513700208e+02, 2.299171630669311e+03
664, -4.999999999996662e-05, 5.000000000002718e-03, 2.598794907596239e-04, -3.884153822921183e-06, 4.899339720611124e+01, 1.101884735472961e+03, 3.478188819602603e+02, 1.261939803948548e+03
665, 0.000000000000000e+00, 5.000000000000093e-03, 2.596864955421859e-04, -8.173894405095941e-06, 4.435301261424206e+01, 8.422283283578224e+00, 2.641257052902967e+02, 5.294719729037790e+02
666, 4.999999999996663e-05, 4.999999999997467e-03, 2.595090792554277e-04, -1.246497763028850e-05, 3.647558034878460e+01, -1.081751418839949e+03, 1.594010529897428e+02, 1.162783902748741e+03
667, 9.999999999996559e-05, 4.999999999994841e-03, 2.593471637337528e-04, -1.675844103024101e-05, 2.514758851223189e+01, -2.168213399277397e+03, 3.364643352515458e+01, 2.194393026035525e+03
668, 1.499999999999799e-04, 4.999999999992216e-03, 2.592006611642955e-04, -2.105532271887373e-05, 1.015371908963033e+01, -3.250537918147272e+03, -1.131363282616383e+02, 3.268533198276678e+03
669, 1.999999999999863e-04, 4.999999999989590e-03, 2.590694740493776e-04, -2.535666139136801e-05, -8.723207758202705e+00, -4.328296496786142e+03, -2.809450472800596e+02, 4.355965320987809e+03
670, -1.999999999999881e-04, 4.900000000010410e-03, 2.519677130871457e-04, 9.198630746721259e-06, 4.633110861162044e+01, 4.568984148800039e+03, 4.857533751928077e+02, 4.625820563745460e+03
671, -1.499999999999843e-04, 4.900000000007836e-03, 2.517287951299576e-04, 4.945505162510278e-06, 4.998990236224489e+01, 3.425322132528538e+03, 4.638148467539770e+02, 3.500480611612785e+03
672, -9.999999999997321e-05, 4.900000000005265e-03, 2.515062404339872e-04, 6.941671420296845e-07, 5.103707905180113e+01, 2.283705177112492e+03, 4.204305081742137e+02, 2.385760693135934e+03
673, -4.999999999997681e-05, 4.900000000002690e-03, 2.512999999128792e-04, -3.556439384447210e-06, 4.926385609590932e+01, 1.144548075014040e+03, 3.555974806214601e+02, 1.305927177567118e+03
674, -1.282069068964109e-17, 4.900000000000120e-03, 2.511100149417229e-04, -7.807371158503552e-06, 4.445995461511080e+01, 8.268581631228813e+00, 2.693132009318077e+02, 5.398409175516464e+02
675, 4.999999999995644e-05, 4.899999999997547e-03, 2.509362173205792e-04, -1.205968559447207e-05, 3.641332043213117e+01, -1.124712637049829e+03, 1.615753109845093e+02, 1.205255082386032e+03
676, 9.999999999995801e-05, 4.899999999994974e-03, 2.507785292361619e-04, -1.631444078027928e-05, 2.491002416007558e+01, -2.253972041837628e+03, 3.238170652369952e+01, 2.279802134044862e+03
677, 1.499999999999756e-04, 4.899999999992402e-03, 2.506368632228917e-04, -2.057269547763215e-05, 9.734254143285455e+00, -3.379083204783704e+03, -1.182694104729182e+02, 3.397062611101364e+03
678, 1.999999999999843e-04, 4.899999999989829e-03, 2.505111221238636e-04, -2.483550912137806e-05, -9.331648689226711e+00, -4.499616774016455e+03, -2.903794972517198e+02, 4.527686110634395e+03
679, -1.999999999999901e-04, 4.800000000010084e-03, 2.434609593492563e-04, 9.397136877764091e-06, 4.700873983033972e+01, 4.743543443875879e+03, 4.986851067527097e+02, 4.801269162324893e+03
680, -1.499999999999886e-04, 4.800000000007600e-03, 2.432232837345703e-04, 5.184318096740403e-06, 5.051234062697250e+01, 3.556206531545318e+03, 4.754328602091714e+02, 3.632359753453027e+03
681, -9.999999999998080e-05, 4.800000000005114e-03, 2.430025902277159e-04, 9.733084534805530e-07, 5.140423558310641e+01, 2.370919345780417e+03, 4.303229584309438e+02, 2.474037538244858e+03
682, -4.999999999998701e-05, 4.800000000002629e-03, 2.427988302382020e-04, -3.236968413053146e-06, 4.947523425512219e+01, 1.188096463946117e+03, 3.633491824249005e+02, 1.350758608404332e+03
683, -2.564138137928218e-17, 4.800000000000143e-03, 2.426119456396022e-04, -7.447589623505415e-06, 4.451491538290105e+01, 8.156022718866950e+00, 2.745052466967012e+02, 5.502131322785942e+02
684, 4.999999999994627e-05, 4.799999999997659e-03, 2.424418687296293e-04, -1.165963306426816e-05, 3.631089983778145e+01, -1.168480856566971e+03, 1.637850230942537e+02, 1.248529259353095e+03
685, 9.999999999995042e-05, 4.799999999995174e-03, 2.422885221895422e-04, -1.587417739011494e-05, 2.464881620392862e+01, -2.341390081314581e+03, 3.118262344692322e+01, 2.366860682125320e+03
686, 1.499999999999713e-04, 4.799999999992687e-03, 2.421518190433651e-04, -2.009230202526683e-05, 9.312279723393772e+00, -3.510144597492310e+03, -1.233075383028695e+02, 3.528086692045728e+03
687, 1.999999999999824e-04, 4.799999999990203e-03, 2.420316626168673e-04, -2.431508716310859e-05, -9.917021161670107e+00, -4.674314307214643e+03, -2.996906714056452e+02, 4.702750263010848e+03
688, -1.999999999999919e-04, 4.700000000009747e-03, 2.350353644650511e-04, 9.582586207723530e-06, 4.763505133733247e+01, 4.921502981553793e+03, 5.114647491340337e+02, 4.980057565894138e+03
689, -1.499999999999929e-04, 4.700000000007334e-03, 2.347989851997470e-04, 5.411603418267585e-06, 5.097577577606387e+01, 3.689658927418128e+03, 4.869378453729846e+02, 3.766755757819952e+03
690, -9.999999999998839e-05, 4.700000000004922e-03, 2.345802183589439e-04, 1.242451890520452e-06, 5.170866633528317e+01, 2.459864097982954e+03, 4.401417133940781e+02, 2.564003021537237e+03
691, -4.999999999999717e-05, 4.700000000002511e-03, 2.343790160006361e-04, -2.925965018387385e-06, 4.962578096322926e+01, 1.232534217965972e+03, 3.710661950051556e+02, 1.396435768173635e+03
692, -3.846207206892327e-17, 4.700000000000096e-03, 2.341953206482028e-04, -7.094744809963133e-06, 4.451632745703182e+01, 8.087623795871309e+00, 2.797010896097768e+02, 5.605870570803594e+02
693, 4.999999999993608e-05, 4.699999999997685e-03, 2.340290652468815e-04, -1.126498585014843e-05, 3.616740901057267e+01, -1.213054255879648e+03, 1.660363607306243e+02, 1.292604757986669e+03
694, 9.999999999994281e-05, 4.699999999995272e-03, 2.338801731214180e-04, -1.543778737213040e-05, 2.436408374454186e+01, -2.430466877135001e+03, 3.006220935094510e+01, 2.455567142681507e+03
695, 1.499999999999669e-04, 4.699999999992859e-03, 2.337485579339693e-04, -1.961424947767818e-05, 8.889391710824100e+00, -3.643722556351939e+03, -1.282308746312446e+02, 3.661604384961001e+03
696, 1.999999999999805e-04, 4.699999999990447e-03, 2.336341236420617e-04, -2.379547313832258e-05, -1.047585541245564e+01, -4.852390644499101e+03, -3.088520527372083e+02, 4.881157361394521e+03
697, -1.999999999999939e-04, 4.600000000009572e-03, 2.266940261985779e-04, 9.754670278633593e-06, 4.818680241835813e+01, 5.102854339082058e+03, 5.240651457045922e+02, 5.162193430507169e+03
698, -1.499999999999973e-04, 4.600000000007185e-03, 2.264589956604685e-04, 5.627081511437907e-06, 5.136060622568101e+01, 3.825672907385313e+03, 4.983094781309650e+02, 3.903675536038508e+03
699, -9.999999999999598e-05, 4.600000000004799e-03, 2.262422193700348e-04, 1.501346776603052e-06, 5.193632151118891e+01, 2.550536130589252e+03, 4.498732496723053e+02, 2.655662773962050e+03
700, -5.000000000000737e-05, 4.600000000002412e-03, 2.260436501797025e-04, -2.623650841952981e-06, 4.970550958380608e+01, 1.277859768215089e+03, 3.787417979831433e+02, 1.442963714426725e+03
701, -5.126921023140829e-17, 4.600000000000025e-03, 2.258632314081054e-04, -6.749029228123800e-06, 4.445714028510383e+01, 8.062488029717315e+00, 2.849008297342870e+02, 5.709627849920968e+02
702, 4.999999999992590e-05, 4.599999999997638e-03, 2.257008967947492e-04, -1.087590723430215e-05, 3.597794500141561e+01, -1.258433886135632e+03, 1.683362584567114e+02, 1.337479110951787e+03
703, 9.999999999993524e-05, 4.599999999995251e-03, 2.255565704559619e-04, -1.500540468301615e-05, 2.405250324337590e+01, -2.521204318750619e+03, 2.903423351135856e+01, 2.545919133980759e+03
704, 1.499999999999625e-04, 4.599999999992864e-03, 2.254301668410582e-04, -1.913864236855660e-05, 8.463251681236159e+00, -3.779820555698045e+03, -1.330188084794682e+02, 3.797613753252067e+03
705, 1.999999999999786e-04, 4.599999999990477e-03, 2.253215906884930e-04, -2.327674205714483e-05, -1.100933676615057e+01, -5.033850952059356e+03, -3.178361506522654e+02, 5.062906000210458e+03
706, -1.999999999999958e-04, 4.500000000009600e-03, 2.184401011516693e-04, 9.913083541737215e-06, 4.866474400380451e+01, 5.287604445588208e+03, 5.364599914776775e+02, 5.347676737300246e+03
707, -1.500000000000016e-04, 4.500000000007212e-03, 2.182064700232893e-04, 5.830475683489172e-06, 5.166656475827853e+01, 3.964254338322080e+03, 5.095287581586346e+02, 4.043120243995182e+03
708, -1.000000000000036e-04, 4.500000000004825e-03, 2.179917464519236e-04, 1.749745383009088e-06, 5.208594071042580e+01, 2.642940101246977e+03, 4.595050282842029e+02, 2.749018873206116e+03
709, -5.000000000001756e-05, 4.500000000002437e-03, 2.177958842404015e-04, -2.330244552063638e-06, 4.971304111484142e+01, 1.324076891131524e+03, 3.863700476161919e+02, 1.490345757537189e+03
710, -6.409667718462742e-17, 4.500000000000053e-03, 2.176188276565165e-04, -6.410632390504207e-06, 4.433649573721556e+01, 8.083647249529918e+00, 2.901052872885120e+02, 5.813420506676524e+02
711, 4.999999999991571e-05, 4.499999999997665e-03, 2.174605113887984e-04, -1.049255747647619e-05, 3.574275702157570e+01, -1.304617356741871e+03, 1.706924363904681e+02, 1.383151787018191e+03
712, 9.999999999992765e-05, 4.499999999995279e-03, 2.173208605013360e-04, -1.457716023115249e-05, 2.371605831722104e+01, -2.613600518485505e+03, 2.811341751219052e+01, 2.637915878729893e+03
713, 1.499999999999582e-04, 4.499999999992891e-03, 2.171997903883979e-04, -1.866558215433376e-05, 8.038415743879568e+00, -3.918436888377767e+03, -1.376495779049286e+02, 3.936114573925255e+03
714, 1.999999999999767e-04, 4.499999999990504e-03, 2.170972067289263e-04, -2.275896582658455e-05, -1.151035103767384e+01, -5.218694166676284e+03, -3.266139629509100e+02, 5.247996761910841e+03
715, -1.999999999999977e-04, 4.400000000009622e-03, 2.102768050494108e-04, 1.005752410230817e-05, 4.907611917395423e+01, 5.475763420663777e+03, 5.486190762628780e+02, 5.536503104985044e+03
716, -1.500000000000059e-04, 4.400000000007235e-03, 2.100446221462961e-04, 6.021512853917785e-06, 5.189970437090795e+01, 4.105412540059004e+03, 5.205728981832782e+02, 4.185086722922227e+03
717, -1.000000000000112e-04, 4.400000000004850e-03, 2.098320115553270e-04, 1.987403561447055e-06, 5.216078383530908e+01, 2.737083065357072e+03, 4.690219577456452e+02, 2.844069978956612e+03
718, -5.000000000002772e-05, 4.400000000002464e-03, 2.096389281950732e-04, -2.045961254711438e-06, 4.964968207516870e+01, 1.371190666337818e+03, 3.939434209651913e+02, 1.538582545323105e+03
719, -7.691736787426851e-17, 4.400000000000076e-03, 2.094653174483825e-04, -6.079740252900804e-06, 4.415456345267887e+01, 8.154419787608219e+00, 2.953144620064430e+02, 5.917250512058156e+02
720, 4.999999999990552e-05, 4.399999999997690e-03, 2.093111151179096e-04, -1.011509327513311e-05, 3.546143733838119e+01, -1.351603089019306e+03, 1.731124087572576e+02, 1.429622196436119e+03
721, 9.999999999991999e-05, 4.399999999995304e-03, 2.091762473800051e-04, -1.415318135025295e-05, 2.335406346574570e+01, -2.707655795968427e+03, 2.731480185642899e+01, 2.731556194905842e+03
722, 1.499999999999539e-04, 4.399999999992917e-03, 2.090606307379409e-04, -1.819516669671222e-05, 7.613927335426411e+00, -4.059574154123317e+03, -1.421005480696430e+02, 4.077105487108082e+03
723, 1.999999999999748e-04, 4.399999999990530e-03, 2.089641719749985e-04, -2.224221272370616e-05, -1.197996217450566e+01, -5.406925268834317e+03, -3.351555579184380e+02, 5.436428225762316e+03
724, -1.999999999999997e-04, 4.300000000009517e-03, 2.022074134473332e-04, 1.018769411988936e-05, 4.941190327802695e+01, 5.667330859912578e+03, 5.605103524380618e+02, 5.728673565850545e+03
725, -1.500000000000103e-04, 4.300000000007164e-03, 2.019767253302561e-04, 6.199924012710479e-06, 5.205239604560785e+01, 4.249147725424503e+03, 5.314173871966054e+02, 4.329575840836329e+03
726, -1.000000000000188e-04, 4.300000000004808e-03, 2.017662857284852e-04, 2.214081228707155e-06, 5.215540977995801e+01, 2.832966389624225e+03, 4.784074955526419e+02, 2.940817000907442e+03
727, -5.000000000003792e-05, 4.300000000002456e-03, 2.015760508392727e-04, -1.771011995791296e-06, 4.951146195172834e+01, 1.419202808296639e+03, 4.014533591922009e+02, 1.587675528147658e+03
728, -8.973805856390960e-17, 4.300000000000101e-03, 2.014059673280414e-04, -5.756534711849939e-06, 4.390852740689223e+01, 8.276319054418082e+00, 3.005276991538633e+02, 6.021106593533567e+02
729, 4.999999999989533e-05, 4.299999999997747e-03, 2.012559722805716e-04, -9.743667265631727e-06, 3.513223534140042e+01, -1.399390164570045e+03, 1.756033413793201e+02, 1.476888841403449e+03
730, 9.999999999991241e-05, 4.299999999995395e-03, 2.011259931548399e-04, -1.373359130362506e-05, 2.296586019781216e+01, -2.803370136536101e+03, 2.665329518433303e+01, 2.826838651039463e+03
731, 1.499999999999495e-04, 4.299999999993039e-03, 2.010159477325393e-04, -1.772748977629847e-05, 7.190281061822247e+00, -4.203233513000785e+03, -1.463491896678354e+02, 4.220585370167779e+03
732, 1.999999999999729e-04, 4.299999999990687e-03, 2.009257440701190e-04, -2.172654694158831e-05, -1.241583140166102e+01, -5.598546454865569e+03, -3.434305629519757e+02, 5.628199849745858e+03
733, -2.000000000000014e-04, 4.200000000009198e-03, 1.942352615239382e-04, 1.030330025350733e-05, 4.966617568626350e+01, 5.862309231418666e+03, 5.721019976727940e+02, 5.924189571267865e+03
734, -1.500000000000147e-04, 4.200000000006931e-03, 1.940061122240845e-04, 6.365444666904752e-06, 5.211878043792854e+01, 4.395462318541075e+03, 5.420382432682599e+02, 4.476589652698102e+03
735, -1.000000000000264e-04, 4.200000000004664e-03, 1.937978990824938e-04, 2.429542838955731e-06, 5.206483393396940e+01, 2.930592579279256e+03, 4.876454529029565e+02, 3.039262136057095e+03
736, -5.000000000004811e-05, 4.200000000002396e-03, 1.936105797462931e-04, -1.505603266699426e-06, 4.929458279316248e+01, 1.468115785915319e+03, 4.088916182392140e+02, 1.637627255603099e+03
737, -1.025587492535507e-16, 4.200000000000129e-03, 1.934441023364175e-04, -5.441193092110298e-06, 4.359593958043018e+01, 8.451583998871399e+00, 3.057447709594807e+02, 6.124986413091088e+02
738, 4.999999999988515e-05, 4.199999999997860e-03, 1.932984053962771e-04, -9.378427492301336e-06, 3.475429177315783e+01, -1.447976707104021e+03, 1.781730484265159e+02, 1.524950410922830e+03
739, 9.999999999990481e-05, 4.199999999995591e-03, 1.931734178412043e-04, -1.331850874066862e-05, 2.255254656662140e+01, -2.900742069159277e+03, 2.614476101046429e+01, 2.923762234595215e+03
740, 1.499999999999452e-04, 4.199999999993324e-03, 1.930690589081466e-04, -1.726264053330444e-05, 6.771170229599647e+00, -4.349413749290434e+03, -1.503715493484592e+02, 4.366553957581149e+03
741, 1.999999999999710e-04, 4.199999999991056e-03, 1.929852381057019e-04, -2.121202799227603e-05, -1.281190430570683e+01, -5.793557346252738e+03, -3.514070391471619e+02, 5.823312244182008e+03
742, -2.000000000000034e-04, 4.100000000008875e-03, 1.863637439873402e-04, 1.040405428671609e-05, 4.983870602969637e+01, 6.060705113397733e+03, 5.833606554566559e+02, 6.123051002936755e+03
743, -1.500000000000190e-04, 4.100000000006694e-03, 1.861361747584254e-04, 6.517815423334023e-06, 5.209744882803039e+01, 4.544362216307126e+03, 5.524105149253596e+02, 4.626129294467937e+03
744, -1.000000000000340e-04, 4.100000000004513e-03, 1.859302407448932e-04, 2.633557943982329e-06, 5.188645951461405e+01, 3.029966132965695e+03, 4.967192306469886e+02, 3.139407351364368e+03
745, -5.000000000005830e-05, 4.100000000002334e-03, 1.857459012288257e-04, -1.249936452052591e-06, 4.899611213184613e+01, 1.517932927914197e+03, 4.162499126408110e+02, 1.688440501721847e+03
746, -1.153726636796137e-16, 4.100000000000152e-03, 1.855831059688263e-04, -5.133887596879324e-06, 4.321401758862947e+01, 8.682402329558897e+00, 3.109657058082968e+02, 6.228893266125285e+02
747, 4.999999999987496e-05, 4.099999999997971e-03, 1.854417951471324e-04, -9.019516858830428e-06, 3.432520413368883e+01, -1.497361816159343e+03, 1.808298871877275e+02, 1.573805235896567e+03
748, 9.999999999989721e-05, 4.099999999995790e-03, 1.853218993173735e-04, -1.290804714723410e-05, 2.211214643892322e+01, -2.999772263847329e+03, 2.580591059138084e+01, 3.022325126325242e+03
749, 1.499999999999408e-04, 4.099999999993610e-03, 1.852233393526903e-04, -1.680070291657742e-05, 6.354771844983702e+00, -4.498117639651379e+03, -1.541425406558689e+02, 4.515009567796202e+03
750, 1.999999999999691e-04, 4.099999999991429e-03, 1.851460263939689e-04, -2.069871016985105e-05, -1.316953514695746e+01, -5.991962788862879e+03, -3.590515224439713e+02, 6.021763923781499e+03
751, -2.000000000000054e-04, 4.000000000008551e-03, 1.785963153061286e-04, 1.048967366969863e-05, 4.992111938186844e+01, 6.262519022283741e+03, 5.942521576862922e+02, 6.325260090367826e+03
752, -1.500000000000234e-04, 4.000000000006458e-03, 1.783703642818265e-04, 6.656782548077433e-06, 5.198105780506603e+01, 4.695848505825371e+03, 5.625086948279870e+02, 4.778197254384855e+03
753, -1.000000000000416e-04, 4.000000000004365e-03, 1.781667589435339e-04, 2.825901758884432e-06, 5.161452511218175e+01, 3.131088852757081e+03, 5.056119612569833e+02, 3.241255305601293e+03
754, -5.000000000006849e-05, 4.000000000002271e-03, 1.779854603950579e-04, -1.004207263112655e-06, 4.861157832050731e+01, 1.568656209959986e+03, 4.235199172054764e+02, 1.740118433686321e+03
755, -1.282069068964109e-16, 4.000000000000177e-03, 1.778264202185102e-04, -4.834784742062382e-06, 4.275951550704116e+01, 8.970552004951344e+00, 3.161906947618001e+02, 6.332834403885396e+02
756, 4.999999999986478e-05, 3.999999999998083e-03, 1.776895804207141e-04, -8.667072565285273e-06, 3.384301929427210e+01, -1.547544178136315e+03, 1.835825577409024e+02, 1.623451782537483e+03
757, 9.999999999988963e-05, 3.999999999995989e-03, 1.775748733797197e-04, -1.250231428758369e-05, 2.164415860345082e+01, -3.100460061038963e+03, 2.565394277540074e+01, 3.122525781707601e+03
758, 1.499999999999365e-04, 3.999999999993896e-03, 1.774822217913649e-04, -1.634175513544566e-05, 5.942380517216350e+00, -4.649345202809331e+03, -1.576364943761717e+02, 4.665951086425056e+03
759, 1.999999999999672e-04, 3.999999999991804e-03, 1.774115386159006e-04, -2.018664201090719e-05, -1.348542770813009e+01, -6.193763682613416e+03, -3.663298155564092e+02, 6.223554405893588e+03
760, -2.000000000000072e-04, 3.900000000008219e-03, 1.709364895273440e-04, 1.055988209736812e-05, 4.990881592771365e+01, 6.467753212059320e+03, 6.047420335571173e+02, 6.530817590590097e+03
761, -1.500000000000277e-04, 3.900000000006203e-03, 1.707121914564848e-04, 6.782098568556896e-06, 5.176573984145739e+01, 4.849923857850765e+03, 5.723071789759707e+02, 4.932794679879587e+03
762, -1.000000000000492e-04, 3.900000000004186e-03, 1.705109609459158e-04, 3.006355769981796e-06, 5.124569151021086e+01, 3.233963567154558e+03, 5.143066313809144e+02, 3.344807665662647e+03
763, -5.000000000007867e-05, 3.900000000002170e-03, 1.703327611109624e-04, -7.686051294266988e-07, 4.813815436425006e+01, 1.620288282410841e+03, 4.306932905756312e+02, 1.792663623579274e+03
764, -1.410275975860520e-16, 3.900000000000153e-03, 1.701775455481464e-04, -4.544044748927901e-06, 4.223022366304633e+01, 9.318213281715998e+00, 3.214201283469770e+02, 6.436822166672694e+02
765, 4.999999999985460e-05, 3.899999999998138e-03, 1.700452582808056e-04, -8.321225500662772e-06, 3.330632477756967e+01, -1.598522329162889e+03, 1.864402292716713e+02, 1.673889062090024e+03
766, 9.999999999988204e-05, 3.899999999996121e-03, 1.699358337040095e-04, -1.210141159468540e-05, 2.114818391969925e+01, -3.202804927833460e+03, 2.570683759948551e+01, 3.224363042955980e+03
767, 1.499999999999321e-04, 3.899999999994104e-03, 1.698491965293824e-04, -1.588586904335162e-05, 5.534834083764622e+00, -4.803097044974397e+03, -1.608265882258507e+02, 4.819377689517175e+03
768, 1.999999999999652e-04, 3.899999999992088e-03, 1.697852617301808e-04, -1.967586566512251e-05, -1.375747150227983e+01, -6.398962100603853e+03, -3.732063205568901e+02, 6.428683378913182e+03
769, -2.000000000000091e-04, 3.800000000007874e-03, 1.633878403161515e-04, 1.061441022689696e-05, 4.980573495072451e+01, 6.676415870414107e+03, 6.147934864170062e+02, 6.739721508429642e+03
770, -1.500000000000321e-04, 3.800000000005924e-03, 1.631652263069274e-04, 6.893522957850255e-06, 5.145375181496473e+01, 5.006595356640703e+03, 5.817782043217119e+02, 5.089920612344576e+03
771, -1.000000000000568e-04, 3.800000000003971e-03, 1.629664131051092e-04, 3.174708397645030e-06, 5.078041579065871e+01, 3.338595852396118e+03, 5.227847199519799e+02, 3.450064607922905e+03
772, -5.000000000008884e-05, 3.800000000002021e-03, 1.627913660372991e-04, -5.433125524570968e-07, 4.757527714440499e+01, 1.672833464327892e+03, 4.377607471294419e+02, 1.846077479933132e+03
773, -1.538415120121150e-16, 3.800000000000070e-03, 1.626400409153819e-04, -4.261820909347909e-06, 4.162519633370772e+01, 9.728552139046371e+00, 3.266539507483506e+02, 6.540860876588831e+02
774, 4.999999999984441e-05, 3.799999999998119e-03, 1.625123839802561e-04, -7.982099616415041e-06, 3.271428021633693e+01, -1.650294277789781e+03, 1.894120619428649e+02, 1.725116089763128e+03
775, 9.999999999987444e-05, 3.799999999996168e-03, 1.624083318449353e-04, -1.170543354961911e-05, 2.062384075153955e+01, -3.306806179008940e+03, 2.598295221288973e+01, 3.327835781949887e+03
776, 1.499999999999278e-04, 3.799999999994218e-03, 1.623278114374216e-04, -1.543310952234977e-05, 5.132401231502058e+00, -4.959374039310624e+03, -1.636852983514071e+02, 4.975288504777367e+03
777, 1.999999999999633e-04, 3.799999999992265e-03, 1.622707399437066e-04, -1.916641628883322e-05, -1.398421904629885e+01, -6.607560403743812e+03, -3.796443522822085e+02, 6.637150460874706e+03
778, -2.000000000000110e-04, 3.700000000007529e-03, 1.559540014025990e-04, 1.065299626407574e-05, 4.960499567938871e+01, 6.888507572991799e+03, 6.243679463255023e+02, 6.951973086222733e+03
779, -1.500000000000364e-04, 3.700000000005644e-03, 1.557330985254025e-04, 6.990822738384597e-06, 5.103912113980891e+01, 5.165864438455622e+03, 5.908925969900129e+02, 5.249576580198179e+03
780, -1.000000000000644e-04, 3.700000000003758e-03, 1.555367410682269e-04, 3.330755608205610e-06, 5.021384732699767e+01, 3.444987787628280e+03, 5.310266655297614e+02, 3.557027886278560e+03
781, -5.000000000009902e-05, 3.700000000001873e-03, 1.553648967723692e-04, -3.285044866397866e-07, 4.691903198793534e+01, 1.726293983894014e+03, 4.447123602963222e+02, 1.900362218812731e+03
782, -1.666825314924902e-16, 3.699999999999988e-03, 1.552175238705092e-04, -3.988258962417899e-06, 4.094144651247535e+01, 1.020359794441305e+01, 3.318918470254616e+02, 6.644950021049691e+02
783, 4.999999999983423e-05, 3.699999999998102e-03, 1.550945710275677e-04, -7.649811300164384e-06, 3.206493355018955e+01, -1.702858474574703e+03, 1.925073326590431e+02, 1.777131262616718e+03
784, 9.999999999986681e-05, 3.699999999996217e-03, 1.549959772818017e-04, -1.131446705282497e-05, 2.007042853587291e+01, -3.412462969010669e+03, 2.650113320844797e+01, 3.432942581156541e+03
785, 1.499999999999234e-04, 3.699999999994331e-03, 1.549216719856027e-04, -1.498353385120577e-05, 4.735930046036287e+00, -5.118176241507055e+03, -1.661842547627741e+02, 5.133682688243504e+03
786, 1.999999999999614e-04, 3.699999999992445e-03, 1.548715747457457e-04, -1.865832140811180e-05, -1.416341987215264e+01, -6.819560162192352e+03, -3.856060429934603e+02, 6.848955606656731e+03
787, -2.000000000000130e-04, 3.600000000007325e-03, 1.486386664703171e-04, 1.067538656619220e-05, 4.930268056652847e+01, 7.104031594881137e+03, 6.334263666957919e+02, 7.167573920272345e+03
788, -1.500000000000407e-04, 3.600000000005489e-03, 1.484194974227718e-04, 7.073773085075827e-06, 5.051708422250522e+01, 5.327733863796957e+03, 5.996210162479249e+02, 5.411764812990945e+03
789, -1.000000000000720e-04, 3.600000000003653e-03, 1.482256297612660e-04, 3.474301530898897e-06, 4.954140627216066e+01, 3.553141998829954e+03, 5.390127994193143e+02, 3.665699974619131e+03
790, -5.000000000010923e-05, 3.600000000001818e-03, 1.480570338525445e-04, -1.243477121612607e-07, 4.616535225452833e+01, 1.780672288730615e+03, 4.515381832802458e+02, 1.955520707260283e+03
791, -1.794761171278192e-16, 3.599999999999982e-03, 1.479136705605670e-04, -3.723496460054049e-06, 4.017556421012046e+01, 1.074542329355319e+01, 3.371336508936216e+02, 6.749092734981631e+02
792, 4.999999999982404e-05, 3.599999999998146e-03, 1.477954911859289e-04, -7.324468736672619e-06, 3.135569274729431e+01, -1.756213424595281e+03, 1.957357111132439e+02, 1.829932573538419e+03
793, 9.999999999985923e-05, 3.599999999996311e-03, 1.477024374051987e-04, -1.092859078178341e-05, 1.948639809293246e+01, -3.519774563667999e+03, 2.728094788580722e+01, 3.539681504869486e+03
794, 1.499999999999191e-04, 3.599999999994474e-03, 1.476344412098867e-04, -1.453719105840849e-05, 4.345324480268857e+00, -5.279503758980651e+03, -1.682939257501379e+02, 5.294558765238929e+03
795, 1.999999999999595e-04, 3.599999999992638e-03, 1.475914248447150e-04, -1.815160025994903e-05, -1.429318751240675e+01, -7.034962404531300e+03, -3.910519947259529e+02, 7.064098166440871e+03
796, -2.000000000000149e-04, 3.500000000007369e-03, 1.414455891421760e-04, 1.068133634254806e-05, 4.889501111596326e+01, 7.322990182126706e+03, 6.419285798207087e+02, 7.386524877321158e+03
797, -1.500000000000451e-04, 3.500000000005565e-03, 1.412281719230699e-04, 7.142158019367738e-06, 4.988403903249207e+01, 5.492206335480356e+03, 6.079333588497243e+02, 5.576486694471958e+03
798, -1.000000000000796e-04, 3.500000000003764e-03, 1.410368233943949e-04, 3.605159143198603e-06, 4.875944648940083e+01, 3.663061191719667e+03, 5.467229054583710e+02, 3.776082738366033e+03
799, -5.000000000011939e-05, 3.500000000001962e-03, 1.408715167639571e-04, 6.899984416831296e-08, 4.531059868768398e+01, 1.835970765382139e+03, 4.582279095834714e+02, 2.011555393488125e+03
800, -1.923239128717724e-16, 3.500000000000160e-03, 1.407322157431607e-04, -3.467662093434441e-06, 3.932399600670374e+01, 1.135578880682334e+01, 3.423790148307652e+02, 6.853289573627521e+02
801, 4.999999999981385e-05, 3.499999999998358e-03, 1.406188744853814e-04, -7.006171240383263e-06, 3.058310005154169e+01, -1.810358357349536e+03, 1.991068514456699e+02, 1.883517879593511e+03
802, 9.999999999985163e-05, 3.499999999996555e-03, 1.405314375235431e-04, -1.054787453165675e-05, 1.886828978759343e+01, -3.628741633701459e+03, 2.834208610125737e+01, 3.648050335359162e+03
803, 1.499999999999148e-04, 3.499999999994753e-03, 1.404698397072480e-04, -1.409412127535025e-05, 3.956837545951601e+00, -5.443359320555401e+03, -1.699845268516054e+02, 5.457914646070230e+03
804, 1.999999999999576e-04, 3.499999999992950e-03, 1.404340061395167e-04, -1.764626316128812e-05, -1.437703596421051e+01, -7.253771912131443e+03, -3.959421690545518e+02, 7.282576396991582e+03
805, -2.000000000000167e-04, 3.400000000007423e-03, 1.343785830356442e-04, 1.067061039516535e-05, 4.838132293416197e+01, 7.545386977151971e+03, 6.498329405409678e+02, 7.608825479784793e+03
806, -1.500000000000494e-04, 3.400000000005649e-03, 1.341629306195162e-04, 7.195771149265781e-06, 4.913918199391878e+01, 5.659285932071201e+03, 6.157981289490847e+02, 5.743742325337328e+03
807, -1.000000000000872e-04, 3.400000000003875e-03, 1.339741255157518e-04, 3.723151001897930e-06, 4.786669672891685e+01, 3.774749319926090e+03, 5.541357608210146e+02, 3.888176931773010e+03
808, -5.000000000012958e-05, 3.400000000002102e-03, 1.338121439959329e-04, 2.513898325090164e-07, 4.435338536819052e+01, 1.892193110519220e+03, 4.647706323456371e+02, 2.068467696777033e+03
809, -2.051242747706794e-16, 3.400000000000329e-03, 1.336769528438877e-04, -3.220874973608897e-06, 3.838571509921644e+01, 1.203807549668926e+01, 3.476273719553533e+02, 6.957538049072868e+02
810, 4.999999999980369e-05, 3.399999999998554e-03, 1.335685092920824e-04, -6.695008537391619e-06, 2.974701369830223e+01, -1.865290227155709e+03, 2.026305395198475e+02, 1.937886138659339e+03
811, 9.999999999984403e-05, 3.399999999996781e-03, 1.334867609573595e-04, -1.017237849670363e-05, 1.821743620080304e+01, -3.739361438015553e+03, 2.970469161561246e+01, 3.758048492339205e+03
812, 1.499999999999104e-04, 3.399999999995008e-03, 1.334316457763792e-04, -1.365435501620496e-05, 3.573968493637153e+00, -5.609740359843076e+03, -1.712255644507113e+02, 5.623750574518406e+03
813, 1.999999999999557e-04, 3.399999999993234e-03, 1.334030919411321e-04, -1.714231079711096e-05, -1.440939369197577e+01, -7.475986812217734e+03, -4.002354767511611e+02, 7.504391469003628e+03
814, -2.000000000000187e-04, 3.300000000007353e-03, 1.274415219465884e-04, 1.064298385252882e-05, 4.776040261593823e+01, 7.771225117636348e+03, 6.570960229943548e+02, 7.834475600696277e+03
815, -1.500000000000538e-04, 3.300000000005614e-03, 1.272276419052016e-04, 7.234416399762619e-06, 4.828040995879633e+01, 5.828975785753613e+03, 6.231824317085641e+02, 5.913532311613456e+03
816, -1.000000000000948e-04, 3.300000000003875e-03, 1.270413990960390e-04, 3.828109973691870e-06, 4.686076599055525e+01, 3.888209538174671e+03, 5.612292363239177e+02, 4.001983684671806e+03
817, -5.000000000013977e-05, 3.300000000002137e-03, 1.268827730852953e-04, 4.226842120165198e-07, 4.329136181611750e+01, 1.949342348869092e+03, 4.711550432712894e+02, 2.126259312606414e+03
818, -2.179652942510546e-16, 3.300000000000398e-03, 1.267517339619769e-04, -2.983243896371258e-06, 3.735871846151883e+01, 1.279500359870224e+01, 3.528782682895516e+02, 7.061838747889906e+02
819, 4.999999999979350e-05, 3.299999999998659e-03, 1.266482422717378e-04, -6.391060024768435e-06, 2.884608772470506e+01, -1.921006799812220e+03, 2.063172184162401e+02, 1.993036241892290e+03
820, 9.999999999983644e-05, 3.299999999996922e-03, 1.265722489507366e-04, -9.802152520474784e-06, 1.753346249732499e+01, -3.851632409980582e+03, 3.139016037355631e+01, 3.869675169496896e+03
821, 1.499999999999061e-04, 3.299999999995182e-03, 1.265236952593473e-04, -1.321791241567819e-05, 3.197572873148715e+00, -5.778646196857609e+03, -1.719846085857127e+02, 5.792066315222563e+03
822, 1.999999999999538e-04, 3.299999999993444e-03, 1.265025127159092e-04, -1.663973343643019e-05, -1.438825920667989e+01, -7.701607650453707e+03, -4.038886842165570e+02, 7.729543728197483e+03
823, -2.000000000000206e-04, 3.200000000007042e-03, 1.206383399409287e-04, 1.059824287979563e-05, 4.702798085184770e+01, 8.000505466427794e+03, 6.636732089043622e+02, 8.063476460338501e+03
824, -1.500000000000580e-04, 3.200000000005365e-03, 1.204262340388572e-04, 7.257908723649193e-06, 4.730307437482713e+01, 6.001277219989304e+03, 6.300526804038257e+02, 6.085858497121160e+03
825, -1.000000000001024e-04, 3.200000000003689e-03, 1.202425665722962e-04, 3.919879952126335e-06, 4.573720630146806e+01, 4.003443630200260e+03, 5.679807681057023e+02, 4.117505160837269e+03
826, -5.000000000014997e-05, 3.200000000002012e-03, 1.200873206394292e-04, 5.827559717763112e-07, 4.212037068677296e+01, 2.007420416366641e+03, 4.773696521109221e+02, 2.184932815574727e+03
827, -2.307656561499616e-16, 3.200000000000335e-03, 1.199604698724837e-04, -2.754866620902820e-06, 3.623914538242911e+01, 1.362829370486088e+01, 3.581313366710903e+02, 7.166194721306923e+02
828, 4.999999999978330e-05, 3.199999999998658e-03, 1.198619783695904e-04, -6.094394052631044e-06, 2.787674519544385e+01, -1.977506952093871e+03, 2.101776899281000e+02, 2.048966182914645e+03
829, 9.999999999982882e-05, 3.199999999996980e-03, 1.197918006265451e-04, -9.437235386045905e-06, 1.681301816498876e+01, -3.965554434942099e+03, 3.342050611864525e+01, 3.982928351412254e+03
830, 1.499999999999017e-04, 3.199999999995303e-03, 1.197498814684468e-04, -1.278480253135590e-05, 2.824417208886757e+00, -5.950078158746993e+03, -1.722284308666636e+02, 5.962860019186878e+03
831, 1.999999999999519e-04, 3.199999999993626e-03, 1.197361559809956e-04, -1.613851025744054e-05, -1.431604579794896e+01, -7.930637008144691e+03, -4.068572926879035e+02, 7.958031729350151e+03
832, -2.000000000000225e-04, 3.100000000006703e-03, 1.139730312928744e-04, 1.053618544205526e-05, 4.618130774600934e+01, 8.233229307688038e+03, 6.695189798107637e+02, 8.295828928483406e+03
833, -1.500000000000624e-04, 3.100000000005093e-03, 1.137626951122509e-04, 7.266074862703261e-06, 4.620419323557485e+01, 6.176192285906825e+03, 6.363746548999015e+02, 6.260722388182308e+03
834, -1.000000000001100e-04, 3.100000000003483e-03, 1.135816098354463e-04, 3.998316616492192e-06, 4.449283023115333e+01, 4.120454054948980e+03, 5.743673710817504e+02, 4.234743370412982e+03
835, -5.000000000016015e-05, 3.100000000001875e-03, 1.134297623366631e-04, 7.314898872153329e-07, 4.083720826198498e+01, 2.066429914567073e+03, 4.834027589532716e+02, 2.244490748764831e+03
836, -2.436134518939148e-16, 3.100000000000265e-03, 1.133071300365069e-04, -2.535829116159041e-06, 3.502401461689726e+01, 1.454047102985282e+01, 3.633862211805271e+02, 7.270610418206536e+02
837, 4.999999999977311e-05, 3.099999999998656e-03, 1.132136808319590e-04, -5.805067174118444e-06, 2.683648613741059e+01, -2.034788431728082e+03, 2.142229832908267e+02, 2.105674060305627e+03
838, 9.999999999982122e-05, 3.099999999997047e-03, 1.131493730259635e-04, -9.077654070195366e-06, 1.605437655812557e+01, -4.081125702575683e+03, 3.581815906910469e+01, 4.097806286652325e+03
839, 1.499999999998973e-04, 3.099999999995438e-03, 1.131141552568305e-04, -1.235502260370391e-05, 2.453958225488918e+00, -6.124034964097955e+03, -1.719231832500264e+02, 6.136130445085661e+03
840, 1.999999999999499e-04, 3.099999999993829e-03, 1.131079664276444e-04, -1.563860860143308e-05, -1.419190913674106e+01, -8.163074464565210e+03, -4.090959692259173e+02, 8.189855001788127e+03
841, -2.000000000000244e-04, 3.000000000006373e-03, 1.074496505152204e-04, 1.045662212742452e-05, 4.522016003009571e+01, 8.469398946566818e+03, 6.745862533586564e+02, 8.531532961925259e+03
842, -1.500000000000668e-04, 3.000000000004845e-03, 1.072410730758508e-04, 7.258754165595359e-06, 4.498283918712559e+01, 6.353723978076765e+03, 6.421128425961595e+02, 6.438124755550038e+03
843, -1.000000000001176e-04, 3.000000000003318e-03, 1.070625702484417e-04, 4.063288239838155e-06, 4.312584210444163e+01, 4.239243935123841e+03, 5.803651901820080e+02, 4.353699813545343e+03
844, -5.000000000017031e-05, 3.000000000001789e-03, 1.069141329357962e-04, 8.687833214277504e-07, 3.943957825349435e+01, 2.126373930393941e+03, 4.892422172631807e+02, 2.304935309017205e+03
845, -2.564273663199779e-16, 3.000000000000262e-03, 1.067957426008291e-04, -2.326204763127275e-06, 3.371092267582060e+01, 1.553445299334589e+01, 3.686425228271069e+02, 7.375090661106844e+02
846, 4.999999999976296e-05, 2.999999999998735e-03, 1.067073711942313e-04, -5.523123348042429e-06, 2.572316829542706e+01, -2.092848646817760e+03, 2.184644861417380e+02, 2.163158214882277e+03
847, 9.999999999981362e-05, 2.999999999997206e-03, 1.066489810820494e-04, -8.723422942923848e-06, 1.525602205133214e+01, -4.198344118698470e+03, 3.860633269480380e+01, 4.214307528150185e+03
848, 1.499999999998930e-04, 2.999999999995678e-03, 1.066205249730419e-04, -1.192855724656161e-05, 2.085586341207545e+00, -6.300515284016785e+03, -1.710337997293545e+02, 6.311876739420437e+03
849, 1.999999999999481e-04, 2.999999999994151e-03, 1.066219458457739e-04, -1.513998315959974e-05, -1.401562669748603e+01, -8.398919984921935e+03, -4.105577674289368e+02, 8.425013461007424e+03
850, -2.000000000000263e-04, 2.900000000006043e-03, 1.010723125048340e-04, 1.035937696591006e-05, 4.414390566601810e+01, 8.709016310856430e+03, 6.788261724269828e+02, 8.770589130025290e+03
851, -1.500000000000711e-04, 2.900000000004594e-03, 1.008654758389935e-04, 7.235799401957026e-06, 4.363703057876205e+01, 6.533874422016706e+03, 6.472303639106641e+02, 6.618066936280634e+03
852, -1.000000000001252e-04, 2.900000000003146e-03, 1.006895487112846e-04, 4.114676502834366e-06, 4.163361499484404e+01, 4.359815703707965e+03, 5.859494670006789e+02, 4.474376343446798e+03
853, -5.000000000018052e-05, 2.900000000001698e-03, 1.005445263137655e-04, 9.945470380429724e-07, 3.792456324503939e+01, 2.187255110256143e+03, 4.948754003178656e+02, 2.366268887441603e+03
854, -2.692480570096190e-16, 2.900000000000249e-03, 1.004303944126952e-04, -2.126053543311753e-06, 3.229692833464412e+01, 1.661291676539656e+01, 3.738997729808483e+02, 7.479640025826268e+02
855, 4.999999999975274e-05, 2.899999999998802e-03, 1.003471292746190e-04, -5.248593128739891e-06, 2.453410747763360e+01, -2.151685079170666e+03, 2.229139327260203e+02, 2.221416762777690e+03
856, 9.999999999980604e-05, 2.899999999997354e-03, 1.002946975922253e-04, -8.374542958286521e-06, 1.441582930032450e+01, -4.317207515787041e+03, 4.180902316037984e+01, 4.332430355052043e+03
857, 1.499999999998886e-04, 2.899999999995905e-03, 1.002730564098195e-04, -1.150537763972558e-05, 1.718135343863310e+00, -6.479517425778819e+03, -1.695239530068083e+02, 6.490097678874600e+03
858, 1.999999999999462e-04, 2.899999999994458e-03, 1.002821530484099e-04, -1.464257516291525e-05, -1.378675918250769e+01, -8.638172290612642e+03, -4.111940689753972e+02, 8.663506682872912e+03
859, -2.000000000000283e-04, 2.800000000005697e-03, 9.484519260486922e-05, 1.024428822851251e-05, 4.294841088539181e+01, 8.952080086430153e+03, 6.821888945367625e+02, 9.012999165844416e+03
860, -1.500000000000755e-04, 2.800000000004316e-03, 9.464007131346497e-05, 7.197077574279082e-06, 4.216244861119685e+01, 6.716643388892691e+03, 6.516897329809952e+02, 6.800550996387888e+03
861, -1.000000000001328e-04, 2.800000000002934e-03, 9.446670569118909e-05, 4.152377314533275e-06, 4.001203806598323e+01, 4.482170266767139e+03, 5.910949748017330e+02, 4.596775261611212e+03
862, -5.000000000019071e-05, 2.800000000001552e-03, 9.432509548312695e-05, 1.108706026012735e-06, 3.628808933019002e+01, 2.249075013045105e+03, 5.002893948184541e+02, 2.428494159769584e+03
863, -2.820416426449479e-16, 2.800000000000171e-03, 9.421523102438423e-05, -1.935421213597355e-06, 3.077791974907711e+01, 1.777763444677589e+01, 3.791574397547992e+02, 7.584263074970421e+02
864, 4.999999999974258e-05, 2.799999999998790e-03, 9.413709316469460e-05, -4.981492843546128e-06, 2.326511042939114e+01, -2.211296180826446e+03, 2.275832345317918e+02, 2.280447473400509e+03
865, 9.999999999979847e-05, 2.799999999997408e-03, 9.409065319235599e-05, -8.031000837490335e-06, 1.352946455227402e+01, -4.437715034128803e+03, 4.545063994777919e+01, 4.452172574117630e+03
866, 1.499999999998843e-04, 2.799999999996027e-03, 9.407587275766456e-05, -1.108544072050760e-05, 1.346961494969946e+00, -6.661041792753271e+03, -1.673566854690702e+02, 6.670791328876822e+03
867, 1.999999999999443e-04, 2.799999999994645e-03, 9.409270379571934e-05, -1.414631158525492e-05, -1.351019130719874e+01, -8.880833470432031e+03, -4.109552445938914e+02, 8.905333176739996e+03
868, -2.000000000000301e-04, 2.700000000005420e-03, 8.877252650101906e-05, 1.011120931653645e-05, 4.163461204815735e+01, 9.198591279038492e+03, 6.846234498441806e+02, 9.258763009897430e+03
869, -1.500000000000799e-04, 2.700000000004097e-03, 8.856908736186332e-05, 7.142470804335944e-06, 4.055942888928575e+01, 6.902033134886171e+03, 6.554524636240114e+02, 6.985577509867724e+03
870, -1.000000000001404e-04, 2.700000000002773e-03, 8.839826120083783e-05, 4.176301691283013e-06, 3.826029982018565e+01, 4.606310347093780e+03, 5.957757323305536e+02, 4.720897809456621e+03
871, -5.000000000020087e-05, 2.700000000001450e-03, 8.826005258780161e-05, 1.211200372829655e-06, 3.452859831173896e+01, 2.311836714196183e+03, 5.054708408476032e+02, 2.491612999336351e+03
872, -2.948962146524792e-16, 2.700000000000125e-03, 8.815445670101267e-05, -1.754338437080946e-06, 2.915204336782244e+01, 1.903194725683784e+01, 3.844148741022026e+02, 7.688963506672046e+02
873, 4.999999999973239e-05, 2.699999999998801e-03, 8.808145924972898e-05, -4.721823726357547e-06, 2.191451130562984e+01, -2.271678412325872e+03, 2.324845257876482e+02, 2.340248858189088e+03
874, 9.999999999979085e-05, 2.699999999997478e-03, 8.804103639616992e-05, -7.692768204135133e-06, 1.259600455445695e+01, -4.559862951633011e+03, 4.955616374498510e+01, 4.573533006274193e+03
875, 1.499999999998800e-04, 2.699999999996155e-03, 8.803315467704525e-05, -1.066868831939537e-05, 9.726347749939350e-01, -6.845084339919581e+03, -1.644941130380118e+02, 6.853957203956039e+03
876, 1.999999999999424e-04, 2.699999999994831e-03, 8.805777092484448e-05, -1.365110427959306e-05, -1.318343741089279e+01, -9.126899333035570e+03, -4.097903914648141e+02, 9.150493434012695e+03
877, -2.000000000000321e-04, 2.600000000005380e-03, 8.285861037375627e-05, 9.960009701017687e-06, 4.020592024488030e+01, 9.448552111754992e+03, 6.860766365645289e+02, 9.507880029967859e+03
878, -1.500000000000841e-04, 2.600000000004088e-03, 8.265681190100373e-05, 7.071877253145592e-06, 3.882912355626308e+01, 7.090046124454151e+03, 6.584781614093050e+02, 7.173146809452830e+03
879, -1.000000000001480e-04, 2.600000000002797e-03, 8.248849486170476e-05, 4.186376665001591e-06, 3.637784501057649e+01, 4.732238598193109e+03, 5.999644796525719e+02, 4.846745064541683e+03
880, -5.000000000021105e-05, 2.600000000001504e-03, 8.235366893221378e-05, 1.301986165364154e-06, 3.264434398622689e+01, 2.375543025128989e+03, 5.104056591778436e+02, 2.555627120255138e+03
881, -3.077169053421203e-16, 2.600000000000212e-03, 8.225233441733135e-05, -1.582819886283881e-06, 2.741674935875221e+01, 2.037867955370371e+01, 3.896712206258588e+02, 7.793742202323398e+02
882, 4.999999999972220e-05, 2.599999999998920e-03, 8.218448217068573e-05, -4.469571022278131e-06, 2.047924770757857e+01, -2.332829163894585e+03, 2.376302247577048e+02, 2.400819229969446e+03
883, 9.999999999978321e-05, 2.599999999997628e-03, 8.215009351461354e-05, -7.359800687945443e-06, 1.161205157814527e+01, -4.683649195276296e+03, 5.415134318335151e+01, 4.696510156284916e+03
884, 1.499999999998756e-04, 2.599999999996335e-03, 8.214914015971592e-05, -1.025504626183027e-05, 5.913902064318108e-01, -7.031644020526882e+03, -1.608970698649353e+02, 7.039594188611729e+03
885, 1.999999999999405e-04, 2.599999999995043e-03, 8.218158412434608e-05, -1.315684907443943e-05, -1.281050922197903e+01, -9.376370126455846e+03, -4.076469449982013e+02, 9.398986798190446e+03
886, -2.000000000000340e-04, 2.500000000005436e-03, 7.710780109060309e-05, 9.790575786107979e-06, 3.865893996446584e+01, 9.701959222193562e+03, 6.864938435545739e+02, 9.760351814021988e+03
887, -1.500000000000885e-04, 2.500000000004174e-03, 7.690759302769887e-05, 6.985211997110088e-06, 3.696765181981959e+01, 7.280680680444559e+03, 6.607255918820854e+02, 7.363260940109315e+03
888, -1.000000000001556e-04, 2.500000000002911e-03, 7.674174598424549e-05, 4.182546169161275e-06, 3.436100707440926e+01, 4.859955174569118e+03, 6.036333717011382e+02, 4.974319255846381e+03
889, -5.000000000022121e-05, 2.500000000001650e-03, 7.661027502943518e-05, 1.381036382036796e-06, 3.063171169332929e+01, 2.440195374380169e+03, 5.150794758205608e+02, 2.620538973224240e+03
890, -3.205375960317614e-16, 2.500000000000388e-03, 7.651318588367396e-05, -1.420863347958365e-06, 2.556848477118137e+01, 2.182011660872115e+01, 3.949256453420244e+02, 7.898601848802984e+02
891, 4.999999999971200e-05, 2.499999999999127e-03, 7.645047483626872e-05, -4.224703092012592e-06, 1.895594839811406e+01, -2.394745635086971e+03, 2.430330968122194e+02, 2.462156712864346e+03
892, 9.999999999977564e-05, 2.499999999997865e-03, 7.642212866308066e-05, -7.032037031447412e-06, 1.057462659036537e+01, -4.809070730471742e+03, 5.926259355987844e+01, 4.821102528243109e+03
893, 1.499999999998713e-04, 2.499999999996604e-03, 7.642812454384681e-05, -9.844423479369750e-06, 2.009163959804710e-01, -7.220717793217240e+03, -1.565254854950368e+02, 7.227701427236745e+03
894, 1.999999999999386e-04, 2.499999999995341e-03, 7.646842997911678e-05, -1.266342490138127e-05, -1.239282345076981e+01, -9.629243089125674e+03, -4.044710435123458e+02, 9.650813247212451e+03
895, -2.000000000000358e-04, 2.400000000005491e-03, 7.152451602722449e-05, 9.602811847720861e-06, 3.699573533501768e+01, 9.958812395871038e+03, 6.858194303404408e+02, 1.001617886269110e+04
896, -1.500000000000929e-04, 2.400000000004260e-03, 7.132583890798632e-05, 6.882407961330924e-06, 3.497562000918151e+01, 7.473937913265801e+03, 6.621528114654246e+02, 7.555921213420641e+03
897, -1.000000000001632e-04, 2.400000000003029e-03, 7.116241349431804e-05, 4.164771969763925e-06, 3.220873935673239e+01, 4.989461849344822e+03, 6.067541132870252e+02, 5.103622303075481e+03
898, -5.000000000023145e-05, 2.400000000001797e-03, 7.103426054503222e-05, 1.448341822905449e-06, 2.848856033270579e+01, 2.505796199110170e+03, 5.194777567630701e+02, 2.686351000191810e+03
899, -3.333650629849805e-16, 2.400000000000566e-03, 7.094139149383979e-05, -1.268448793541444e-06, 2.360440958291747e+01, 2.335923207940084e+01, 4.001774830049978e+02, 8.003550035633373e+02
900, 4.999999999970184e-05, 2.399999999999334e-03, 7.088380836540862e-05, -3.987170482295345e-06, 1.734144433492588e+01, -2.457424470672706e+03, 2.487064517227082e+02, 2.524259481629723e+03
901, 9.999999999976805e-05, 2.399999999998102e-03, 7.086150369095167e-05, -6.709398158823872e-06, 9.480617640709283e+00, -4.936123976311314e+03, 6.491729831700957e+01, 4.947308543258896e+03
902, 1.499999999998670e-04, 2.399999999996872e-03, 7.087446042341531e-05, -9.436711074898874e-06, -2.013525706993278e-01, -7.412301953173170e+03, -1.513377969866302e+02, 7.418277955741383e+03
903, 1.999999999999366e-04, 2.399999999995640e-03, 7.092265185217323e-05, -1.217069284091152e-05, -1.193214404860862e+01, -9.885514722296906e+03, -4.002070326161404e+02, 9.905972723832321e+03
904, -2.000000000000378e-04, 2.300000000005451e-03, 6.611323317085054e-05, 9.396641030737667e-06, 3.521836947814666e+01, 1.021911025337864e+04, 6.839960689431354e+02, 1.027536161856569e+04
905, -1.500000000000972e-04, 2.300000000004251e-03, 6.591601783366649e-05, 6.763416903293340e-06, 3.285324403092920e+01, 7.669817689970550e+03, 6.627163995592401e+02, 7.751128824469692e+03
906, -1.000000000001708e-04, 2.300000000003051e-03, 6.575495595953036e-05, 4.133034639300089e-06, 2.991982638623631e+01, 5.120759658692949e+03, 6.092974255843676e+02, 5.234656016348697e+03
907, -5.000000000024163e-05, 2.300000000001851e-03, 6.563007430038405e-05, 1.503912074643686e-06, 2.621240885234204e+01, 2.572347400535956e+03, 5.235854020196002e+02, 2.753065580168373e+03
908, -3.461857536746216e-16, 2.300000000000652e-03, 6.554139030867973e-05, -1.125537421884105e-06, 2.152100018748490e+01, 2.499852550652577e+01, 4.054258899794644e+02, 8.108592370102888e+02
909, 4.999999999969163e-05, 2.299999999999453e-03, 6.548891205159784e-05, -3.756904976027077e-06, 1.563134885101977e+01, -2.520862878738915e+03, 2.546637844121741e+02, 2.587125342723382e+03
910, 9.999999999976044e-05, 2.299999999998253e-03, 6.547263812471247e-05, -6.391786234120560e-06, 8.324904612112164e+00, -5.064806200438475e+03, 7.114338149931444e+01, 5.075126080400014e+03
911, 1.499999999998626e-04, 2.299999999997052e-03, 6.549255756514182e-05, -9.031781388603494e-06, -6.212210434631515e-01, -7.606394257329634e+03, -1.452915616308289e+02, 7.611321963431994e+03
912, 1.999999999999347e-04, 2.299999999995853e-03, 6.554864976414913e-05, -1.167849520325406e-05, -1.143430752729319e+01, -1.014518325177125e+04, -3.947977868534296e+02, 1.016446402103834e+04
913, -2.000000000000396e-04, 2.200000000005174e-03, 6.087849117735270e-05, 9.172006320106910e-06, 3.332800583962182e+01, 1.048284966347395e+04, 6.809647858166863e+02, 1.053790088354689e+04
914, -1.500000000001016e-04, 2.200000000004032e-03, 6.068265826339954e-05, 6.628210399217059e-06, 3.060035252265288e+01, 7.868318722768940e+03, 6.623718475726148e+02, 7.948885148819496e+03
915, -1.000000000001784e-04, 2.200000000002889e-03, 6.052389161480190e-05, 4.087334543508013e-06, 2.749296301392405e+01, 5.253848979807681e+03, 6.112331886754444e+02, 5.367422217231443e+03
916, -5.000000000025179e-05, 2.200000000001748e-03, 6.040222428655155e-05, 1.547776496211546e-06, 2.380093022409426e+01, 2.639850684314971e+03, 5.273867973535891e+02, 2.820684961489042e+03
917, -3.590132206278407e-16, 2.200000000000606e-03, 6.031768006235891e-05, -9.920706762104084e-07, 1.931508545348731e+01, 2.674072336621600e+01, 4.106698363383062e+02, 8.213732391616711e+02
918, 4.999999999968146e-05, 2.199999999999464e-03, 6.027027336683271e-05, -3.533818612631749e-06, 1.382188223966955e+01, -2.585057389472828e+03, 2.609187238053129e+02, 2.650752306547266e+03
919, 9.999999999975283e-05, 2.199999999998322e-03, 6.026000917704280e-05, -6.079083685647443e-06, 7.103362815911737e+00, -5.195113456019944e+03, 7.796919365470239e+01, 5.204553449702992e+03
920, 1.499999999998582e-04, 2.199999999997180e-03, 6.028688293357555e-05, -8.629487029210809e-06, -1.062872448078224e+00, -7.802990538956587e+03, -1.383436387383845e+02, 7.806832338596007e+03
921, 1.999999999999328e-04, 2.199999999996038e-03, 6.035088045122794e-05, -1.118665456543310e-05, -1.090357578044143e+01, -1.040824481504671e+04, -3.881852173738315e+02, 1.042628677419230e+04
922, -2.000000000000416e-04, 2.100000000004828e-03, 5.582488935270177e-05, 8.928871580938808e-06, 3.132885820103695e+01, 1.075002859124684e+04, 6.766652142666263e+02, 1.080379688887153e+04
923, -1.500000000001059e-04, 2.100000000003754e-03, 5.563034881191953e-05, 6.476780867933507e-06, 2.821908291648276e+01, 8.069440663223485e+03, 6.610733657287533e+02, 8.149191155145326e+03
924, -1.000000000001860e-04, 2.100000000002678e-03, 5.547379835047178e-05, 4.027692863398081e-06, 2.492832156801819e+01, 5.388730771026624e+03, 6.125304320361315e+02, 5.501922467419876e+03
925, -5.000000000026199e-05, 2.100000000001603e-03, 5.535527764536506e-05, 1.579985238586552e-06, 2.125278613978583e+01, 2.708308236109629e+03, 5.308658820806783e+02, 2.889211195160682e+03
926, -3.718339113174818e-16, 2.100000000000528e-03, 5.527481713310393e-05, -8.679692250767716e-07, 1.698423197597515e+01, 2.858910320250584e+01, 4.159082791255352e+02, 8.318975054757892e+02
927, 4.999999999967128e-05, 2.099999999999452e-03, 5.523243791978650e-05, -3.317802667961602e-06, 1.190993724559723e+01, -2.650003784122389e+03, 2.674853443130796e+02, 2.715138725313369e+03
928, 9.999999999974523e-05, 2.099999999998377e-03, 5.522815169060681e-05, -5.771152182657210e-06, 5.812666088736250e+00, -5.327040726194059e+03, 8.542402825146553e+01, 5.335589410926683e+03
929, 1.499999999998539e-04, 2.099999999997302e-03, 5.526196061885045e-05, -8.229659843589482e-06, -1.529352514253333e+00, -8.002085099038590e+03, -1.304494227838032e+02, 8.004808583649086e+03
930, 1.999999999999309e-04, 2.099999999996226e-03, 5.533385727458110e-05, -1.069497273589901e-05, -1.034252255813351e+01, -1.067469336654872e+04, -3.803093705004690e+02, 1.069144142727652e+04
931, -2.000000000000435e-04, 2.000000000004496e-03, 5.095708774226316e-05, 8.667222598010390e-06, 2.922374692229312e+01, 1.102064271433014e+04, 6.710352300868689e+02, 1.107305034925625e+04
932, -1.500000000001103e-04, 2.000000000003499e-03, 5.076373829850323e-05, 6.309142615400402e-06, 2.571027539838133e+01, 8.273181265547160e+03, 6.587739300643622e+02, 8.352048257587803e+03
933, -1.000000000001936e-04, 2.000000000002501e-03, 5.060931372888250e-05, 3.954152634831017e-06, 2.222512112766856e+01, 5.525404718725799e+03, 6.131573161758490e+02, 5.638158676459913e+03
934, -5.000000000027220e-05, 2.000000000001505e-03, 5.049386065860219e-05, 1.600610281753680e-06, 1.856570904080013e+01, 2.777721327429884e+03, 5.340061343170222e+02, 2.958646638657764e+03
935, -3.846512138753339e-16, 2.000000000000507e-03, 5.041741650591034e-05, -7.531319284414228e-07, 1.452485650516098e+01, 3.054619897997406e+01, 4.211401251469249e+02, 8.424326106281532e+02
936, 4.999999999966107e-05, 1.999999999999510e-03, 5.038000939006151e-05, -3.108726623721534e-06, 9.890785483916147e+00, -2.715698605451566e+03, 2.743780987685882e+02, 2.780282520233422e+03
937, 9.999999999973761e-05, 1.999999999998513e-03, 5.038165803868399e-05, -5.467831608339613e-06, 4.447089916354685e+00, -5.460584000277447e+03, 9.353799854412904e+01, 5.468232095062482e+03
938, 1.499999999998495e-04, 1.999999999997515e-03, 5.042237169452587e-05, -7.832109894834683e-06, -2.027306957414453e+00, -8.203673815184247e+03, -1.215630236362011e+02, 8.205249278405363e+03
939, 1.999999999999290e-04, 1.999999999996517e-03, 5.050215002159877e-05, -1.020322973439391e-05, -9.758183065659182e+00, -1.094452471677886e+04, -3.711085589179239e+02, 1.095992725326326e+04
940, -2.000000000000454e-04, 1.900000000004165e-03, 4.627980710696618e-05, 8.387068151942050e-06, 2.701752616724036e+01, 1.129468805885137e+04, 6.640111951305241e+02, 1.134566184504690e+04
941, -1.500000000001146e-04, 1.900000000003247e-03, 4.608753572844494e-05, 6.125332899699507e-06, 2.307614280770736e+01, 8.479538460965545e+03, 6.554253199996772e+02, 8.557457819867423e+03
942, -1.000000000002012e-04, 1.900000000002328e-03, 4.593513496490153e-05, 3.866779811976333e-06, 1.938339606612601e+01, 5.663870586471567e+03, 6.130811685708572e+02, 5.776132765066601e+03
943, -5.000000000028235e-05, 1.900000000001409e-03, 4.582265872415165e-05, 1.609746494007990e-06, 1.573787435440397e+01, 2.848091374132445e+03, 5.367905316853804e+02, 3.028993669081071e+03
944, -3.974685164331859e-16, 1.900000000000491e-03, 4.575015174320965e-05, -6.474347830595423e-07, 1.193355309304263e+01, 3.261484570618836e+01, 4.263641234841792e+02, 8.529790026969482e+02
945, 4.999999999965091e-05, 1.899999999999572e-03, 4.571764949429967e-05, -2.906437118726701e-06, 7.759714575283397e+00, -2.782137848176640e+03, 2.816116198285314e+02, 2.846181446840471e+03
946, 9.999999999973007e-05, 1.899999999998654e-03, 4.572517809007640e-05, -5.168939018560535e-06, 3.000894137704336e+00, -5.595738367549701e+03, 1.023417266028828e+02, 5.602479507894364e+03
947, 1.499999999998452e-04, 1.899999999997735e-03, 4.577275418810143e-05, -7.436624428830192e-06, -2.563175619781873e+00, -8.407751120017168e+03, -1.116377557000533e+02, 8.408152968080096e+03
948, 1.999999999999271e-04, 1.899999999996817e-03, 4.586038489443570e-05, -9.711182770638953e-06, -9.157574546328988e+00, -1.121773315594797e+04, -3.605198355954799e+02, 1.123174362115804e+04
949, -2.000000000000473e-04, 1.800000000003828e-03, 4.179782895229003e-05, 8.088441118091056e-06, 2.471449991433610e+01, 1.157215865985746e+04, 6.555278496300243e+02, 1.162163214327346e+04
950, -1.500000000001189e-04, 1.800000000002982e-03, 4.160651030173091e-05, 5.925413033864330e-06, 2.031902593898099e+01, 8.688509111318923e+03, 6.509781156413756e+02, 8.765421232573772e+03
951, -1.000000000002088e-04, 1.800000000002135e-03, 4.145601891837937e-05, 3.765664364789594e-06, 1.640340257727769e+01, 5.804127554010088e+03, 6.122684548068625e+02, 5.915846642373765e+03
952, -5.000000000029254e-05, 1.800000000001289e-03, 4.134641633451255e-05, 1.607512725968796e-06, 1.276764731543153e+01, 2.919419570983901e+03, 5.392015676605438e+02, 3.100254623032755e+03
953, -4.102858189910380e-16, 1.800000000000442e-03, 4.127775495098690e-05, -5.507298318115591e-07, 9.207070709883169e+00, 3.479801052092273e+01, 4.315789220579023e+02, 8.635371214134666e+02
954, 4.999999999964072e-05, 1.799999999999596e-03, 4.125007794117349e-05, -2.710756860903760e-06, 5.512177290620798e+00, -2.849316993348456e+03, 2.892008412862536e+02, 2.912833345719338e+03
955, 9.999999999972246e-05, 1.799999999998750e-03, 4.126341915417234e-05, -4.874267555146995e-06, 1.468617274783696e+00, -5.732497949554960e+03, 1.118665647805977e+02, 5.738329818229738e+03
956, 1.499999999998409e-04, 1.799999999997903e-03, 4.131780301723249e-05, -7.042966787560783e-06, -3.142853702507409e+00, -8.614309926705191e+03, -1.006256868539580e+02, 8.613518472412126e+03
957, 1.999999999999252e-04, 1.799999999997057e-03, 4.141324443744767e-05, -9.218565147087969e-06, -8.546511779495404e+00, -1.149431054551731e+04, -3.484786617890902e+02, 1.150689032491378e+04
958, -2.000000000000492e-04, 1.700000000003484e-03, 3.751599551168450e-05, 7.771399608222000e-06, 2.232132880667234e+01, 1.185304878067039e+04, 6.455184717511515e+02, 1.190096165987311e+04
959, -1.500000000001233e-04, 1.700000000002704e-03, 3.732549139151215e-05, 5.709469516842980e-06, 1.744257887232868e+01, 8.900089933074931e+03, 6.453816082736691e+02, 8.975939711267793e+03
960, -1.000000000002164e-04, 1.700000000001925e-03, 3.717678206314903e-05, 3.650921406615025e-06, 1.328610205579753e+01, 5.946174548782282e+03, 6.106847519115860e+02, 6.057302104581697e+03
961, -5.000000000030273e-05, 1.700000000001145e-03, 3.706993703391516e-05, 1.594052933779133e-06, 9.653609515728704e+00, 2.991706848910737e+03, 5.412212233519554e+02, 3.172431744421400e+03
962, -4.231031215488901e-16, 1.700000000000365e-03, 3.700501672184010e-05, -4.628440446564322e-07, 6.341868666044547e+00, 3.709837219463543e+01, 4.367830339662375e+02, 8.741073375463162e+02
963, 4.999999999963053e-05, 1.699999999999585e-03, 3.698207235763207e-05, -2.521483512751513e-06, 3.142735592249437e+00, -2.917231899403052e+03, 2.971609385200040e+02, 2.980235980967329e+03
964, 9.999999999971485e-05, 1.699999999998805e-03, 3.700114588603169e-05, -4.583585336702826e-06, -1.568998501077203e-01, -5.870857479240988e+03, 1.221444930166805e+02, 5.875781003539668e+03
965, 1.499999999998365e-04, 1.699999999998025e-03, 3.706226986646184e-05, -6.650875305594659e-06, -3.775177997824130e+00, -8.823344310873787e+03, -8.847789080041460e+01, 8.821344174116573e+03
966, 1.999999999999232e-04, 1.699999999997246e-03, 3.716546737270959e-05, -8.725085171748515e-06, -7.935236321016077e+00, -1.177425060609734e+04, -3.349188938393132e+02, 1.178536635165988e+04
967, -2.000000000000511e-04, 1.600000000003144e-03, 3.343920977213886e-05, 7.436028127819997e-06, 1.984475923380546e+01, 1.213735111645065e+04, 6.339145280806683e+02, 1.218365096483142e+04
968, -1.500000000001277e-04, 1.600000000002436e-03, 3.324936854501720e-05, 5.477615191179119e-06, 1.445048873855649e+01, 9.114276404756831e+03, 6.385838857056766e+02, 9.189014594512824e+03
969, -1.000000000002240e-04, 1.600000000001727e-03, 3.310230046916064e-05, 3.522692348391742e-06, 1.003270359182466e+01, 6.090009827827491e+03, 6.082948109879956e+02, 6.200500958755566e+03
970, -5.000000000031292e-05, 1.600000000001018e-03, 3.299808338584810e-05, 1.569537331156468e-06, 6.394710512056804e+00, 3.064953934692256e+03, 5.428310401606855e+02, 3.245527180669653e+03
971, -4.359339766338982e-16, 1.600000000000309e-03, 3.293678609193404e-05, -3.835781692366205e-07, 3.334905183885667e+00, 3.951887797834956e+01, 4.419749078311389e+02, 8.846900906512774e+02
972, 4.999999999962034e-05, 1.599999999999600e-03, 3.291846823985725e-05, -2.338388545335820e-06, 6.466889299053946e-01, -2.985877576021516e+03, 3.055073943783862e+02, 3.048387484757000e+03
973, 9.999999999970728e-05, 1.599999999998891e-03, 3.294318023752601e-05, -4.296634317075570e-06, -1.881602508438391e+00, -6.010810026606065e+03, 1.332081711058389e+02, 6.014831541558404e+03
974, 1.499999999998322e-04, 1.599999999998182e-03, 3.301096314774272e-05, -6.260062175466731e-06, -4.466773723493020e+00, -9.034845400402961e+03, -7.514436262382952e+01, 9.031629135550571e+03
975, 1.999999999999214e-04, 1.599999999997473e-03, 3.312184858698948e-05, -8.230425026537437e-06, -7.330861957977049e+00, -1.205754289449798e+04, -3.197730262242777e+02, 1.206717154855994e+04
976, -2.000000000000531e-04, 1.500000000002802e-03, 2.957243542957075e-05, 7.082438768448185e-06, 1.729278249594608e+01, 1.242505756205034e+04, 6.206459521657540e+02, 1.246970057445284e+04
977, -1.500000000001320e-04, 1.500000000002160e-03, 2.938309143480910e-05, 5.229990428274522e-06, 1.134777441371466e+01, 9.331063768667729e+03, 6.305318479925826e+02, 9.404647141646828e+03
978, -1.000000000002316e-04, 1.500000000001518e-03, 2.923750974413691e-05, 3.381146081926719e-06, 6.645222248893333e+00, 6.235631426611802e+03, 6.050626195647291e+02, 6.345444998463196e+03
979, -5.000000000032311e-05, 1.500000000000877e-03, 2.913577690130646e-05, 1.534163570864980e-06, 2.990221331121234e+00, 3.139161329941358e+03, 5.440122056258941e+02, 3.319543092348909e+03
980, -4.487512791917503e-16, 1.500000000000236e-03, 2.907797045264567e-05, -3.127055505438771e-07, 1.829393225162903e-01, 4.206218488162529e+01, 4.471530369382042e+02, 8.952861134748132e+02
981, 4.999999999961016e-05, 1.499999999999595e-03, 2.906415884475737e-05, -2.161216059816485e-06, -1.981477624022318e+00, -3.055249436734344e+03, 3.142561205904087e+02, 3.117286138204808e+03
982, 9.999999999969963e-05, 1.499999999998952e-03, 2.909440132285318e-05, -4.013129110486496e-06, -3.713028535452850e+00, -6.152349224031306e+03, 1.450910807961508e+02, 6.155479896114364e+03
983, 1.499999999998278e-04, 1.499999999998311e-03, 2.916874783037712e-05, -5.870212277391526e-06, -5.226995430112652e+00, -9.248805232594239e+03, -6.057383907549470e+01, 9.244372092602918e+03
984, 1.999999999999195e-04, 1.499999999997670e-03, 2.928723890833615e-05, -7.734239604047046e-06, -6.744078025304020e+00, -1.234417786778157e+04, -3.029718125541385e+02, 1.235230505587638e+04
985, -2.000000000000549e-04, 1.400000000002461e-03, 2.592069688599388e-05, 6.710772425443183e-06, 1.467455700539335e+01, 1.271615916867682e+04, 6.056409495373861e+02, 1.275911106541331e+04
986, -1.500000000001364e-04, 1.400000000001890e-03, 2.573166983555111e-05, 4.966764342371837e-06, 8.140113491366151e+00, 9.550446547811092e+03, 6.211710359535612e+02, 9.622838765670454e+03
987, -1.000000000002392e-04, 1.400000000001320e-03, 2.558740499135615e-05, 3.226480187628809e-06, 3.126124930456967e+00, 6.383037002229748e+03, 6.009512689061163e+02, 6.492136205647668e+03
988, -5.000000000033329e-05, 1.400000000000748e-03, 2.548799797855102e-05, 1.488157949798119e-06, -5.603084939032215e-01, 3.214329445795862e+03, 5.447454799714429e+02, 3.394481799043055e+03
989, -4.615719698813914e-16, 1.400000000000178e-03, 2.543353547451903e-05, -2.499709268970584e-07, -3.117104885724416e+00, 4.473113853339805e+01, 4.523159112331552e+02, 9.058963454043811e+02
990, 4.999999999959998e-05, 1.399999999999606e-03, 2.542409510090370e-05, -1.989681585703041e-06, -4.747222533470790e+00, -3.125342420003018e+03, 3.234233827960869e+02, 3.186930360805999e+03
991, 9.999999999969204e-05, 1.399999999999035e-03, 2.545974532057924e-05, -3.732755796556166e-06, -5.658793671186686e+00, -6.295467879472108e+03, 1.578273630217365e+02, 6.297724687686609e+03
992, 1.499999999998235e-04, 1.399999999998463e-03, 2.554054533875042e-05, -5.480981997609527e-06, -6.065309556356624e+00, -9.465214431000790e+03, -4.471411404815950e+01, 9.459571846003571e+03
993, 1.999999999999176e-04, 1.399999999997893e-03, 2.566654500768123e-05, -7.236155345133594e-06, -6.185745047258820e+00, -1.263414388121063e+04, -2.844446007307517e+02, 1.264076586335789e+04
994, -2.000000000000568e-04, 1.300000000002126e-03, 2.248907924141633e-05, 6.321200039938709e-06, 1.199965030518842e+01, 1.301064533420388e+04, 5.888260160980976e+02, 1.305188315625273e+04
995, -1.500000000001407e-04, 1.300000000001629e-03, 2.230017359904081e-05, 4.688136023740690e-06, 4.832859629691484e+00, 9.772417446231702e+03, 6.104456394878885e+02, 9.843591020125952e+03
996, -1.000000000002468e-04, 1.300000000001133e-03, 2.215704076737748e-05, 3.058922162519667e-06, -5.228210926327392e-01, 6.532222618593583e+03, 5.959228539212983e+02, 6.640576719761912e+03
997, -5.000000000034346e-05, 1.300000000000637e-03, 2.205978584279678e-05, 1.431776633627735e-06, -4.257938302400248e+00, 3.290457934327574e+03, 5.450110394982275e+02, 3.470345921383003e+03
998, -4.743892724392434e-16, 1.300000000000140e-03, 2.200850502449745e-05, -1.950892059044532e-07, -6.568450781518209e+00, 4.752908585623663e+01, 4.574619167078077e+02, 9.165217752035127e+02
999, 4.999999999958981e-05, 1.299999999999644e-03, 2.200328550056249e-05, -1.823470855992525e-06, -7.655757155238007e+00, -3.196149911581488e+03, 3.330258793758895e+02, 3.257317902530655e+03
1000, 9.999999999968445e-05, 1.299999999999148e-03, 2.204420533904172e-05, -3.455170695676808e-06, -7.726382283014345e+00, -6.440156956480225e+03, 1.714520956325089e+02, 6.441563969740126e+03
1001, 1.499999999998191e-04, 1.299999999998652e-03, 2.213133339460711e-05, -5.091998008465649e-06, -6.991727391882250e+00, -9.684062167342012e+03, -2.751160102819026e+01, 9.677226867885300e+03
1002, 1.999999999999157e-04, 1.299999999998155e-03, 2.226472921986950e-05, -6.735769028043665e-06, -5.668355430753877e+00, -1.292742838763904e+04, -2.641190828532265e+02, 1.293255264399431e+04
1003, -2.000000000000587e-04, 1.200000000001781e-03, 1.928272823080654e-05, 5.913923882704844e-06, 9.279718429687591e+00, 1.330850453584330e+04, 5.701262938778264e+02, 1.334801695788530e+04
1004, -1.500000000001450e-04, 1.200000000001350e-03, 1.909373260000112e-05, 4.394335826518265e-06, 1.430685455414277e+00, 9.996964808725523e+03, 5.982985508540537e+02, 1.006690354743073e+04
1005, -1.000000000002543e-04, 1.200000000000919e-03, 1.895153104703715e-05, 2.878730701352420e-06, -4.302451455148457e+00, 6.683178487916451e+03, 5.899378070643490e+02, 6.790766361705725e+03
1006, -5.000000000035367e-05, 1.200000000000488e-03, 1.885623851768653e-05, 1.365306913544118e-06, -8.106015403230913e+00, 3.367543162500087e+03, 5.447871433078986e+02, 3.547136802878297e+03
1007, -4.872353741173022e-16, 1.200000000000057e-03, 1.880796111773115e-05, -1.477442431455230e-07, -1.017482027346068e+01, 5.046121523225634e+01, 4.625879954637647e+02, 9.271609045848443e+02
1008, 4.999999999957962e-05, 1.199999999999626e-03, 1.880679599531997e-05, -1.662238611454354e-06, -1.071100191368873e+01, -3.267658927339398e+03, 3.430801104945098e+02, 3.328441923453454e+03
1009, 9.999999999967686e-05, 1.199999999999196e-03, 1.885283124151602e-05, -3.179999173543562e-06, -9.921738594192902e+00, -6.586400096947266e+03, 1.860017531169960e+02, 6.586991286356521e+03
1010, 1.499999999998148e-04, 1.199999999998765e-03, 1.894614577828293e-05, -4.702856052965711e-06, -8.016989262962738e+00, -9.905333907813862e+03, -8.910220163690781e+00, 9.897332961678483e+03
1011, 1.999999999999137e-04, 1.199999999998334e-03, 1.908680926959753e-05, -6.232646540305821e-06, -5.208367413362112e+00, -1.322402015295241e+04, -2.419202191121397e+02, 1.322766368604702e+04
1012, -2.000000000000607e-04, 1.100000000001707e-03, 1.630685012040622e-05, 5.489178891905458e-06, 6.531999328786696e+00, 1.360972694515541e+04, 5.494673590148116e+02, 1.364751150388428e+04
1013, -1.500000000001494e-04, 1.100000000001301e-03, 1.611753668352893e-05, 4.085626811160511e-06, -2.064636883925914e+00, 1.022406325147414e+04, 5.846722270825506e+02, 1.029276726840462e+04
1014, -1.000000000002619e-04, 1.100000000000895e-03, 1.597604927714354e-05, 2.686197168734606e-06, -8.220429792314917e+00, 6.835875648126366e+03, 5.829527909679161e+02, 6.942693061757160e+03
1015, -5.000000000036384e-05, 1.100000000000489e-03, 1.588251297715330e-05, 1.289068570679726e-06, -1.211417294153944e+01, 3.445569532958453e+03, 5.440453124593329e+02, 3.624847282035783e+03
1016, -5.000628410705213e-16, 1.100000000000083e-03, 1.583704405563275e-05, -1.075876697204404e-07, -1.394157403224199e+01, 5.353733185826150e+01, 4.676841759027146e+02, 9.377992089458087e+02
1017, 4.999999999956943e-05, 1.099999999999677e-03, 1.583975000846099e-05, -1.505607590085324e-06, -1.391354475537310e+01, -3.339836638629820e+03, 3.535993009688867e+02, 3.400278560493260e+03
1018, 9.999999999966927e-05, 1.099999999999272e-03, 1.589072944951611e-05, -2.906834657440826e-06, -1.224635623886695e+01, -6.734157702916331e+03, 2.015149601633028e+02, 6.733982868204352e+03
1019, 1.499999999998105e-04, 1.099999999998866e-03, 1.599007196382068e-05, -4.313119832569350e-06, -9.151160679996906e+00, -1.012900266740920e+04, 1.115238670554010e+01, 1.011987608724367e+04
1020, 1.999999999999118e-04, 1.099999999998460e-03, 1.613785784565246e-05, -5.726321586192157e-06, -4.831326978294669e+00, -1.352391635539432e+04, -2.177668028749029e+02, 1.352609882883013e+04
1021, -2.000000000000626e-04, 1.000000000002109e-03, 1.356671156344852e-05, 5.047234014743914e-06, 3.784578321681010e+00, 1.391431081303140e+04, 5.267807938833740e+02, 1.395036673875511e+04
1022, -1.500000000001537e-04, 1.000000000001674e-03, 1.337683563853462e-05, 3.762306603584354e-06, -5.651274454495024e+00, 1.045366033126940e+04, 5.695117998528107e+02, 1.052114889288793e+04
1023, -1.000000000002696e-04, 1.000000000001239e-03, 1.323582868683463e-05, 2.481647624959223e-06, -1.229203521365866e+01, 6.990243022718487e+03, 5.749163656176426e+02, 7.096309783781198e+03
1024, -5.000000000037402e-05, 1.000000000000804e-03, 1.314382571654051e-05, 1.203415581017191e-06, -1.629926986718237e+01, 3.524496164679148e+03, 5.427382733790422e+02, 3.703443214478385e+03
1025, -5.128852258260569e-16, 1.000000000000369e-03, 1.310095305880432e-05, -7.423785103571438e-08, -1.787848951164528e+01, 5.677624315235482e+01, 4.727198006553829e+02, 9.483825013336091e+02
1026, 4.999999999955924e-05, 9.999999999999337e-04, 1.310732876230522e-05, -1.353168079556192e-06, -1.726480374211587e+01, -3.412609616212045e+03, 3.645844609724608e+02, 3.472758804221332e+03
1027, 9.999999999966167e-05, 9.999999999994987e-04, 1.316306282077143e-05, -2.635238322535963e-06, -1.470019315586546e+01, -6.883340320270405e+03, 2.180334315842078e+02, 6.882468416561139e+03
1028, 1.499999999998061e-04, 9.999999999990637e-04, 1.326825656648789e-05, -3.922320272365476e-06, -1.040925265577698e+01, -1.035501795523474e+04, 3.275353962753707e+01, 1.034481611179749e+04
1029, 1.999999999999099e-04, 9.999999999986283e-04, 1.342300194830473e-05, -5.216294209365677e-06, -4.579923906765885e+00, -1.382713826061303e+04, -1.915623846064610e+02, 1.382786692011578e+04
1030, -2.000000000000644e-04, 9.000000000025380e-04, 1.106763993372048e-05, 4.588393408745816e-06, 1.077598168863233e+00, 1.422227489978425e+04, 5.020112381077807e+02, 1.425659544997398e+04
1031, -1.500000000001581e-04, 9.000000000020734e-04, 1.087693968328023e-05, 3.424709955226828e-06, -9.308850088173358e+00, 1.068568320345721e+04, 5.527687538497386e+02, 1.075197973427821e+04
1032, -1.000000000002772e-04, 9.000000000016087e-04, 1.073616306893510e-05, 2.265445909391178e-06, -1.649475944252640e+01, 7.146197154507164e+03, 5.657621469493621e+02, 7.251517267568443e+03
1033, -5.000000000038420e-05, 9.000000000011442e-04, 1.064545394336134e-05, 1.108738451674301e-06, -2.065476695984307e+01, 3.604280831874916e+03, 5.407860422629743e+02, 3.782850283810518e+03
1034, -5.256991402521199e-16, 9.000000000006796e-04, 1.060494737604995e-05, -4.727906112093259e-08, -2.200315361285652e+01, 6.021096786224950e+01, 4.776261295597652e+02, 9.587836253935974e+02
1035, 4.999999999954906e-05, 9.000000000002148e-04, 1.061477214489885e-05, -1.204478487342545e-06, -2.080401154234505e+01, -3.485879148012379e+03, 3.760137135309823e+02, 3.545742651749597e+03
1036, 9.999999999965402e-05, 8.999999999997502e-04, 1.067505086118284e-05, -2.364740065760684e-06, -1.733310769307536e+01, -7.033835151043844e+03, 2.356010990470687e+02, 7.032306338309947e+03
1037, 1.499999999998018e-04, 8.999999999992857e-04, 1.078589916330536e-05, -3.529955481466379e-06, -1.183368659190967e+01, -1.058331676469398e+04, 5.599641451357283e+01, 1.057207627972632e+04
1038, 1.999999999999080e-04, 8.999999999988212e-04, 1.094742264415153e-05, -4.702028869144470e-06, -4.517900690006400e+00, -1.413375834390263e+04, -1.631829968508339e+02, 1.413300924304375e+04
1039, -2.000000000000664e-04, 8.000000000027327e-04, 8.815027110679161e-06, 4.112996930698847e-06, -1.652624686233821e+00, 1.453357308147395e+04, 4.750903291147444e+02, 1.456624967561292e+04
1040, -1.500000000001624e-04, 8.000000000022627e-04, 8.623222256458282e-06, 3.073211176877560e-06, -1.288666956141287e+01, 1.092025522228208e+04, 5.343715897902644e+02, 1.098525391655026e+04
1041, -1.000000000002848e-04, 8.000000000017928e-04, 8.482408371410926e-06, 2.037996241442324e-06, -2.056129271875807e+01, 7.304006384344945e+03, 5.554124151323612e+02, 7.408321230847041e+03
1042, -5.000000000039436e-05, 8.000000000013229e-04, 8.392735156180339e-06, 1.005466135397649e-06, -2.496727322628658e+01, 3.685182106765212e+03, 5.381130023654284e+02, 3.863090839614084e+03
1043, -5.385198309417610e-16, 8.000000000008525e-04, 8.354345495880156e-06, -2.626083884300897e-08, -2.633639486078846e+01, 6.389179027021487e+01, 4.823546836009764e+02, 9.689196502080174e+02
1044, 4.999999999953886e-05, 8.000000000003829e-04, 8.367378124088125e-06, -1.059065803817433e-06, -2.478883871959852e+01, -3.559821771194936e+03, 3.878765193755416e+02, 3.619150537186417e+03
1045, 9.999999999964645e-05, 7.999999999999128e-04, 8.431971047846806e-06, -2.094839225662933e-06, -2.045612083114065e+01, -7.185874657536669e+03, 2.542651423562801e+02, 7.183441087433866e+03
1046, 1.499999999997974e-04, 7.999999999994429e-04, 8.548256811451775e-06, -3.135490566061103e-06, -1.361270185457283e+01, -1.081404868145705e+04, 8.098201910744709e+01, 1.080165032294448e+04
1047, 1.999999999999061e-04, 7.999999999989728e-04, 8.716358782390879e-06, -4.182951389851213e-06, -4.612170395339490e+00, -1.444382798246176e+04, -1.324978865126054e+02, 1.444164727540284e+04
1048, -2.000000000000683e-04, 7.000000000024487e-04, 6.814345867311954e-06, 3.621420637222297e-06, -4.955513432014868e+00, 1.484774212339343e+04, 4.457206464397412e+02, 1.487942521301179e+04
1049, -1.500000000001667e-04, 7.000000000020254e-04, 6.621132403144395e-06, 2.708218021191894e-06, -1.598140305552738e+01, 1.115845200027856e+04, 5.140399087834869e+02, 1.122162688725824e+04
1050, -1.000000000002923e-04, 7.000000000016023e-04, 6.479982029367562e-06, 1.799732826960824e-06, -2.329712278513580e+01, 7.465970249006087e+03, 5.438170024975054e+02, 7.567831492243871e+03
1051, -5.000000000040459e-05, 7.000000000011791e-04, 6.391055445339137e-06, 8.940578566577759e-07, -2.822814938782744e+01, 3.769084823791096e+03, 5.349983526079534e+02, 3.945184249872982e+03
1052, -5.513337453678241e-16, 7.000000000007558e-04, 6.354506753641072e-06, -1.069706745261405e-08, -3.086942908563174e+01, 6.787745869781554e+01, 4.873296309785830e+02, 9.796487251896999e+02
1053, 4.999999999952868e-05, 7.000000000003326e-04, 6.370491826069504e-06, -9.164155379164903e-07, -3.023381995269756e+01, -3.636238375206170e+03, 4.004991983682922e+02, 3.693895949276775e+03
1054, 9.999999999963887e-05, 6.999999999999092e-04, 6.439159553107280e-06, -1.824991945331609e-06, -2.532170405428360e+01, -7.341753376836752e+03, 2.740786112801667e+02, 7.336937287665714e+03
1055, 1.499999999997930e-04, 6.999999999994860e-04, 6.560658204529342e-06, -2.738348712981211e-06, -1.621698474768959e+01, -1.104835442058993e+04, 1.075959458892601e+02, 1.103423599319857e+04
1056, 1.999999999999042e-04, 6.999999999990628e-04, 6.735125293437001e-06, -3.658445457175083e-06, -4.344839189101322e+00, -1.475702101741904e+04, -9.958950102636220e+01, 1.475402069588394e+04
1057, -2.000000000000702e-04, 6.000000000020976e-04, 5.071198934620682e-06, 3.114080508080889e-06, -1.150469307306662e+01, 1.516202177848561e+04, 4.125292206211379e+02, 1.519594113619019e+04
1058, -1.500000000001711e-04, 6.000000000017323e-04, 4.876224014617767e-06, 2.330129058076002e-06, -1.738517310808152e+01, 1.140507040720204e+04, 4.904953978923461e+02, 1.146450323501076e+04
1059, -1.000000000003000e-04, 6.000000000013669e-04, 4.734352816390122e-06, 1.551044621842469e-06, -2.140493287581330e+01, 7.641147408129174e+03, 5.311782306989642e+02, 7.735845760465688e+03
1060, -5.000000000041474e-05, 6.000000000010013e-04, 4.645784938241181e-06, 7.749459081307153e-07, -2.766096823830117e+01, 3.863072434581350e+03, 5.333574194305661e+02, 4.034313691232142e+03
1061, -5.641662945187267e-16, 6.000000000006360e-04, 4.610752825606672e-06, -6.366145040340625e-11, -3.546438163090397e+01, 7.219315440195078e+01, 4.952865363761283e+02, 9.964061207793300e+02
1062, 4.999999999951849e-05, 6.000000000002706e-04, 4.629444479841050e-06, -7.759097110853542e-07, -3.974297280977066e+01, -3.722224897684457e+03, 4.157601675185795e+02, 3.775195252514641e+03
1063, 9.999999999963128e-05, 5.999999999999052e-04, 4.702007317559206e-06, -1.554531463351199e-06, -3.523207206274651e+01, -7.510639619019808e+03, 2.952182162716226e+02, 7.498688763642413e+03
1064, 1.499999999997888e-04, 5.999999999995398e-04, 4.828540349734528e-06, -2.337864295330726e-06, -2.098593100653648e+01, -1.129119927891518e+04, 1.346191053206938e+02, 1.127342885378922e+04
1065, 1.999999999999023e-04, 5.999999999991742e-04, 5.009169626606501e-06, -3.127851829536577e-06, -1.075809838442638e+00, -1.507071892151466e+04, -6.563984108863914e+01, 1.507021492442106e+04
1066, -2.000000000000721e-04, 5.000000000017480e-04, 3.591398897308484e-06, 2.591473195170332e-06, -2.575585634775575e+01, 1.547097872380571e+04, 3.707950322110191e+02, 1.551446868156863e+04
1067, -1.500000000001754e-04, 5.000000000014432e-04, 3.394213000899966e-06, 1.939168696769670e-06, -1.505304874872559e+01, 1.167428006311598e+04, 4.599322033367903e+02, 1.172547052901510e+04
1068, -1.000000000003076e-04, 5.000000000011384e-04, 3.250959824980881e-06, 1.292003578062333e-06, -1.178157436097604e+01, 7.850748003325018e+03, 5.185856095505023e+02, 7.930642817434066e+03
1069, -5.000000000042491e-05, 5.000000000008338e-04, 3.162101892896939e-06, 6.483323585445118e-07, -2.082047280565166e+01, 3.982591555764728e+03, 5.402236295008247e+02, 4.146646132718124e+03
1070, -5.769852911424733e-16, 5.000000000005289e-04, 3.128123848564909e-06, 6.207445306149312e-09, -3.981160976600199e+01, 7.658652604685949e+01, 5.155022491000092e+02, 1.037554240186691e+03
1071, 4.999999999950832e-05, 5.000000000002242e-04, 3.149386651610905e-06, -6.366119605901850e-07, -5.510416644666134e+01, -3.833549290381362e+03, 4.404897092060060e+02, 3.879790237918990e+03
1072, 9.999999999962365e-05, 4.999999999999196e-04, 3.225895079839870e-06, -1.282384719024163e-06, -5.293830809576230e+01, -7.713998439717826e+03, 3.184622150493119e+02, 7.687490817554552e+03
1073, 1.499999999997844e-04, 4.999999999996149e-04, 3.357525382400528e-06, -1.933108719619462e-06, -3.001938449928844e+01, -1.155706590422998e+04, 1.579835540310245e+02, 1.153137618332750e+04
1074, 1.999999999999003e-04, 4.999999999993100e-04, 3.544170381201322e-06, -2.590501799974081e-06, 9.571723843649352e+00, -1.537963993594223e+04, -3.536520929880299e+01, 1.538937420111047e+04
1075, -2.000000000000740e-04, 4.000000000013997e-04, 2.380946794623879e-06, 2.054232373715140e-06, -5.457406977743108e+01, 1.576434044213018e+04, 3.089200941014204e+02, 1.583097542267057e+04
1076, -1.500000000001797e-04, 4.000000000011572e-04, 2.180775050535380e-06, 1.534959340389321e-06, -7.513181701060603e-01, 1.200379353369169e+04, 4.148910572376902e+02, 1.203318891474179e+04
1077, -1.000000000003152e-04, 4.000000000009148e-04, 2.034971337918111e-06, 1.021784443038950e-06, -2.945863772562689e+00, 8.120497535387754e+03, 5.120920128457834e+02, 8.187752168809405e+03
1078, -5.000000000043512e-05, 4.000000000006724e-04, 1.944608170517496e-06, 5.137877597373904e-07, -4.146681951660412e+01, 4.110220021637646e+03, 5.706919988993484e+02, 4.305724219854807e+03
1079, -5.898025937003254e-16, 4.000000000004300e-04, 1.911069375020341e-06, 8.742170394959811e-09, -4.368695108923043e+01, 7.988640705139198e+01, 5.667376159714629e+02, 1.140191420889589e+03
1080, 4.999999999949812e-05, 4.000000000001875e-04, 1.934921661135162e-06, -4.968403727984380e-07, -4.175042441684445e+01, -3.954429435582627e+03, 4.895402707819352e+02, 4.033318206053950e+03
1081, 9.999999999961606e-05, 3.999999999999452e-04, 2.015981553175079e-06, -1.006469561883952e-06, -6.818251891315981e+01, -7.977569129687558e+03, 3.492394033865479e+02, 7.940168084002284e+03
1082, 1.499999999997800e-04, 3.999999999997027e-04, 2.153255478683230e-06, -1.522437453222584e-06, -5.068461201550372e+01, -1.188372472201721e+04, 1.693770817344082e+02, 1.183788801383830e+04
1083, 1.999999999998984e-04, 3.999999999994603e-04, 2.346056427265823e-06, -2.045756488901755e-06, 3.430559453716523e+01, -1.567386952385810e+04, -2.098170146342386e+01, 1.570823116959250e+04
1084, -2.000000000000760e-04, 3.000000000010516e-04, 1.444734154395302e-06, 1.503299198412779e-06, -1.899887922248627e+01, 1.612447105205749e+04, 2.154144393139603e+02, 1.614921778120539e+04
1085, -1.500000000001842e-04, 3.000000000008717e-04, 1.240619672385067e-06, 1.115677166113666e-06, -1.272333120606390e+00, 1.239571683610826e+04, 3.681713491421854e+02, 1.241883815142522e+04
1086, -1.000000000003227e-04, 3.000000000006917e-04, 1.090215018552414e-06, 7.382720284010897e-07, -1.869487429115204e+02, 8.229578138012585e+03, 5.311470830240174e+02, 8.483300868915218e+03
1087, -5.000000000044532e-05, 3.000000000005118e-04, 9.975749432388911e-07, 3.708699585136311e-07, -1.477260322479387e+02, 4.149318844844952e+03, 6.343770248170067e+02, 4.480438763582531e+03
1088, -6.026207432911247e-16, 3.000000000003319e-04, 9.641193035312348e-07, 8.257672536959070e-09, -4.746043059422686e+01, 7.943283825617823e+01, 6.471116380309173e+02, 1.300429079181087e+03
1089, 4.999999999948792e-05, 3.000000000001520e-04, 9.903667892575639e-07, -3.547275025659488e-07, 5.787255851475288e+01, -3.993727031016042e+03, 5.724936365575495e+02, 4.210279692547950e+03
1090, 9.999999999960845e-05, 2.999999999999720e-04, 1.076183298460021e-06, -7.232631412758949e-07, 1.122147575601091e+02, -8.083790506817506e+03, 4.066471694180684e+02, 8.236258250886047e+03
1091, 1.499999999997756e-04, 2.999999999997920e-04, 1.220531517522469e-06, -1.102616723697443e-06, -5.055920411639954e+01, -1.227039788235641e+04, 1.800026748552811e+02, 1.222514053800735e+04
1092, 1.999999999998966e-04, 2.999999999996122e-04, 1.419773656122767e-06, -1.493127285788874e-06, -4.454875283022147e+00, -1.603534154727849e+04, -3.645298150778564e+01, 1.603105245359160e+04
1093, -2.000000000000778e-04, 2.000000000007014e-04, 7.802547616758403e-07, 9.382089256165437e-07, 1.979141720765283e+02, 1.662025974971458e+04, 1.703159010496693e+02, 1.642587788509246e+04
1094, -1.500000000001885e-04, 2.000000000005817e-04, 5.701159486660532e-07, 6.793776452509685e-07, -8.184734641203702e+02, 1.167634803470167e+04, 4.062601656452118e+02, 1.252121214484387e+04
1095, -1.000000000003304e-04, 2.000000000004620e-04, 4.196217217819453e-07, 4.451339123102661e-07, -5.953061603333415e+02, 7.737282824424623e+03, 5.713935890029400e+02, 8.410588666860625e+03
1096, -5.000000000045550e-05, 2.000000000003424e-04, 3.287551893105775e-07, 2.226349273953064e-07, -3.182329162004198e+02, 3.892826950496186e+03, 6.124341197772676e+02, 4.385581763594457e+03
1097, -6.154388928819240e-16, 2.000000000002227e-04, 2.968150736782095e-07, 5.645042900257949e-09, -5.180507752589574e+01, 6.986893174555917e+01, 6.083546678799166e+02, 1.222778055191262e+03
1098, 4.999999999947777e-05, 2.000000000001030e-04, 3.236060856624053e-07, -2.115635623544842e-07, 2.203546863856375e+02, -3.755591189121918e+03, 5.697861261678752e+02, 4.136033186914620e+03
1099, 9.999999999960084e-05, 1.999999999999833e-04, 4.096703786804444e-07, -4.347317437346625e-07, 5.150090939338804e+02, -7.607174072590643e+03, 4.851871476666421e+02, 8.179944111277160e+03
1100, 1.499999999997714e-04, 1.999999999998636e-04, 5.560698368346252e-07, -6.701124928900713e-07, 7.694684621589710e+02, -1.155454992729422e+04, 2.746558156117345e+02, 1.233625439636268e+04
1101, 1.999999999998946e-04, 1.999999999997439e-04, 7.631646836043620e-07, -9.305546534216606e-07, -2.131715336573961e+02, -1.652362279968814e+04, -8.430626260384543e+00, 1.631045998135553e+04
1102, -2.000000000000798e-04, 1.000000000003506e-04, 3.431048985423742e-07, 3.618984360007739e-07, -5.197605014711175e+03, 9.259733832123064e+03, 9.204147120862283e+02, 1.457406255994125e+04
1103, -1.500000000001928e-04, 1.000000000002906e-04, 1.601270372471492e-07, 2.602425624260361e-07, -2.409060025978272e+03, 7.814564390956713e+03, 7.442806634098663e+02, 1.033142347608753e+04
1104, -1.000000000003380e-04, 1.000000000002307e-04, 3.777124387756654e-08, 1.691602417344903e-07, -9.855772555607447e+02, 5.608223677674471e+03, 2.759790084649403e+02, 6.616862428642958e+03
1105, -5.000000000046567e-05, 1.000000000001708e-04, -3.332438401451170e-08, 8.443282792873722e-08, -3.579143503560915e+02, 2.917104185920742e+03, -1.792452591626329e+01, 3.275214736085887e+03
1106, -6.282434899455673e-16, 1.000000000001108e-04, -5.761612038692373e-08, 2.180780967527573e-09, -4.828581330039935e+01, 4.269889385365173e+01, -1.283826612196966e+02, 2.724089714809592e+02
1107, 4.999999999946757e-05, 1.000000000000509e-04, -3.644629451031422e-08, -8.017057238205623e-08, 2.633679721310164e+02, -2.835579880403895e+03, -4.686705424554771e+01, 3.100365119760148e+03
1108, 9.999999999959325e-05, 9.999999999999091e-05, 3.173988140341403e-08, -1.652090875582448e-07, 8.992552083179758e+02, -5.537041831253495e+03, 2.171195630374875e+02, 6.450928863366176e+03
1109, 1.499999999997670e-04, 9.999999999993101e-05, 1.516440715350447e-07, -2.568595262594593e-07, 2.346353144690354e+03, -7.753944656152905e+03, 6.538572034334667e+02, 1.018460272350603e+04
1110, 1.999999999998927e-04, 9.999999999987105e-05, 3.329707466872885e-07, -3.593124287730597e-07, 5.183218957774463e+03, -9.194146669837115e+03, 7.926247808980368e+02, 1.446449648495244e+04
