"PointID","x","y","Displacement_x","Displacement_y","Sxx","Syy","Sxy","Von_Mises_Stress"
0, -2.500000000000000e-04, 0.000000000000000e+00, 0.000000000000000e+00, 0.000000000000000e+00, 5.398688862433263e+04, 6.597159402899524e+04, 6.810703188778925e+03, 1.814320466012341e+04
1, 2.500000000000000e-04, 0.000000000000000e+00, 0.000000000000000e+00, 0.000000000000000e+00, -5.476004393868730e+04, -6.693849531447735e+04, 6.661609805957507e+03, 1.805056394520125e+04
2, 2.500000000000000e-04, 1.000000000000000e-02, 1.034556352669838e-03, -9.606939532643286e-05, 2.490063015766240e+01, 2.197486044639579e+01, 3.185216446027739e+00, 7.010174294234583e+00
3, -2.500000000000000e-04, 1.000000000000000e-02, 1.039378091903953e-03, -2.682535405605972e-05, 1.630051675514705e+01, 5.014305244542289e+01, 4.229776172757353e+00, 3.488382501724972e+01
4, -2.000000000000817e-04, 0.000000000000000e+00, 0.000000000000000e+00, 0.000000000000000e+00, 3.649465230919291e+04, 4.459874148546838e+04, 3.885418344821026e+03, 1.122774083393951e+04
5, -1.500000000001972e-04, 0.000000000000000e+00, 0.000000000000000e+00, 0.000000000000000e+00, 2.628859913543918e+04, 3.213537535728487e+04, 1.824726336757631e+03, 6.892263561745724e+03
6, -1.000000000003456e-04, 0.000000000000000e+00, 0.000000000000000e+00, 0.000000000000000e+00, 1.713241407714552e+04, 2.094303438340146e+04, 4.443526294989653e+02, 3.912879266706389e+03
7, -5.000000000047588e-05, 0.000000000000000e+00, 0.000000000000000e+00, 0.000000000000000e+00, 8.592838085487761e+03, 1.050215020541998e+04, -3.603583574521880e+02, 2.040809975098758e+03
8, -6.410887445906788e-16, 0.000000000000000e+00, 0.000000000000000e+00, 0.000000000000000e+00, 2.770307986676162e+02, 3.366675449012735e+02, -6.390057596988836e+02, 1.279402198378105e+03
9, 4.999999999945738e-05, 0.000000000000000e+00, 0.000000000000000e+00, 0.000000000000000e+00, -8.076806317798770e+03, -9.872041569679042e+03, -4.061506630924825e+02, 1.970457574807302e+03
10, 9.999999999958566e-05, 0.000000000000000e+00, 0.000000000000000e+00, 0.000000000000000e+00, -1.673237021757707e+04, -2.044736174152941e+04, 3.563280322630454e+02, 3.782729264610880e+03
11, 1.499999999997626e-04, 0.000000000000000e+00, 0.000000000000000e+00, 0.000000000000000e+00, -2.609079645209021e+04, -3.188345669484729e+04, 1.702151970523110e+03, 6.718943221299121e+03
12, 1.999999999998909e-04, 0.000000000000000e+00, 0.000000000000000e+00, 0.000000000000000e+00, -3.657527979638293e+04, -4.470758465882884e+04, 3.741788010816852e+03, 1.105161944908222e+04
13, 2.500000000000000e-04, 9.999999999981111e-05, 8.399532759216045e-07, -7.608092689452340e-07, 2.911679131026551e+03, -2.242572285751435e+04, 1.660871723145377e+03, 2.555421528929997e+04
14, 2.500000000000000e-04, 1.999999999996242e-04, 1.441679932416521e-06, -1.716587702038720e-06, -5.881187537678804e+03, -3.258202847152414e+04, -3.204395886570826e+02, 2.670853108455097e+04
15, 2.500000000000000e-04, 2.999999999994322e-04, 2.371201934502466e-06, -2.684341401277043e-06, -6.265204468364689e+03, -3.308117343161270e+04, -2.658690088226843e+02, 2.682124040303300e+04
16, 2.500000000000000e-04, 3.999999999992179e-04, 3.675764189440479e-06, -3.659350995309472e-06, -6.830023955259299e+03, -3.338468056743511e+04, -3.192372189346166e+02, 2.656233117402132e+04
17, 2.500000000000000e-04, 4.999999999990053e-04, 5.362976349077501e-06, -4.626271559246863e-06, -6.847305125072423e+03, -3.292599471979322e+04, -3.904536782607873e+02, 2.609037882586736e+04
18, 2.500000000000000e-04, 5.999999999988090e-04, 7.426547914411039e-06, -5.581922811151831e-06, -6.749093211750303e+03, -3.228716301658410e+04, -4.726515762473672e+02, 2.555555922703865e+04
19, 2.500000000000000e-04, 6.999999999986395e-04, 9.858522797606075e-06, -6.526306291360975e-06, -6.611228018936758e+03, -3.159707185714428e+04, -5.526220666254756e+02, 2.501027702568243e+04
20, 2.500000000000000e-04, 7.999999999985029e-04, 1.265089337695606e-05, -7.460570898518301e-06, -6.469047195783795e+03, -3.090634138307013e+04, -6.276531933568696e+02, 2.446951452972664e+04
21, 2.500000000000000e-04, 8.999999999983563e-04, 1.579589448637760e-05, -8.386015092032020e-06, -6.328758685236394e+03, -3.022380042223836e+04, -6.970791473006474e+02, 2.393567832678806e+04
22, 2.500000000000000e-04, 9.999999999981935e-04, 1.928592790473554e-05, -9.303874104680334e-06, -6.191246392681683e+03, -2.955017565234045e+04, -7.610631585746852e+02, 2.340846950749026e+04
23, 2.500000000000000e-04, 1.099999999998054e-03, 2.311350548125563e-05, -1.021528558341790e-05, -6.056036090500457e+03, -2.888467122289276e+04, -8.198511813103053e+02, 2.288744646844378e+04
24, 2.500000000000000e-04, 1.199999999997903e-03, 2.727122341794011e-05, -1.112130125177147e-05, -5.922788693475408e+03, -2.822685032150916e+04, -8.736751185534798e+02, 2.237240259691045e+04
25, 2.500000000000000e-04, 1.299999999997659e-03, 3.175175561002130e-05, -1.202289768606498e-05, -5.791334064847296e+03, -2.757658135254699e+04, -9.227414825439290e+02, 2.186327529810336e+04
26, 2.500000000000000e-04, 1.399999999997322e-03, 3.654785316987646e-05, -1.292098266853829e-05, -5.661593494104866e+03, -2.693386908126077e+04, -9.672438947999726e+02, 2.136005504824415e+04
27, 2.500000000000000e-04, 1.499999999997028e-03, 4.165234526980388e-05, -1.381639888840328e-05, -5.533518035896008e+03, -2.629875252084001e+04, -1.007369035402889e+03, 2.086274509043960e+04
28, 2.500000000000000e-04, 1.599999999996764e-03, 4.705813993843227e-05, -1.470992670777231e-05, -5.407068248404317e+03, -2.567127300588473e+04, -1.043298814308727e+03, 2.037134958997179e+04
29, 2.500000000000000e-04, 1.699999999996466e-03, 5.275822467761524e-05, -1.560228668664259e-05, -5.282208666576924e+03, -2.505146675990407e+04, -1.075211113615303e+03, 1.988587139946219e+04
30, 2.500000000000000e-04, 1.799999999996210e-03, 5.874566696975444e-05, -1.649414200994996e-05, -5.158904722925260e+03, -2.443936264833521e+04, -1.103279876613102e+03, 1.940631247192679e+04
31, 2.500000000000000e-04, 1.899999999995898e-03, 6.501361460301388e-05, -1.738610088233012e-05, -5.037129243670553e+03, -2.383498895312593e+04, -1.127674742147371e+03, 1.893267363455764e+04
32, 2.500000000000000e-04, 1.999999999995521e-03, 7.155529619079880e-05, -1.827871891623710e-05, -4.916852306713479e+03, -2.323836506134775e+04, -1.148561679389799e+03, 1.846495614247911e+04
33, 2.500000000000000e-04, 2.099999999995151e-03, 7.836402135185245e-05, -1.917250139411351e-05, -4.798051216451056e+03, -2.264951037213913e+04, -1.166102364656295e+03, 1.800316008056995e+04
34, 2.500000000000000e-04, 2.199999999994897e-03, 8.543318111123161e-05, -2.006790555834689e-05, -4.680703883872148e+03, -2.206843952648573e+04, -1.180454498696917e+03, 1.754728588903110e+04
35, 2.500000000000000e-04, 2.299999999994653e-03, 9.275624815295079e-05, -2.096534279720604e-05, -4.564789217995823e+03, -2.149516255257980e+04, -1.191772060349745e+03, 1.709733382208212e+04
36, 2.500000000000000e-04, 2.399999999994409e-03, 1.003267769525107e-04, -2.186518078018315e-05, -4.450294530599384e+03, -2.092969182530362e+04, -1.200204748580587e+03, 1.665330300423213e+04
37, 2.500000000000000e-04, 2.499999999994080e-03, 1.081384041907530e-04, -2.276774558012457e-05, -4.337206219936553e+03, -2.037203513047014e+04, -1.205897995039073e+03, 1.621519343356226e+04
38, 2.500000000000000e-04, 2.599999999993751e-03, 1.161848489760617e-04, -2.367332373754566e-05, -4.225509194106375e+03, -1.982219448633065e+04, -1.208994038209794e+03, 1.578300536787567e+04
39, 2.500000000000000e-04, 2.699999999993507e-03, 1.244599128675040e-04, -2.458216420234584e-05, -4.115194862792066e+03, -1.928017331561950e+04, -1.209631060721493e+03, 1.535673795722807e+04
40, 2.500000000000000e-04, 2.799999999993264e-03, 1.329574801204495e-04, -2.549448030461041e-05, -4.006257517017069e+03, -1.874597416822670e+04, -1.207943102697962e+03, 1.493639023041942e+04
41, 2.500000000000000e-04, 2.899999999993009e-03, 1.416715179668701e-04, -2.641045164216788e-05, -3.898687828780594e+03, -1.821959324884379e+04, -1.204060644863470e+03, 1.452196199542030e+04
42, 2.500000000000000e-04, 2.999999999992623e-03, 1.505960765516180e-04, -2.733022590915289e-05, -3.792487413221743e+03, -1.770103305665049e+04, -1.198110116904399e+03, 1.411345150288389e+04
43, 2.500000000000000e-04, 3.099999999992220e-03, 1.597252893810684e-04, -2.825392072241126e-05, -3.687647475036961e+03, -1.719028484681396e+04, -1.190214505627775e+03, 1.371085913687892e+04
44, 2.500000000000000e-04, 3.199999999991949e-03, 1.690533731382617e-04, -2.918162533207658e-05, -3.584167566505545e+03, -1.668734386437039e+04, -1.180493543352453e+03, 1.331418375705076e+04
45, 2.500000000000000e-04, 3.299999999991705e-03, 1.785746278662518e-04, -3.011340231001090e-05, -3.482048153729737e+03, -1.619220385618980e+04, -1.169062981194099e+03, 1.292342412044005e+04
46, 2.500000000000000e-04, 3.399999999991461e-03, 1.882834371041537e-04, -3.104928920183383e-05, -3.381291062510775e+03, -1.570485806681191e+04, -1.156034718592625e+03, 1.253857921743391e+04
47, 2.500000000000000e-04, 3.499999999991149e-03, 1.981742680422363e-04, -3.198930015031549e-05, -3.281893314619105e+03, -1.522529339100820e+04, -1.141517869691530e+03, 1.215964874377510e+04
48, 2.500000000000000e-04, 3.599999999990803e-03, 2.082416713516722e-04, -3.293342738087997e-05, -3.183859782081820e+03, -1.475350118933143e+04, -1.125618052322765e+03, 1.178663082866364e+04
49, 2.500000000000000e-04, 3.699999999990560e-03, 2.184802813229657e-04, -3.388164273360668e-05, -3.087202110598226e+03, -1.428947731233277e+04, -1.108436588286503e+03, 1.141952259844542e+04
50, 2.500000000000000e-04, 3.799999999990315e-03, 2.288848163182812e-04, -3.483389914957210e-05, -2.991916590049267e+03, -1.383320341026219e+04, -1.090071822381697e+03, 1.105832384359966e+04
51, 2.500000000000000e-04, 3.899999999990071e-03, 2.394500783936876e-04, -3.579013203962549e-05, -2.898008104792652e+03, -1.338466660901667e+04, -1.070619474266280e+03, 1.070303278603437e+04
52, 2.500000000000000e-04, 3.999999999989709e-03, 2.501709533761536e-04, -3.675026065041071e-05, -2.805483126432047e+03, -1.294385429259163e+04, -1.050171647377206e+03, 1.035364727323835e+04
53, 2.500000000000000e-04, 4.099999999989249e-03, 2.610424109604944e-04, -3.771418939202357e-05, -2.714346836776953e+03, -1.251075181470783e+04, -1.028817336850481e+03, 1.001016538035438e+04
54, 2.500000000000000e-04, 4.199999999988788e-03, 2.720595046545628e-04, -3.868180911123703e-05, -2.624605954347152e+03, -1.208534539219604e+04, -1.006642554218359e+03, 9.672585364767909e+03
55, 2.500000000000000e-04, 4.299999999988333e-03, 2.832173717983714e-04, -3.965299835963737e-05, -2.536269636319545e+03, -1.166762326427393e+04, -9.837300480224119e+02, 9.340905647113899e+03
56, 2.500000000000000e-04, 4.399999999988144e-03, 2.945112337217574e-04, -4.062762461891476e-05, -2.449339586123675e+03, -1.125756647615917e+04, -9.601602771220208e+02, 9.015125732755834e+03
57, 2.500000000000000e-04, 4.499999999988117e-03, 3.059363954522947e-04, -4.160554539225391e-05, -2.363829510731168e+03, -1.085516542693517e+04, -9.360101747543997e+02, 8.695242712586640e+03
58, 2.500000000000000e-04, 4.599999999988090e-03, 3.174882460677255e-04, -4.258660937497706e-05, -2.279746778105308e+03, -1.046040478619732e+04, -9.113533156700607e+02, 8.381254375646360e+03
59, 2.500000000000000e-04, 4.699999999988035e-03, 3.291622586914771e-04, -4.357065748694112e-05, -2.197093087018505e+03, -1.007326453201391e+04, -8.862611437571898e+02, 8.073159969348813e+03
60, 2.500000000000000e-04, 4.799999999987717e-03, 3.409539900815413e-04, -4.455752393814112e-05, -2.115884767062712e+03, -9.693736534946356e+03, -8.608027730639274e+02, 7.770956380811531e+03
61, 2.500000000000000e-04, 4.899999999987257e-03, 3.528590810783402e-04, -4.554703722785800e-05, -2.036123342029309e+03, -9.321800174968113e+03, -8.350439506462660e+02, 7.474642500619337e+03
62, 2.500000000000000e-04, 4.999999999986965e-03, 3.648732563451144e-04, -4.653902108768593e-05, -1.957818210878152e+03, -8.957441277137463e+03, -8.090478515319961e+02, 7.184215807865431e+03
63, 2.500000000000000e-04, 5.099999999987202e-03, 3.769923244447017e-04, -4.753329541163789e-05, -1.880977187055299e+03, -8.600643998492116e+03, -7.828751462358296e+02, 6.899673618012705e+03
64, 2.500000000000000e-04, 5.199999999987608e-03, 3.892121777704166e-04, -4.852967711734158e-05, -1.805609136807302e+03, -8.251393308619492e+03, -7.565838407979315e+02, 6.621012764087589e+03
65, 2.500000000000000e-04, 5.299999999988015e-03, 4.015287925957151e-04, -4.952798101388716e-05, -1.731718775942892e+03, -7.909670884186164e+03, -7.302297162104921e+02, 6.348230777586376e+03
66, 2.500000000000000e-04, 5.399999999988211e-03, 4.139382289066562e-04, -5.052802059785818e-05, -1.659313681922536e+03, -7.575460816260829e+03, -7.038663423902453e+02, 6.081324545437326e+03
67, 2.500000000000000e-04, 5.499999999988184e-03, 4.264366303732623e-04, -5.152960883841824e-05, -1.588403433943108e+03, -7.248749185213752e+03, -6.775445761196080e+02, 5.820290425266083e+03
68, 2.500000000000000e-04, 5.599999999988157e-03, 4.390202244534192e-04, -5.253255893829280e-05, -1.518993722717752e+03, -6.929519099860651e+03, -6.513127262420697e+02, 5.565125149191778e+03
69, 2.500000000000000e-04, 5.699999999988293e-03, 4.516853223225514e-04, -5.353668503741749e-05, -1.451090321359622e+03, -6.617753307349820e+03, -6.252170468865644e+02, 5.315824661674929e+03
70, 2.500000000000000e-04, 5.799999999988694e-03, 4.644283187762244e-04, -5.454180285362875e-05, -1.384700376144516e+03, -6.313435514394617e+03, -5.993017349554851e+02, 5.072384088483824e+03
71, 2.500000000000000e-04, 5.899999999989099e-03, 4.772456921205696e-04, -5.554773033272695e-05, -1.319829596841474e+03, -6.016549253955616e+03, -5.736092768622756e+02, 4.834799473352771e+03
72, 2.500000000000000e-04, 5.999999999989505e-03, 4.901340040518569e-04, -5.655428830994866e-05, -1.256485674517487e+03, -5.727081339866751e+03, -5.481799344896256e+02, 4.603067516922582e+03
73, 2.500000000000000e-04, 6.099999999989911e-03, 5.030898997832104e-04, -5.756130115631673e-05, -1.194671952224615e+03, -5.445015518426560e+03, -5.230517368476521e+02, 4.377185500802045e+03
74, 2.500000000000000e-04, 6.199999999990317e-03, 5.161101079763052e-04, -5.856859730366204e-05, -1.134397887899992e+03, -5.170340263072416e+03, -4.982598607967489e+02, 4.157148350881553e+03
75, 2.500000000000000e-04, 6.299999999990723e-03, 5.291914409245619e-04, -5.957600977023472e-05, -1.075657238804722e+03, -4.903030043409779e+03, -4.738390454565564e+02, 3.942952745015733e+03
76, 2.500000000000000e-04, 6.399999999990975e-03, 5.423307937812748e-04, -6.058337654618666e-05, -1.018468448070773e+03, -4.643078906880031e+03, -4.498214956729501e+02, 3.734589467396284e+03
77, 2.500000000000000e-04, 6.499999999990961e-03, 5.555251452816170e-04, -6.159054111560593e-05, -9.628313703172391e+02, -4.390465229723147e+03, -4.262359873451229e+02, 3.532050727520505e+03
78, 2.500000000000000e-04, 6.599999999990934e-03, 5.687715575159243e-04, -6.259735282393729e-05, -9.087380217906148e+02, -4.145161442545865e+03, -4.031109133837493e+02, 3.335330597162661e+03
79, 2.500000000000000e-04, 6.699999999991035e-03, 5.820671751138734e-04, -6.360366730964491e-05, -8.562068114372735e+02, -3.907161218179381e+03, -3.804738877887568e+02, 3.144417960318802e+03
80, 2.500000000000000e-04, 6.799999999991401e-03, 5.954092258195992e-04, -6.460934687074078e-05, -8.052325972860307e+02, -3.676439693706346e+03, -3.583495382094357e+02, 2.959305282777369e+03
81, 2.500000000000000e-04, 6.899999999991809e-03, 6.087950200855389e-04, -6.561426088128905e-05, -7.558223158548700e+02, -3.452983913674994e+03, -3.367602673916652e+02, 2.779983920012925e+03
82, 2.500000000000000e-04, 6.999999999992214e-03, 6.222219513772786e-04, -6.661828619963476e-05, -7.079605171895075e+02, -3.236763097696682e+03, -3.157286650414210e+02, 2.606449855818273e+03
83, 2.500000000000000e-04, 7.099999999992620e-03, 6.356874950474536e-04, -6.762130740406429e-05, -6.616619015664922e+02, -3.027770586424307e+03, -2.952768759141532e+02, 2.438693101306121e+03
84, 2.500000000000000e-04, 7.199999999993026e-03, 6.491892088580033e-04, -6.862321711410793e-05, -6.169450244058671e+02, -2.826002745928800e+03, -2.754215735904340e+02, 2.276700285460565e+03
85, 2.500000000000000e-04, 7.299999999993359e-03, 6.627247338711272e-04, -6.962391630393920e-05, -5.737741261399899e+02, -2.631411645029256e+03, -2.561798869180975e+02, 2.120468037247025e+03
86, 2.500000000000000e-04, 7.399999999993427e-03, 6.762917924462242e-04, -7.062331443350166e-05, -5.321762089947139e+02, -2.443998860982598e+03, -2.375686404391348e+02, 1.969980022318598e+03
87, 2.500000000000000e-04, 7.499999999993399e-03, 6.898881894735174e-04, -7.162132965533561e-05, -4.921414190969407e+02, -2.263731651057279e+03, -2.196013193648530e+02, 1.825220783314836e+03
88, 2.500000000000000e-04, 7.599999999993372e-03, 7.035118117348194e-04, -7.261788879121998e-05, -4.536764887404676e+02, -2.090588833466679e+03, -2.022875474041453e+02, 1.686168150469045e+03
89, 2.500000000000000e-04, 7.699999999993440e-03, 7.171606283694554e-04, -7.361292754594783e-05, -4.167545695001758e+02, -1.924522222172813e+03, -1.856371493091823e+02, 1.552806459047782e+03
90, 2.500000000000000e-04, 7.799999999993771e-03, 7.308326891598455e-04, -7.460639058522642e-05, -3.813675277074684e+02, -1.765502151115338e+03, -1.696632549850308e+02, 1.425121446082722e+03
91, 2.500000000000000e-04, 7.899999999994177e-03, 7.445261238653118e-04, -7.559823187173915e-05, -3.475456139480988e+02, -1.613530399065851e+03, -1.543768543269554e+02, 1.303091066947045e+03
92, 2.500000000000000e-04, 7.999999999994584e-03, 7.582391437136376e-04, -7.658841475888957e-05, -3.152685297246696e+02, -1.468567259395506e+03, -1.397848349541939e+02, 1.186700113842183e+03
93, 2.500000000000000e-04, 8.099999999994990e-03, 7.719700403011061e-04, -7.757691211915822e-05, -2.845295709766957e+02, -1.330585305039147e+03, -1.258940097610541e+02, 1.075932063626602e+03
94, 2.500000000000000e-04, 8.199999999995398e-03, 7.857171855705045e-04, -7.856370645134820e-05, -2.553283116113708e+02, -1.199558875675469e+03, -1.127096216819846e+02, 9.707652617350858e+02
95, 2.500000000000000e-04, 8.299999999995804e-03, 7.994790315870603e-04, -7.954878974077804e-05, -2.276620851966093e+02, -1.075455233657131e+03, -1.002349561798933e+02, 8.711724331830891e+02
96, 2.500000000000000e-04, 8.399999999996209e-03, 8.132541103563255e-04, -8.053216337340676e-05, -2.015216610401969e+02, -9.582317033380846e+02, -8.847062103353215e+01, 7.771217995003783e+02
97, 2.500000000000000e-04, 8.499999999996616e-03, 8.270410336116134e-04, -8.151383799073009e-05, -1.768790654283598e+02, -8.478270237001748e+02, -7.741639993598199e+01, 6.885814103105811e+02
98, 2.500000000000000e-04, 8.599999999997021e-03, 8.408384913756791e-04, -8.249383335270990e-05, -1.537214555788829e+02, -7.441916321771712e+02, -6.707341111651354e+01, 6.055166383900884e+02
99, 2.500000000000000e-04, 8.699999999997429e-03, 8.546452511808059e-04, -8.347217835381493e-05, -1.320579068123991e+02, -6.472906809391466e+02, -5.744189045493516e+01, 5.278854938814773e+02
100, 2.500000000000000e-04, 8.799999999997834e-03, 8.684601583597014e-04, -8.444891085983211e-05, -1.118749899633575e+02, -5.570708173739758e+02, -4.851790334717693e+01, 4.556481894232096e+02
101, 2.500000000000000e-04, 8.899999999997930e-03, 8.822821354684680e-04, -8.542407780986300e-05, -9.314089366376672e+01, -4.734682320727180e+02, -4.029844022915929e+01, 3.887733806227600e+02
102, 2.500000000000000e-04, 8.999999999997496e-03, 8.961101809263692e-04, -8.639773529942605e-05, -7.583369572043971e+01, -3.964252589495636e+02, -3.278299070252213e+01, 3.272275176865478e+02
103, 2.500000000000000e-04, 9.099999999997034e-03, 9.099433683208597e-04, -8.736994827478900e-05, -5.995427488572212e+01, -3.258938384914099e+02, -2.596561158548441e+01, 2.709625498677200e+02
104, 2.500000000000000e-04, 9.199999999996832e-03, 9.237808471075354e-04, -8.834079013738347e-05, -4.547109008234661e+01, -2.617804443839522e+02, -1.983265712673781e+01, 2.199160610624074e+02
105, 2.500000000000000e-04, 9.299999999997156e-03, 9.376218421731699e-04, -8.931034168782601e-05, -3.230418728195242e+01, -2.039252245637476e+02, -1.436499102438226e+01, 1.740091730518874e+02
106, 2.500000000000000e-04, 9.399999999997563e-03, 9.514656507879337e-04, -9.027868973818327e-05, -2.040435503584585e+01, -1.521687884961660e+02, -9.538715651199272e+00, 1.331383277280321e+02
107, 2.500000000000000e-04, 9.499999999997968e-03, 9.653116402691684e-04, -9.124592597564397e-05, -9.650860849907030e+00, -1.062624884062583e+02, -5.334834948777836e+00, 9.719901457736044e+01
108, 2.500000000000000e-04, 9.599999999998375e-03, 9.791592418640813e-04, -9.221214501822469e-05, -9.481682589885310e-02, -6.610771977572158e+01, -1.729548045816242e+00, 6.610346966410961e+01
109, 2.500000000000000e-04, 9.699999999998783e-03, 9.930079478946282e-04, -9.317744568129397e-05, 8.228269629520621e+00, -3.187734049444048e+01, 1.241206942876480e+00, 4.018236357054361e+01
110, 2.500000000000000e-04, 9.799999999999188e-03, 1.006857291282751e-03, -9.414194775913337e-05, 1.411875763095483e+01, -5.322435544930272e+00, 3.321435095655539e+00, 2.054477345897712e+01
111, 2.500000000000000e-04, 9.899999999999593e-03, 1.020706862664884e-03, -9.510582528101356e-05, 1.620126785487430e+01, 1.011841734279150e+01, 3.987414269399577e+00, 1.002990331835713e+01
112, 2.000000000000817e-04, 1.000000000000000e-02, 1.035038074166132e-03, -8.914486196887389e-05, 2.389350603009520e+01, 2.168986735639482e+01, 4.765066350526180e+00, 9.781587432717435e+00
113, 1.500000000001972e-04, 1.000000000000000e-02, 1.035519824812433e-03, -8.222050490090929e-05, 2.059432033943294e+01, 2.173779301743471e+01, 7.775197999000609e+00, 1.559238100676060e+01
114, 1.000000000003456e-04, 1.000000000000000e-02, 1.036001667010440e-03, -7.529629087656443e-05, 1.401642004549257e+01, 2.154322827857644e+01, 1.044673658038740e+01, 2.220788289994425e+01
115, 5.000000000047588e-05, 1.000000000000000e-02, 1.036483649849425e-03, -6.837215828302916e-05, 5.510477798166187e+00, 2.155000950248683e+01, 1.241996863084752e+01, 2.956837940197016e+01
116, 6.410887445906788e-16, 1.000000000000000e-02, 1.036965802548947e-03, -6.144802691470293e-05, -2.936704411396741e+00, 2.276806337915498e+01, 1.333080096012471e+01, 3.703479585632994e+01
117, -4.999999999945738e-05, 1.000000000000000e-02, 1.037448133277453e-03, -5.452380030014782e-05, -8.621004555284170e+00, 2.698667872317544e+01, 1.288343697804623e+01, 4.395268935944930e+01
118, -9.999999999958566e-05, 1.000000000000000e-02, 1.037930625411874e-03, -4.759938661447912e-05, -8.203501178311104e+00, 3.640042164950248e+01, 1.109361852728719e+01, 4.981750113911203e+01
119, -1.499999999997626e-04, 1.000000000000000e-02, 1.038413227879232e-03, -4.067473857384135e-05, 2.876548625072298e+00, 5.329476846462988e+01, 8.781346145856974e+00, 5.338955939435524e+01
120, -1.999999999998909e-04, 1.000000000000000e-02, 1.038895821309316e-03, -3.374994767320250e-05, 3.420288740600868e+01, 8.066906134275851e+01, 7.838379444431411e+00, 4.903943402589215e+01
121, -2.500000000000000e-04, 9.899999999999590e-03, 1.025528671970073e-03, -2.586299972475445e-05, -2.108103430548758e+01, 4.081449095030436e+01, -3.355045502649030e-01, 6.189916235219481e+01
122, -2.500000000000000e-04, 9.799999999999181e-03, 1.011678768687588e-03, -2.490183829695107e-05, 7.244515877021517e+00, 9.194336923715888e+01, 5.601527785129321e+00, 8.543655081188821e+01
123, -2.500000000000000e-04, 9.699999999999055e-03, 9.978290504083632e-04, -2.394155132797092e-05, 1.695974975513062e+01, 1.236448043776386e+02, 1.111956819420719e+01, 1.089783467809546e+02
124, -2.500000000000000e-04, 9.599999999999458e-03, 9.839798119299513e-04, -2.298228517465698e-05, 2.425948056496429e+01, 1.576949949971292e+02, 1.695252043879247e+01, 1.376756634583149e+02
125, -2.500000000000000e-04, 9.499999999999916e-03, 9.701313922259665e-04, -2.202428433769021e-05, 3.279562894923096e+01, 1.981829651602851e+02, 2.332317135538939e+01, 1.718396120435555e+02
126, -2.500000000000000e-04, 9.400000000000373e-03, 9.562842219255965e-04, -2.106779797309951e-05, 4.258964669513322e+01, 2.449424367300203e+02, 3.025004064365346e+01, 2.112034835666160e+02
127, -2.500000000000000e-04, 9.300000000000832e-03, 9.424387980417308e-04, -2.011308088592984e-05, 5.431516388745428e+01, 2.983994366200993e+02, 3.774804296627546e+01, 2.554932311951911e+02
128, -2.500000000000000e-04, 9.200000000001289e-03, 9.285957145541884e-04, -1.916039738690422e-05, 6.715165379818143e+01, 3.577850585603625e+02, 4.585991647313227e+01, 3.047627006694690e+02
129, -2.500000000000000e-04, 9.100000000001746e-03, 9.147556174116052e-04, -1.821001755806038e-05, 8.165116918071566e+01, 4.235487327113028e+02, 5.460463214474906e+01, 3.589158778248816e+02
130, -2.500000000000000e-04, 9.000000000002204e-03, 9.009192350077463e-04, -1.726222513985744e-05, 9.772356089591894e+01, 4.957015982867710e+02, 6.397161399931137e+01, 4.180382612108394e+02
131, -2.500000000000000e-04, 8.900000000002661e-03, 8.870873729084356e-04, -1.631731768927386e-05, 1.152688014718080e+02, 5.742396586980905e+02, 7.398280816270206e+01, 4.822323831904959e+02
132, -2.500000000000000e-04, 8.800000000003118e-03, 8.732609092362586e-04, -1.537560563162698e-05, 1.343145256513932e+02, 6.592453060704802e+02, 8.465994593727855e+01, 5.515628250850518e+02
133, -2.500000000000000e-04, 8.700000000003576e-03, 8.594407980211323e-04, -1.443741178536861e-05, 1.547922475760190e+02, 7.507099205688950e+02, 9.601738818975741e+01, 6.260952230486787e+02
134, -2.500000000000000e-04, 8.600000000004033e-03, 8.456280669345310e-04, -1.350307076389692e-05, 1.767203160875646e+02, 8.486968309046158e+02, 1.080653259573568e+02, 7.058788105353140e+02
135, -2.500000000000000e-04, 8.500000000004490e-03, 8.318238189927084e-04, -1.257292934542162e-05, 2.001115180678904e+02, 9.532611409908197e+02, 1.208123439312110e+02, 7.909594454164913e+02
136, -2.500000000000000e-04, 8.400000000004949e-03, 8.180292332102974e-04, -1.164734600439884e-05, 2.250489172170787e+02, 1.064526898122736e+03, 1.342517482689621e+02, 8.813724570682535e+02
137, -2.500000000000000e-04, 8.300000000005149e-03, 8.042455687875672e-04, -1.072669218904161e-05, 2.514692866389525e+02, 1.182487043217522e+03, 1.483904200128037e+02, 9.771759974901640e+02
138, -2.500000000000000e-04, 8.200000000005172e-03, 7.904741615369386e-04, -9.811350606090635e-06, 2.794801580918225e+02, 1.307284126077139e+03, 1.632172296738797e+02, 1.078397168419885e+03
139, -2.500000000000000e-04, 8.100000000005195e-03, 7.767164298526847e-04, -8.901717208542779e-06, 3.089936167378580e+02, 1.438894509816650e+03, 1.787372921652994e+02, 1.185100884575902e+03
140, -2.500000000000000e-04, 8.000000000005220e-03, 7.629738700605068e-04, -7.998199241865104e-06, 3.400126568194806e+02, 1.577340542393648e+03, 1.949588896739134e+02, 1.297311131175163e+03
141, -2.500000000000000e-04, 7.900000000005243e-03, 7.492480567616367e-04, -7.101214602688136e-06, 3.727101282229767e+02, 1.722814237872387e+03, 2.118555353638675e+02, 1.415030804735172e+03
142, -2.500000000000000e-04, 7.800000000005240e-03, 7.355406525502125e-04, -6.211194570266961e-06, 4.068469429939324e+02, 1.875148203300332e+03, 2.294343715347100e+02, 1.538333226054573e+03
143, -2.500000000000000e-04, 7.700000000005121e-03, 7.218533957290483e-04, -5.328579908648591e-06, 4.425258537954093e+02, 2.034448573530645e+03, 2.476900767912354e+02, 1.667219074438815e+03
144, -2.500000000000000e-04, 7.600000000005145e-03, 7.081881067347920e-04, -4.453822950181230e-06, 4.797400122368318e+02, 2.200735347485366e+03, 2.666157643160373e+02, 1.801710522551976e+03
145, -2.500000000000000e-04, 7.500000000005337e-03, 6.945466883618713e-04, -3.587386232123987e-06, 5.183888522264408e+02, 2.373933651074857e+03, 2.862093555608898e+02, 1.941831527547055e+03
146, -2.500000000000000e-04, 7.400000000005796e-03, 6.809311205069395e-04, -2.729741692707512e-06, 5.586685734107672e+02, 2.554243310634510e+03, 3.064458519540217e+02, 2.087571501186226e+03
147, -2.500000000000000e-04, 7.300000000006254e-03, 6.673434705658591e-04, -1.881373286165603e-06, 6.004886987265656e+02, 2.741633982970267e+03, 3.273108331859156e+02, 2.238980271088263e+03
148, -2.500000000000000e-04, 7.200000000006711e-03, 6.537858882780083e-04, -1.042775189527047e-06, 6.438256231286981e+02, 2.936103799077156e+03, 3.487997580832654e+02, 2.396076860387697e+03
149, -2.500000000000000e-04, 7.100000000007169e-03, 6.402606050410903e-04, -2.144509162363046e-07, 6.887470629529580e+02, 3.137731995998125e+03, 3.708906890570934e+02, 2.558860452466923e+03
150, -2.500000000000000e-04, 7.000000000007627e-03, 6.267699383183902e-04, 6.030859162684715e-07, 7.351663656268645e+02, 3.346473616730953e+03, 3.935679389154426e+02, 2.727362911282140e+03
151, -2.500000000000000e-04, 6.900000000008085e-03, 6.133162874152028e-04, 1.409312583655433e-06, 7.831218335757771e+02, 3.562379446140997e+03, 4.168158873866516e+02, 2.901588325885224e+03
152, -2.500000000000000e-04, 6.800000000008542e-03, 5.999021362365465e-04, 2.203697423569136e-06, 8.325734513860939e+02, 3.785432349125126e+03, 4.406161044749443e+02, 3.081549265555764e+03
153, -2.500000000000000e-04, 6.700000000009001e-03, 5.865300515841809e-04, 2.985700536255886e-06, 8.835668563033671e+02, 4.015696018704249e+03, 4.649425498523451e+02, 3.267249514287951e+03
154, -2.500000000000000e-04, 6.600000000009459e-03, 5.732026859781099e-04, 3.754773089788333e-06, 9.360840593234342e+02, 4.253180873242746e+03, 4.897711178636309e+02, 3.458704130810731e+03
155, -2.500000000000000e-04, 6.500000000009916e-03, 5.599227774790449e-04, 4.510358412574901e-06, 9.900368239695728e+02, 4.497828603096529e+03, 5.150830800825629e+02, 3.655932915585298e+03
156, -2.500000000000000e-04, 6.400000000010177e-03, 5.466931456607141e-04, 5.251892833148944e-06, 1.045504691925651e+03, 4.749723999775319e+03, 5.408528479818625e+02, 3.858928334826477e+03
157, -2.500000000000000e-04, 6.300000000010201e-03, 5.335166962654316e-04, 5.978805317953052e-06, 1.102486237336189e+03, 5.008892352908554e+03, 5.670470487462314e+02, 4.067699369637389e+03
158, -2.500000000000000e-04, 6.200000000010225e-03, 5.203964213861675e-04, 6.690517872116251e-06, 1.160958427180573e+03, 5.275338828283557e+03, 5.936341309491970e+02, 4.282257816933910e+03
159, -2.500000000000000e-04, 6.100000000010248e-03, 5.073353989615218e-04, 7.386446195147361e-06, 1.220875970763890e+03, 5.549044140815606e+03, 6.205865324100515e+02, 4.502615937994684e+03
160, -2.500000000000000e-04, 6.000000000010509e-03, 4.943367910706631e-04, 8.066000567068506e-06, 1.282274305153557e+03, 5.830057475826618e+03, 6.478703677701994e+02, 4.728771068808036e+03
161, -2.500000000000000e-04, 5.900000000010967e-03, 4.814038463722590e-04, 8.728585875036814e-06, 1.345162226403439e+03, 6.118411393775421e+03, 6.754451166012877e+02, 4.960726966481770e+03
162, -2.500000000000000e-04, 5.800000000011424e-03, 4.685399012079252e-04, 9.373602053274971e-06, 1.409493427175748e+03, 6.414091534917079e+03, 7.032716554521246e+02, 5.198496542795579e+03
163, -2.500000000000000e-04, 5.700000000011876e-03, 4.557483781224530e-04, 1.000044490386641e-05, 1.475229436802801e+03, 6.717085411985601e+03, 7.313146698333410e+02, 5.442089548125188e+03
164, -2.500000000000000e-04, 5.600000000012062e-03, 4.430327848198432e-04, 1.060850694886974e-05, 1.542372720893384e+03, 7.027412519376088e+03, 7.595362558317726e+02, 5.691506205446057e+03
165, -2.500000000000000e-04, 5.500000000012085e-03, 4.303967149370918e-04, 1.119717800135243e-05, 1.610955867525297e+03, 7.345121537734561e+03, 7.878894635117988e+02, 5.946741558219768e+03
166, -2.500000000000000e-04, 5.400000000012110e-03, 4.178438503134700e-04, 1.176584545122937e-05, 1.680955023702271e+03, 7.670217326422873e+03, 8.163247080763474e+02, 6.207802110800072e+03
167, -2.500000000000000e-04, 5.300000000012160e-03, 4.053779604204005e-04, 1.231389504887747e-05, 1.752341366739754e+03, 8.002698609806852e+03, 8.447940427693445e+02, 6.474694862675431e+03
168, -2.500000000000000e-04, 5.200000000012475e-03, 3.930029017577571e-04, 1.284071176225410e-05, 1.825103978464781e+03, 8.342578276724695e+03, 8.732477774475228e+02, 6.747423060083510e+03
169, -2.500000000000000e-04, 5.100000000012934e-03, 3.807226181800554e-04, 1.334568049767618e-05, 1.899238327991132e+03, 8.689875271569850e+03, 9.016325929005328e+02, 7.025988573134621e+03
170, -2.500000000000000e-04, 5.000000000013221e-03, 3.685411415057997e-04, 1.382818684214302e-05, 1.974730901008431e+03, 9.044602105147187e+03, 9.298920990215646e+02, 7.310395071841283e+03
171, -2.500000000000000e-04, 4.900000000012981e-03, 3.564625916677029e-04, 1.428761785402904e-05, 2.051554972988697e+03, 9.406758439729514e+03, 9.579704071970930e+02, 7.600647817220424e+03
172, -2.500000000000000e-04, 4.800000000012570e-03, 3.444911760753223e-04, 1.472336311753877e-05, 2.129720846683282e+03, 9.776373972280924e+03, 9.858070375289587e+02, 7.896744017896153e+03
173, -2.500000000000000e-04, 4.700000000012160e-03, 3.326311909678548e-04, 1.513481546901204e-05, 2.209229300595420e+03, 1.015347379046883e+04, 1.013334607219658e+03, 8.198683346711237e+03
174, -2.500000000000000e-04, 4.600000000011960e-03, 3.208870224479084e-04, 1.552137177194568e-05, 2.290020815937458e+03, 1.053803193568543e+04, 1.040488249585503e+03, 8.506476980606498e+03
175, -2.500000000000000e-04, 4.500000000011985e-03, 3.092631443174315e-04, 1.588243420478616e-05, 2.372091307453710e+03, 1.093006542037579e+04, 1.067203201469289e+03, 8.820125373845298e+03
176, -2.500000000000000e-04, 4.400000000012010e-03, 2.977641187542282e-04, 1.621741122128080e-05, 2.455456367134591e+03, 1.132960849900427e+04, 1.093407312865733e+03, 9.139624405131764e+03
177, -2.500000000000000e-04, 4.300000000011870e-03, 2.863945979458142e-04, 1.652571845590041e-05, 2.540092213647254e+03, 1.173666337086276e+04, 1.119024711506921e+03, 9.464976823509962e+03
178, -2.500000000000000e-04, 4.200000000011467e-03, 2.751593236500863e-04, 1.680677987152391e-05, 2.625978702374109e+03, 1.215123375823361e+04, 1.143978957195148e+03, 9.796184731679894e+03
179, -2.500000000000000e-04, 4.100000000011056e-03, 2.640631270573742e-04, 1.706002894733355e-05, 2.713110036284162e+03, 1.257333537043598e+04, 1.168189570224954e+03, 1.013324780749878e+04
180, -2.500000000000000e-04, 4.000000000010646e-03, 2.531109294664516e-04, 1.728490975262917e-05, 2.801462822239075e+03, 1.300296953684355e+04, 1.191573778973175e+03, 1.047616969751187e+04
181, -2.500000000000000e-04, 3.900000000010236e-03, 2.423077419268731e-04, 1.748087821262880e-05, 2.891022954824559e+03, 1.344014377830656e+04, 1.214047495033964e+03, 1.082495244466296e+04
182, -2.500000000000000e-04, 3.800000000009824e-03, 2.316586652800926e-04, 1.764740339077598e-05, 2.981796223525987e+03, 1.388488106943722e+04, 1.235521643072885e+03, 1.117959364552868e+04
183, -2.500000000000000e-04, 3.700000000009415e-03, 2.211688912703772e-04, 1.778396873035398e-05, 3.073763296422973e+03, 1.433718333868438e+04, 1.255903054014630e+03, 1.154009536237674e+04
184, -2.500000000000000e-04, 3.600000000009160e-03, 2.108437023179350e-04, 1.789007341463591e-05, 3.166909256930629e+03, 1.479705490301367e+04, 1.275096701529505e+03, 1.190645934533478e+04
185, -2.500000000000000e-04, 3.500000000009170e-03, 2.006884715575803e-04, 1.796523378422856e-05, 3.261223042919751e+03, 1.526450232701956e+04, 1.293004476668519e+03, 1.227868705842929e+04
186, -2.500000000000000e-04, 3.400000000009196e-03, 1.907086629858637e-04, 1.800898474897713e-05, 3.356700559546990e+03, 1.573953612011719e+04, 1.309524976026940e+03, 1.265677838833702e+04
187, -2.500000000000000e-04, 3.300000000009092e-03, 1.809098318901081e-04, 1.802088131106273e-05, 3.453334621079546e+03, 1.622216191883353e+04, 1.324552508017430e+03, 1.304073264605361e+04
188, -2.500000000000000e-04, 3.200000000008720e-03, 1.712976251327186e-04, 1.800050011708866e-05, 3.551111566802286e+03, 1.671237869147701e+04, 1.337977956306574e+03, 1.343055070997809e+04
189, -2.500000000000000e-04, 3.100000000008311e-03, 1.618777810765780e-04, 1.794744102834627e-05, 3.650022072433179e+03, 1.721018736880128e+04, 1.349689641562973e+03, 1.382623344873778e+04
190, -2.500000000000000e-04, 3.000000000007901e-03, 1.526561296513991e-04, 1.786132876912198e-05, 3.750063891708251e+03, 1.771559231987537e+04, 1.359572107219753e+03, 1.422778020412403e+04
191, -2.500000000000000e-04, 2.900000000007490e-03, 1.436385927318180e-04, 1.774181462137057e-05, 3.851232508238390e+03, 1.822859384120644e+04, 1.367505475494511e+03, 1.463519059666647e+04
192, -2.500000000000000e-04, 2.800000000007079e-03, 1.348311843557595e-04, 1.758857815522864e-05, 3.953516616357289e+03, 1.874918470446120e+04, 1.373366994206528e+03, 1.504846642606614e+04
193, -2.500000000000000e-04, 2.700000000006744e-03, 1.262400104614028e-04, 1.740132901883808e-05, 4.056918077573304e+03, 1.927736531857686e+04, 1.377031149543802e+03, 1.546760722812124e+04
194, -2.500000000000000e-04, 2.600000000006672e-03, 1.178712692040161e-04, 1.717980882132274e-05, 4.161443435734385e+03, 1.981313609785768e+04, 1.378367177045188e+03, 1.589261046803156e+04
195, -2.500000000000000e-04, 2.500000000006697e-03, 1.097312514942034e-04, 1.692379304873966e-05, 4.267083311610023e+03, 2.035648145381466e+04, 1.377240452342772e+03, 1.632347688553684e+04
196, -2.500000000000000e-04, 2.400000000006722e-03, 1.018263405757987e-04, 1.663309301767539e-05, 4.373843007956633e+03, 2.090739507446043e+04, 1.373513401623077e+03, 1.676020585176520e+04
197, -2.500000000000000e-04, 2.300000000006651e-03, 9.416301228286341e-05, 1.630755786170731e-05, 4.481727739868044e+03, 2.146586617733641e+04, 1.367044478035293e+03, 1.720279630998395e+04
198, -2.500000000000000e-04, 2.200000000006315e-03, 8.674783517810052e-05, 1.594707667152675e-05, 4.590741723662431e+03, 2.203187939542783e+04, 1.357687781649104e+03, 1.765124776709089e+04
199, -2.500000000000000e-04, 2.100000000005904e-03, 7.958747048082576e-05, 1.555158056436363e-05, 4.700896911011860e+03, 2.260542128937177e+04, 1.345294082611712e+03, 1.810555875663948e+04
200, -2.500000000000000e-04, 2.000000000005494e-03, 7.268867227749934e-05, 1.512104493455868e-05, 4.812202518613107e+03, 2.318647111427069e+04, 1.329709618373821e+03, 1.856572802510454e+04
201, -2.500000000000000e-04, 1.900000000005083e-03, 6.605828745333956e-05, 1.465549168848015e-05, 4.924673203406115e+03, 2.377500782879916e+04, 1.310776767735875e+03, 1.903175395040185e+04
202, -2.500000000000000e-04, 1.800000000004675e-03, 5.970325576601520e-05, 1.415499156337601e-05, 5.038323534875459e+03, 2.437100530153560e+04, 1.288333925959478e+03, 1.950363559724355e+04
203, -2.500000000000000e-04, 1.700000000004264e-03, 5.363060971895648e-05, 1.361966648351955e-05, 5.153174371134328e+03, 2.497443618036865e+04, 1.262215931759270e+03, 1.998137072234432e+04
204, -2.500000000000000e-04, 1.600000000003854e-03, 4.784747461208561e-05, 1.304969206217594e-05, 5.269247770141414e+03, 2.558526798886292e+04, 1.232252812195122e+03, 2.046495701193023e+04
205, -2.500000000000000e-04, 1.500000000003443e-03, 4.236106845476190e-05, 1.244530005454759e-05, 5.386569461742613e+03, 2.620346543034383e+04, 1.198270915779219e+03, 2.095439263061506e+04
206, -2.500000000000000e-04, 1.400000000003032e-03, 3.717870186430438e-05, 1.180678092798619e-05, 5.505169469927947e+03, 2.682898974756360e+04, 1.160092460369458e+03, 2.144967527258465e+04
207, -2.500000000000000e-04, 1.300000000002622e-03, 3.230777799805884e-05, 1.113448649803232e-05, 5.625080043259376e+03, 2.746179653768056e+04, 1.117535470912392e+03, 2.195080247673683e+04
208, -2.500000000000000e-04, 1.200000000002211e-03, 2.775579237338430e-05, 1.042883263602730e-05, 5.746341286037452e+03, 2.810184080901436e+04, 1.070414072822398e+03, 2.245777157402322e+04
209, -2.500000000000000e-04, 1.100000000002113e-03, 2.353033266509899e-05, 9.690301973917204e-06, 5.869015088718197e+03, 2.874909503890210e+04, 1.018539952560477e+03, 2.297058451730506e+04
210, -2.500000000000000e-04, 1.000000000002544e-03, 1.963907857666279e-05, 8.919446227386287e-06, 5.993229547466387e+03, 2.940361467650822e+04, 9.617267696284938e+02, 2.348927000585040e+04
211, -2.500000000000000e-04, 9.000000000030026e-04, 1.608980273683054e-05, 8.116886885568879e-06, 6.119224472552518e+03, 3.006563596786543e+04, 8.997998258077573e+02, 2.401393725337328e+04
212, -2.500000000000000e-04, 8.000000000032027e-04, 1.289037633293285e-05, 7.283313166185334e-06, 6.247276715357861e+03, 3.073553497005450e+04, 8.325760359289832e+02, 2.454480645210165e+04
213, -2.500000000000000e-04, 7.000000000028719e-04, 1.004878997528799e-05, 6.419481138587386e-06, 6.376212852595293e+03, 3.141191237508461e+04, 7.597432379526095e+02, 2.508176807425726e+04
214, -2.500000000000000e-04, 6.000000000024631e-04, 7.573198293870669e-06, 5.526260926346446e-06, 6.499614948994435e+03, 3.208532187598840e+04, 6.800839163179808e+02, 2.562183552142517e+04
215, -2.500000000000000e-04, 5.000000000020526e-04, 5.471967828663341e-06, 4.604862173741004e-06, 6.583115286384294e+03, 3.270601147642616e+04, 5.903239199006229e+02, 2.614956280088314e+04
216, -2.500000000000000e-04, 4.000000000016421e-04, 3.753341196658334e-06, 3.657850617758772e-06, 6.554558377931598e+03, 3.315041339700996e+04, 4.775051026722967e+02, 2.661299586082235e+04
217, -2.500000000000000e-04, 3.000000000012316e-04, 2.423716101696582e-06, 2.691197310939538e-06, 5.995204084904226e+03, 3.285123557019437e+04, 3.387185820275610e+02, 2.686457422424816e+04
218, -2.500000000000000e-04, 2.000000000008210e-04, 1.475335731402221e-06, 1.723519980539298e-06, 5.629649667237736e+03, 3.238186345424457e+04, 1.022515038590166e+02, 2.675299542081007e+04
219, -2.500000000000000e-04, 1.000000000004105e-04, 8.587521139627678e-07, 7.626019540656208e-07, -2.903427232927852e+03, 2.242237583756458e+04, 1.980692150767642e+03, 2.563374468839492e+04
220, -1.999999999998928e-04, 9.899999999999593e-03, 1.025045863705777e-03, -3.278812169631576e-05, -1.897194260407561e+00, 5.965224797207135e+01, 5.982837478373739e+00, 6.270176406050943e+01
221, -1.499999999997670e-04, 9.899999999999591e-03, 1.024563132613613e-03, -3.971284393611225e-05, 1.324713376004504e+00, 5.448773471880418e+01, 1.195169378902387e+01, 5.828961121847822e+01
222, -9.999999999959327e-05, 9.899999999999591e-03, 1.024080567851249e-03, -4.663727062470051e-05, 5.644766562724699e+00, 4.722939550265188e+01, 1.573280762599178e+01, 5.214754363589228e+01
223, -4.999999999946756e-05, 9.899999999999593e-03, 1.023598195090184e-03, -5.356142561063743e-05, 9.854189278738406e+00, 3.959206859332551e+01, 1.822683983550650e+01, 4.704478959125839e+01
224, 6.282680539010377e-16, 9.899999999999593e-03, 1.023116004348657e-03, -6.048538117078673e-05, 1.303573375093043e+01, 3.192311480581056e+01, 1.912355476551328e+01, 4.265647137997455e+01
225, 5.000000000046569e-05, 9.899999999999590e-03, 1.022633975019298e-03, -6.740924106369191e-05, 1.525521233559323e+01, 2.474958841665951e+01, 1.828575266950032e+01, 3.778383490236632e+01
226, 1.000000000003380e-04, 9.899999999999590e-03, 1.022152081602006e-03, -7.433311820199444e-05, 1.661089507563220e+01, 1.851145335775531e+01, 1.580182914228391e+01, 3.166075391950544e+01
227, 1.500000000001929e-04, 9.899999999999593e-03, 1.021670292798142e-03, -8.125711921978945e-05, 1.717722396531800e+01, 1.375774227452665e+01, 1.190702969668552e+01, 2.405830999519004e+01
228, 2.000000000000797e-04, 9.899999999999593e-03, 1.021188569476656e-03, -8.818133544737619e-05, 1.673093514283504e+01, 1.084298215934271e+01, 7.011019514501014e+00, 1.520807577791064e+01
229, -1.999999999998947e-04, 9.799999999999184e-03, 1.011195713545110e-03, -3.182676372011278e-05, 2.484020462174277e+00, 7.737616123300090e+01, 1.084257105928454e+01, 7.796844321865001e+01
230, -1.499999999997712e-04, 9.799999999999181e-03, 1.010712873522617e-03, -3.875120285643879e-05, 7.105225878543818e+00, 6.690884016054169e+01, 1.799139207668440e+01, 6.979421922063396e+01
231, -9.999999999960086e-05, 9.799999999999184e-03, 1.010230259047003e-03, -4.567525378833265e-05, 1.003037384345958e+01, 5.400528088598160e+01, 2.291452358311148e+01, 6.351451813217464e+01
232, -4.999999999947776e-05, 9.799999999999184e-03, 1.009747879417080e-03, -5.259902327944074e-05, 1.334655803182540e+01, 4.183881198385657e+01, 2.575988739427385e+01, 5.887355713331504e+01
233, 6.154473632113966e-16, 9.799999999999184e-03, 1.009265725449223e-03, -5.952261314088320e-05, 1.647854623921820e+01, 3.081081831157507e+01, 2.654058696079126e+01, 5.498204295630850e+01
234, 5.000000000045551e-05, 9.799999999999184e-03, 1.008783774810916e-03, -6.644613697010187e-05, 1.886609701364206e+01, 2.096266886968394e+01, 2.514904057520660e+01, 5.034175782549809e+01
235, 1.000000000003303e-04, 9.799999999999184e-03, 1.008301997468670e-03, -7.336971561235378e-05, 2.021550722104272e+01, 1.241632289726545e+01, 2.158332618493950e+01, 4.386555770690980e+01
236, 1.500000000001885e-04, 9.799999999999188e-03, 1.007820356899932e-03, -8.029346948789982e-05, 2.030372711592209e+01, 5.393167066727817e+00, 1.597702739644848e+01, 3.526168485322405e+01
237, 2.000000000000778e-04, 9.799999999999188e-03, 1.007338808267477e-03, -8.721751131421577e-05, 1.861886864277408e+01, 6.871661476658142e-02, 8.535185766358605e+00, 2.520923887242915e+01
238, -1.999999999998966e-04, 9.699999999999027e-03, 9.973457345342125e-04, -3.086606198941094e-05, 4.814871566976862e+00, 9.745219410693858e+01, 1.677750600645528e+01, 9.852721633416562e+01
239, -1.499999999997756e-04, 9.699999999998999e-03, 9.968627035322323e-04, -3.779003108761757e-05, 8.790219738633395e+00, 8.087611555469749e+01, 2.478362113258252e+01, 8.748307197039901e+01
240, -9.999999999960846e-05, 9.699999999998973e-03, 9.963799721144800e-04, -4.471357391763545e-05, 1.262347668039110e+01, 6.398776010672336e+01, 3.022156815046477e+01, 7.931999960787530e+01
241, -4.999999999948794e-05, 9.699999999998947e-03, 9.958975405167600e-04, -5.163681592303458e-05, 1.593504509377510e+01, 4.716179886459645e+01, 3.304689687768105e+01, 7.309924571457526e+01
242, 6.026266725217555e-16, 9.699999999998920e-03, 9.954153988657899e-04, -5.855988853372291e-05, 1.878631360524083e+01, 3.122039843611409e+01, 3.325678657091877e+01, 6.766581025655368e+01
243, 5.000000000044535e-05, 9.699999999998892e-03, 9.949335258540271e-04, -6.548292517943921e-05, 2.086308584398835e+01, 1.653174799761141e+01, 3.085882879552833e+01, 6.186945729571556e+01
244, 1.000000000003228e-04, 9.699999999998864e-03, 9.944518900689523e-04, -7.240606223068497e-05, 2.182816067198491e+01, 3.351741908968509e+00, 2.587610611815617e+01, 5.495151973929985e+01
245, 1.500000000001842e-04, 9.699999999998836e-03, 9.939704508623529e-04, -7.932943687370591e-05, 2.137027871259580e+01, -8.038854570872150e+00, 1.837419945633741e+01, 4.706741912544028e+01
246, 2.000000000000759e-04, 9.699999999998809e-03, 9.934891574014263e-04, -8.625318589871344e-05, 1.930890987917074e+01, -1.714362711474618e+01, 8.441585335150368e+00, 4.017248940724716e+01
247, -1.999999999998985e-04, 9.599999999999352e-03, 9.834961815597800e-04, -2.990622374388694e-05, 6.358869392410735e+00, 1.213410562450369e+02, 2.329860934195576e+01, 1.240653218368795e+02
248, -1.499999999997800e-04, 9.599999999999241e-03, 9.830129188123525e-04, -3.682954507052785e-05, 1.029913864809354e+01, 9.877669468363453e+01, 3.210417660621254e+01, 1.093205860955467e+02
249, -9.999999999961608e-05, 9.599999999999132e-03, 9.825300385748121e-04, -4.375239714089866e-05, 1.417473785427966e+01, 7.601430474626956e+01, 3.778092627555709e+01, 9.764079882070411e+01
250, -4.999999999949810e-05, 9.599999999999024e-03, 9.820475421424423e-04, -5.067493019375674e-05, 1.762478557893971e+01, 5.352321644225147e+01, 4.034047952538457e+01, 8.830693342994003e+01
251, 5.898059818321144e-16, 9.599999999998917e-03, 9.815654183399510e-04, -5.759729786253904e-05, 2.034446921727984e+01, 3.174617893898905e+01, 3.979699909246273e+01, 8.040648936273763e+01
252, 5.000000000043517e-05, 9.599999999998809e-03, 9.810836449648014e-04, -6.451965614560905e-05, 2.211519012375330e+01, 1.117085836297282e+01, 3.618198265658975e+01, 7.318689687052644e+01
253, 1.000000000003152e-04, 9.599999999998698e-03, 9.806021890543758e-04, -7.144216207322824e-05, 2.267262097380097e+01, -7.793762896714082e+00, 2.954168974801569e+01, 6.647590750653683e+01
254, 1.500000000001798e-04, 9.599999999998591e-03, 9.801210071995075e-04, -7.836497343741847e-05, 2.178197553666048e+01, -2.472977333769781e+01, 1.993332381516709e+01, 6.125922278834918e+01
255, 2.000000000000740e-04, 9.599999999998483e-03, 9.796400459041912e-04, -8.528824828058339e-05, 1.925824770377418e+01, -3.918103207762725e+01, 7.417047508754404e+00, 6.029261809174813e+01
256, -1.999999999999004e-04, 9.499999999999719e-03, 9.696474037056878e-04, -2.894744750677257e-05, 7.474464019500681e+00, 1.490440003408714e+02, 3.024177616221776e+01, 1.539486723425397e+02
257, -1.499999999997843e-04, 9.499999999999528e-03, 9.691638837142235e-04, -3.586991463857661e-05, 1.167751802133225e+01, 1.196928515715564e+02, 3.976024122830812e+01, 1.341298602552735e+02
258, -9.999999999962368e-05, 9.499999999999330e-03, 9.686808459733705e-04, -4.279186194744308e-05, 1.562917931490627e+01, 9.006613709749243e+01, 4.557760798038518e+01, 1.176865926126727e+02
259, -4.999999999950831e-05, 9.499999999999136e-03, 9.681982910076688e-04, -4.971346684228753e-05, 1.905257370996702e+01, 6.071272866576840e+01, 4.774581752806462e+01, 1.041835921661101e+02
260, 5.769988436696294e-16, 9.499999999998942e-03, 9.677162069281780e-04, -5.663490761060638e-05, 2.166243006289903e+01, 3.212168045275228e+01, 4.631491985045731e+01, 9.321846985300061e+01
261, 5.000000000042495e-05, 9.499999999998747e-03, 9.672345700864714e-04, -6.355636340364428e-05, 2.319197173361929e+01, 4.758930843967450e+00, 4.133844178811515e+01, 8.470681244337503e+01
262, 1.000000000003075e-04, 9.499999999998551e-03, 9.667533456741328e-04, -7.047801386933206e-05, 2.340585061860346e+01, -2.090762055502622e+01, 3.287795542834613e+01, 7.929390607133291e+01
263, 1.500000000001755e-04, 9.499999999998359e-03, 9.662724881187515e-04, -7.740003862029357e-05, 2.208093060572963e+01, -4.442516561432475e+01, 2.100351624376907e+01, 7.866162732133259e+01
264, 2.000000000000721e-04, 9.499999999998164e-03, 9.657919415029469e-04, -8.432261680458886e-05, 1.902461147644341e+01, -6.534439748881572e+01, 5.798032008820762e+00, 8.516218864308982e+01
265, -1.999999999999023e-04, 9.400000000000087e-03, 9.557998398789087e-04, -2.798994092366446e-05, 8.316349100067127e+00, 1.805488129548972e+02, 3.762039597367428e+01, 1.879499890353004e+02
266, -1.499999999997887e-04, 9.399999999999811e-03, 9.553160457632674e-04, -3.491130611624096e-05, 1.286777949407502e+01, 1.433110171447142e+02, 4.774281060708400e+01, 1.616568653272626e+02
267, -9.999999999963125e-05, 9.399999999999530e-03, 9.548328508774708e-04, -4.183209829003864e-05, 1.700590756752370e+01, 1.058326285268389e+02, 5.360514613787213e+01, 1.392272714888665e+02
268, -4.999999999951849e-05, 9.399999999999249e-03, 9.543502537985530e-04, -4.875252140699655e-05, 2.045558547888797e+01, 6.863810322050074e+01, 5.528818130478044e+01, 1.206179380684395e+02
269, 5.641646004528322e-16, 9.399999999998968e-03, 9.538682408673986e-04, -5.567277920487406e-05, 2.296047194611442e+01, 3.224538012205104e+01, 5.286547168031701e+01, 1.061378438812716e+02
270, 5.000000000041476e-05, 9.399999999998687e-03, 9.533867865665852e-04, -6.259307521131343e-05, 2.426839243627035e+01, -2.849168924994879e+00, 4.641090022192773e+01, 9.670185505884005e+01
271, 1.000000000003000e-04, 9.399999999998406e-03, 9.529058538938793e-04, -6.951361257051966e-05, 2.413654779104164e+01, -3.616489013704852e+01, 3.600304032815129e+01, 9.392091922291468e+01
272, 1.500000000001711e-04, 9.399999999998125e-03, 9.524253947299012e-04, -7.643459369763342e-05, 2.233487727839935e+01, -6.723225840398632e+01, 2.172916007693662e+01, 9.955349006912530e+01
273, 2.000000000000702e-04, 9.399999999997844e-03, 9.519453501867384e-04, -8.335621969678649e-05, 1.863020127210632e+01, -9.560628184024955e+01, 3.688564041875052e+00, 1.144744342315944e+02
274, -1.999999999999042e-04, 9.300000000000464e-03, 9.419539984841011e-04, -2.703391591674926e-05, 9.495746168080363e+00, 2.162713515850079e+02, 4.544840751407230e+01, 2.258724905290541e+02
275, -1.499999999997930e-04, 9.300000000000100e-03, 9.414699224113482e-04, -3.395389235049180e-05, 1.431524485701132e+01, 1.699644928587180e+02, 5.605510320028007e+01, 1.918212365268064e+02
276, -9.999999999963886e-05, 9.299999999999729e-03, 9.409865782190663e-04, -4.087324154810322e-05, 1.856795343550983e+01, 1.234891145803968e+02, 6.186575893215839e+01, 1.622280449521570e+02
277, -4.999999999952863e-05, 9.299999999999361e-03, 9.405039621945616e-04, -4.779219369434410e-05, 2.201203239904787e+01, 7.738502721534471e+01, 6.297143545769750e+01, 1.375782515128662e+02
278, 5.513303572360351e-16, 9.299999999998993e-03, 9.400220584375703e-04, -5.471097815530945e-05, 2.439015045111306e+01, 3.216867217660419e+01, 5.945964883444720e+01, 1.191734230367537e+02
279, 5.000000000040461e-05, 9.299999999998625e-03, 9.395408390757826e-04, -6.162982345171815e-05, 2.544923184715348e+01, -1.165463453895773e+01, 5.141907007934224e+01, 1.093269407424155e+02
280, 1.000000000002923e-04, 9.299999999998258e-03, 9.390602645067096e-04, -6.854895710382437e-05, 2.494123205159473e+01, -5.359105978800388e+01, 3.894251850020137e+01, 1.106047008500723e+02
281, 1.500000000001668e-04, 9.299999999997890e-03, 9.385802836336635e-04, -7.546860534267820e-05, 2.262174136665396e+01, -9.315852582199693e+01, 2.212984852417741e+01, 1.239515673684183e+02
282, 2.000000000000683e-04, 9.299999999997520e-03, 9.381008340492462e-04, -8.238899272867376e-05, 1.825178114211405e+01, -1.298817125064181e+02, 1.090604466614529e+00, 1.481495515110664e+02
283, -1.999999999999061e-04, 9.200000000000841e-03, 9.281104753413768e-04, -2.607959707762427e-05, 1.049721090071051e+01, 2.558032816408119e+02, 5.378171249579211e+01, 2.678524943655888e+02
284, -1.499999999997973e-04, 9.200000000000397e-03, 9.276261114262984e-04, -3.299785881311913e-05, 1.565451684291157e+01, 1.993916341360713e+02, 6.474751718416685e+01, 2.247849910408972e+02
285, -9.999999999964642e-05, 9.199999999999951e-03, 9.271426285054214e-04, -3.991543922000145e-05, 2.010059279255123e+01, 1.429061882223109e+02, 7.039656322839673e+01, 1.868259048588724e+02
286, -4.999999999953884e-05, 9.199999999999505e-03, 9.266600200117646e-04, -4.683259448219116e-05, 2.358687399663584e+01, 8.688114536078598e+01, 7.081857874360558e+01, 1.551362277760283e+02
287, 5.385367716007061e-16, 9.199999999999058e-03, 9.261782672266224e-04, -5.374957971200806e-05, 2.586284185367535e+01, 3.184083514158492e+01, 6.610907569489956e+01, 1.323532242171914e+02
288, 5.000000000039439e-05, 9.199999999998614e-03, 9.256973393798068e-04, -6.066664883372371e-05, 2.667724846658798e+01, -2.169976916552021e+01, 5.636608138687008e+01, 1.226738617580059e+02
289, 1.000000000002848e-04, 9.199999999998171e-03, 9.252171937814217e-04, -6.758405441423800e-05, 2.578005091088027e+01, -7.323380425542982e+01, 4.169159427913347e+01, 1.294468989548940e+02
290, 1.500000000001625e-04, 9.199999999997726e-03, 9.247377759425289e-04, -7.450204744200895e-05, 2.292301378400682e+01, -1.222608682301558e+02, 2.219329686205392e+01, 1.518174209342633e+02
291, 2.000000000000664e-04, 9.199999999997280e-03, 9.242590196684717e-04, -8.142087704153284e-05, 1.785970428388201e+01, -1.682848866361126e+02, -2.013757590944835e+00, 1.861881564635959e+02
292, -1.999999999999080e-04, 9.100000000001274e-03, 9.142699243011017e-04, -2.512721920079242e-05, 1.177973750440741e+01, 2.995197822830048e+02, 6.265374665038249e+01, 3.138412038699038e+02
293, -1.499999999998017e-04, 9.100000000000802e-03, 9.137852735651260e-04, -3.204340240216688e-05, 1.719491866134906e+01, 2.318667652893135e+02, 7.386551295900072e+01, 2.605925128499387e+02
294, -9.999999999965405e-05, 9.100000000000334e-03, 9.133016682054827e-04, -3.895885068800775e-05, 2.178586465085451e+01, 1.642722195071902e+02, 7.923106372037788e+01, 2.131023396241720e+02
295, -4.999999999954905e-05, 9.099999999999862e-03, 9.128190987414507e-04, -4.587384632476591e-05, 2.528367313908343e+01, 9.725707269230645e+01, 7.884901487097665e+01, 1.733460089755223e+02
296, 5.257025283839090e-16, 9.099999999999390e-03, 9.123375434108711e-04, -5.278867038176001e-05, 2.743203912473565e+01, 3.134663766487172e+01, 7.281938163865699e+01, 1.456913636791005e+02
297, 5.000000000038422e-05, 9.099999999998916e-03, 9.118569682726659e-04, -5.970360254213735e-05, 2.797682341428249e+01, -3.293788036838493e+01, 6.124551453913034e+01, 1.368015107430522e+02
298, 1.000000000002772e-04, 9.099999999998446e-03, 9.113773272841101e-04, -6.661892095373068e-05, 2.666494244967215e+01, -9.507948661272455e+01, 4.423439397005376e+01, 1.504939614978643e+02
299, 1.500000000001581e-04, 9.099999999997978e-03, 9.108985623615637e-04, -7.353490205407735e-05, 2.324377440478389e+01, -1.545647460111697e+02, 2.189748861854375e+01, 1.831225544920876e+02
300, 2.000000000000645e-04, 9.099999999997506e-03, 9.104206034118705e-04, -8.045182037127179e-05, 1.746001424648544e+01, -2.108828743084944e+02, -5.648152890674835e+00, 2.286221364565070e+02
301, -1.999999999999099e-04, 9.000000000001736e-03, 9.004330775639932e-04, -2.417702716044418e-05, 1.322886773797415e+01, 3.473743844759812e+02, 7.205444078328065e+01, 3.638964084770211e+02
302, -1.499999999998060e-04, 9.000000000001264e-03, 8.999481453245007e-04, -3.109073099823457e-05, 1.890273122994793e+01, 2.674145459089273e+02, 8.339732685251015e+01, 2.992968067648183e+02
303, -9.999999999966160e-05, 9.000000000000792e-03, 8.994644381696696e-04, -3.800364682919233e-05, 2.360956733820380e+01, 1.876307138213988e+02, 8.836295968361273e+01, 2.411119803532225e+02
304, -4.999999999955923e-05, 9.000000000000320e-03, 8.989819435335413e-04, -4.491608341939750e-05, 2.708944352854441e+01, 1.085564251438164e+02, 8.705497905295925e+01, 1.922268103183002e+02
305, 5.128818376942679e-16, 8.999999999999852e-03, 8.985006364574753e-04, -5.182834807508525e-05, 2.908130505528939e+01, 3.071914799290493e+01, 7.957815099157168e+01, 1.591647291030202e+02
306, 5.000000000037403e-05, 8.999999999999380e-03, 8.980204796657877e-04, -5.874074658837718e-05, 2.932716742444003e+01, -4.535467062996641e+01, 6.603931034688640e+01, 1.517304813791681e+02
307, 1.000000000002695e-04, 8.999999999998908e-03, 8.975414236154952e-04, -6.565358312075684e-05, 2.757026500312127e+01, -1.191404160864741e+02, 4.654825017612041e+01, 1.737555245844222e+02
308, 1.500000000001538e-04, 8.999999999998436e-03, 8.970634065263137e-04, -7.256716007586352e-05, 2.355422518394597e+01, -1.901149537998212e+02, 2.121815093696985e+01, 2.178425067894998e+02
309, 2.000000000000626e-04, 8.999999999997964e-03, 8.965863543879563e-04, -7.948177796452289e-05, 1.702163772824778e+01, -2.577562248456958e+02, -9.834343433710982e+00, 2.754809086012926e+02
310, -1.999999999999118e-04, 8.900000000002187e-03, 8.866007441873641e-04, -2.322928005269992e-05, 1.476419147979932e+01, 3.993885396370327e+02, 8.200075067481410e+01, 4.181296230121812e+02
311, -1.499999999998104e-04, 8.900000000001712e-03, 8.861155392521424e-04, -3.014006562561773e-05, 2.069514938956336e+01, 3.060438245352398e+02, 9.335114044754005e+01, 3.410008916393301e+02
312, -9.999999999966923e-05, 8.900000000001240e-03, 8.856317547078110e-04, -3.705001126107944e-05, 2.551488821986963e+01, 2.130043401901091e+02, 9.779260424143081e+01, 2.709351737545075e+02
313, -4.999999999956943e-05, 8.900000000000770e-03, 8.851493746870618e-04, -4.395945229346818e-05, 2.896246847261549e+01, 1.208043586374973e+02, 9.543135744893561e+01, 2.118100770200613e+02
314, 5.000475944774707e-16, 8.900000000000293e-03, 8.846683708803806e-04, -5.086872251777575e-05, 3.077817734322220e+01, 2.997792225194390e+01, 8.637463655933517e+01, 1.727511266858774e+02
315, 5.000000000036387e-05, 8.899999999999823e-03, 8.841887025536757e-04, -5.777815413256596e-05, 3.070211808106393e+01, -5.894277469398003e+01, 7.073147841140722e+01, 1.674752965475882e+02
316, 1.000000000002620e-04, 8.899999999999349e-03, 8.837103165696675e-04, -6.468807766080109e-05, 2.847499688268579e+01, -1.454263963386794e+02, 4.861325698605774e+01, 1.992352618978423e+02
317, 1.500000000001494e-04, 8.899999999998874e-03, 8.832331474012483e-04, -7.159882185237419e-05, 2.383794379969756e+01, -2.289421097554339e+02, 2.013395128712082e+01, 2.559673015310036e+02
318, 2.000000000000606e-04, 8.899999999998404e-03, 8.827571171345534e-04, -7.851071358965792e-05, 1.653302787586422e+01, -3.089584774648645e+02, -1.458995856035163e+01, 3.267968598566160e+02
319, -1.999999999999137e-04, 8.800000000002590e-03, 8.727738067216987e-04, -2.228424997698150e-05, 1.641091656917956e+01, 4.556486288754272e+02, 9.251053193252338e+01, 4.766157382900607e+02
320, -1.499999999998147e-04, 8.800000000002060e-03, 8.722883421645327e-04, -2.919164034043476e-05, 2.257917666889871e+01, 3.478280145401175e+02, 1.037389258990249e+02, 3.857899240821511e+02
321, -9.999999999967683e-05, 8.800000000001532e-03, 8.718045088346571e-04, -3.609814023602231e-05, 2.749177982531959e+01, 2.404454452592972e+02, 1.075261064127774e+02, 3.026494967168031e+02
322, -4.999999999957961e-05, 8.800000000001001e-03, 8.713222875162873e-04, -4.300411166062171e-05, 3.088898087235367e+01, 1.340396067638348e+02, 1.039786382012616e+02, 2.321341862599297e+02
323, 4.872540088421418e-16, 8.800000000000474e-03, 8.708416464744937e-04, -4.990991507399797e-05, 3.250941347137449e+01, 2.914835126176425e+01, 9.320453783503996e+01, 1.864393741443863e+02
324, 5.000000000035368e-05, 8.799999999999947e-03, 8.703625414521605e-04, -5.681590932857043e-05, 3.209154364297940e+01, -7.369086776233405e+01, 7.531382126286249e+01, 1.840614170747921e+02
325, 1.000000000002544e-04, 8.799999999999419e-03, 8.698849156726147e-04, -6.372245158868636e-05, 2.937388442960838e+01, -1.739410910322623e+02, 5.041872045255612e+01, 2.269475021571136e+02
326, 1.500000000001451e-04, 8.799999999998892e-03, 8.694086998450538e-04, -7.062989724325961e-05, 2.409552296357519e+01, -2.710653862823753e+02, 1.863382456544532e+01, 2.975043529406577e+02
327, 2.000000000000587e-04, 8.799999999998365e-03, 8.689338121712984e-04, -7.753859981390185e-05, 1.599673875098658e+01, -3.645263924156889e+02, -1.992385976777608e+01, 3.826038344097912e+02
328, -1.999999999999156e-04, 8.700000000002964e-03, 8.589532232635318e-04, -2.134222162118972e-05, 1.812071648769956e+01, 5.161701504936896e+02, 1.035980618671307e+02, 5.394288390549677e+02
329, -1.499999999998191e-04, 8.700000000002345e-03, 8.584675162422498e-04, -2.824570173785792e-05, 2.451376697472691e+01, 3.927865492398261e+02, 1.145731848936359e+02, 4.337428972835893e+02
330, -9.999999999968445e-05, 8.700000000001731e-03, 8.579836669553900e-04, -3.514824229908886e-05, 2.950820480950391e+01, 2.699746914471747e+02, 1.175729042488645e+02, 3.363297228166368e+02
331, -4.999999999958977e-05, 8.700000000001117e-03, 8.575016528155547e-04, -4.205023211050021e-05, 3.284240355894671e+01, 1.482776493667961e+02, 1.127025018044699e+02, 2.532443713622571e+02
332, 4.743926605710325e-16, 8.700000000000502e-03, 8.570214386231049e-04, -4.895205848335924e-05, 3.425342213543148e+01, 2.823805363811449e+01, 1.000700180686952e+02, 2.002304140814638e+02
333, 5.000000000034347e-05, 8.699999999999888e-03, 8.565429765538843e-04, -5.585410714186111e-05, 3.347779584358020e+01, -8.960182594323555e+01, 7.978584601194881e+01, 2.015234929097728e+02
334, 1.000000000002468e-04, 8.699999999999274e-03, 8.560662061579827e-04, -6.275676213013014e-05, 3.025213362438394e+01, -2.046998663637486e+02, 5.196271225849503e+01, 2.569103660023473e+02
335, 1.500000000001407e-04, 8.699999999998657e-03, 8.555910543619093e-04, -6.966040572078200e-05, 2.431323634935911e+01, -3.165141301266599e+02, 1.671570702843463e+01, 3.424630683516405e+02
336, 2.000000000000568e-04, 8.699999999998044e-03, 8.551174354722225e-04, -7.656541831978368e-05, 1.539822357568301e+01, -4.245028371567177e+02, -2.583751882898505e+01, 4.429257869558330e+02
337, -1.999999999999175e-04, 8.600000000003331e-03, 8.451400259971505e-04, -2.040349178702240e-05, 1.990424985546008e+01, 5.810057966542640e+02, 1.152748136900439e+02, 6.066202077948836e+02
338, -1.499999999998235e-04, 8.600000000002632e-03, 8.446540982501329e-04, -2.730250840232338e-05, 2.650227751714458e+01, 4.409600494167230e+02, 1.258664327173128e+02, 4.849171890414798e+02
339, -9.999999999969208e-05, 8.600000000001931e-03, 8.441702704788159e-04, -3.420053775896577e-05, 3.156202862355924e+01, 3.016217024266141e+02, 1.279432619143573e+02, 3.720351334104829e+02
340, -4.999999999959999e-05, 8.600000000001230e-03, 8.436885167366515e-04, -4.109799568433523e-05, 3.481740942251225e+01, 1.635377769753216e+02, 1.216103450283054e+02, 2.751821889122628e+02
341, 4.615584173542353e-16, 8.600000000000526e-03, 8.432087983407918e-04, -4.799529656009482e-05, 3.600228945432424e+01, 2.725510119732985e+01, 1.069756449802504e+02, 2.141300254008428e+02
342, 5.000000000033329e-05, 8.599999999999825e-03, 8.427310638747513e-04, -5.489285320044134e-05, 3.485084105616153e+01, -1.066794264444682e+02, 8.414977854549173e+01, 2.198989712022796e+02
343, 1.000000000002392e-04, 8.599999999999124e-03, 8.422552491894807e-04, -6.179107675216782e-05, 3.109739222433802e+01, -2.377190026077711e+02, 5.324578846640850e+01, 2.891413323760034e+02
344, 1.500000000001364e-04, 8.599999999998423e-03, 8.417812774059247e-04, -6.869037659888217e-05, 2.447641757988032e+01, -3.653169465982695e+02, 1.437907450590346e+01, 3.908527828887816e+02
345, 2.000000000000548e-04, 8.599999999997722e-03, 8.413090589164837e-04, -7.559116027038678e-05, 1.472172655055411e+01, -4.889272845118562e+02, -3.233262172521566e+01, 5.077833396781028e+02
346, -1.999999999999195e-04, 8.500000000003703e-03, 8.313353225266063e-04, -1.946836892162862e-05, 2.175934361233402e+01, 6.501868407853153e+02, 1.275478653056039e+02, 6.782292761147689e+02
347, -1.499999999998278e-04, 8.500000000002915e-03, 8.308492005657088e-04, -2.636233038073671e-05, 2.854866685431784e+01, 4.923773930370581e+02, 1.376250110052115e+02, 5.393511489271547e+02
348, -9.999999999969967e-05, 8.500000000002127e-03, 8.303654366789559e-04, -3.325525816800312e-05, 3.365832898391790e+01, 3.354100235886146e+02, 1.386425875958960e+02, 4.098062390666460e+02
349, -4.999999999961013e-05, 8.500000000001340e-03, 8.298840015422842e-04, -4.014759542876361e-05, 3.681763166814159e+01, 1.798358181924667e+02, 1.307060078221788e+02, 2.979772534942098e+02
350, 4.487512791917503e-16, 8.500000000000552e-03, 8.294048529776722e-04, -4.703978385173268e-05, 3.775798075036172e+01, 2.620662995065401e+01, 1.139236030717007e+02, 2.281398322359591e+02
351, 5.000000000032310e-05, 8.499999999999765e-03, 8.289279359613756e-04, -5.393226356890955e-05, 3.621107481793768e+01, -1.249259664808070e+02, 8.840618759081272e+01, 2.392232473984943e+02
352, 1.000000000002316e-04, 8.499999999998977e-03, 8.284531826305216e-04, -6.082547305254022e-05, 3.190890432803145e+01, -2.730105069661349e+02, 5.426700761981045e+01, 3.236595122161794e+02
353, 1.500000000001320e-04, 8.499999999998190e-03, 8.279805122868695e-04, -6.771984902019270e-05, 2.458371458327543e+01, -4.174955661881064e+02, 1.162164910703370e+01, 4.426898930393716e+02
354, 2.000000000000531e-04, 8.499999999997402e-03, 8.275098314000706e-04, -7.461582634428539e-05, 1.396829130595500e+01, -5.578294142549204e+02, -3.941222419005563e+01, 5.772052578997442e+02
355, -1.999999999999213e-04, 8.400000000004074e-03, 8.175402968335568e-04, -1.853717288583928e-05, 2.373547459998216e+01, 7.237919398827473e+02, 1.404121076344487e+02, 7.542819727831175e+02
356, -1.499999999998322e-04, 8.400000000003200e-03, 8.170540122340962e-04, -2.542544883318868e-05, 3.068969226886856e+01, 5.470961542830350e+02, 1.498454777736933e+02, 5.970680889537595e+02
357, -9.999999999970726e-05, 8.400000000002326e-03, 8.165703596977343e-04, -3.231264600010324e-05, 3.582211758941695e+01, 3.713789756995562e+02, 1.496682647599655e+02, 4.496673914459271e+02
358, -4.999999999962035e-05, 8.400000000001451e-03, 8.160893065299033e-04, -3.919923509916040e-05, 3.886085949440125e+01, 1.971971823079348e+02, 1.399875743646524e+02, 3.216465063203825e+02
359, 4.359305885021092e-16, 8.400000000000581e-03, 8.156108070600973e-04, -4.608568538000984e-05, 3.953377453795341e+01, 2.510633707217908e+01, 1.209122784377307e+02, 2.422545505451696e+02
360, 5.000000000031294e-05, 8.399999999999703e-03, 8.151348026630900e-04, -5.297246452351545e-05, 3.756969165672034e+01, -1.443379102009542e+02, 9.255356498094439e+01, 2.595284669864518e+02
361, 1.000000000002240e-04, 8.399999999998832e-03, 8.146612217688503e-04, -5.986003855262525e-05, 3.269795095915597e+01, -3.105798560459739e+02, 5.502486278630590e+01, 3.604866084625868e+02
362, 1.500000000001277e-04, 8.399999999997958e-03, 8.141899798683980e-04, -6.674887174076840e-05, 2.464832931266945e+01, -4.730636522799485e+02, 8.441888403252801e+00, 4.979982716236095e+02
363, 2.000000000000511e-04, 8.399999999997083e-03, 8.137209795182734e-04, -7.363942652027837e-05, 1.315179592714641e+01, -6.312327446648110e+02, -4.707719832239242e+01, 6.512269086589185e+02
364, -1.999999999999233e-04, 8.300000000004210e-03, 8.037562123867729e-04, -1.761023555711365e-05, 2.577363815534253e+01, 8.018115328800384e+02, 1.538702186737301e+02, 8.348287194554008e+02
365, -1.499999999998365e-04, 8.300000000003279e-03, 8.032698012186881e-04, -2.449215649960686e-05, 3.288662614597195e+01, 6.051144818987085e+02, 1.625262300429173e+02, 6.581062381616116e+02
366, -9.999999999971485e-05, 8.300000000002344e-03, 8.027863122494151e-04, -3.137295489877021e-05, 3.803181392343873e+01, 4.095319934923854e+02, 1.610178997616192e+02, 4.916497122894826e+02
367, -4.999999999963053e-05, 8.300000000001409e-03, 8.023057093441168e-04, -3.825312929290794e-05, 4.093478541085646e+01, 2.156246581887004e+02, 1.494524179593932e+02, 3.462089724238469e+02
368, 4.231098978124681e-16, 8.300000000000474e-03, 8.018279433108211e-04, -4.513317670386429e-05, 4.132259951176815e+01, 2.395309180152595e+01, 1.279394147825838e+02, 2.564676884477580e+02
369, 5.000000000030276e-05, 8.299999999999542e-03, 8.013529519112081e-04, -5.201359257703227e-05, 3.892253855736414e+01, -1.649223828728412e+02, 9.659036510819773e+01, 2.808407850007301e+02
370, 1.000000000002164e-04, 8.299999999998609e-03, 8.008806598686406e-04, -5.889487069886852e-05, 3.346200331977564e+01, -3.504416283996536e+02, 5.551880808940047e+01, 3.996390254392555e+02
371, 1.500000000001233e-04, 8.299999999997672e-03, 8.004109788718374e-04, -6.577750311389551e-05, 2.466849878396786e+01, -5.320444397051032e+02, 4.840449957151630e+00, 5.567971046119825e+02
372, 2.000000000000492e-04, 8.299999999996739e-03, 7.999438075746290e-04, -7.266198003583066e-05, 1.226904246466739e+01, -7.091708629885824e+02, -5.532656516303225e+01, 7.298764638151794e+02
373, -1.999999999999252e-04, 8.200000000004194e-03, 7.899844101544813e-04, -1.668790048159720e-05, 2.794795031798598e+01, 8.843478697866412e+02, 1.679141927018750e+02, 9.198921276480241e+02
374, -1.499999999998408e-04, 8.200000000003217e-03, 7.894979136098955e-04, -2.356275746206859e-05, 3.518563914472058e+01, 6.665029507014168e+02, 1.756616475860698e+02, 7.224884812934979e+02
375, -9.999999999972244e-05, 8.200000000002240e-03, 7.890146454864184e-04, -3.043644962164814e-05, 4.031219615303244e+01, 4.499141194517640e+02, 1.726856255442833e+02, 5.357751736022318e+02
376, -4.999999999964069e-05, 8.200000000001265e-03, 7.885345662191410e-04, -3.730950346474171e-05, 4.305172763598446e+01, 2.351448256781896e+02, 1.590952412200592e+02, 3.716785458308396e+02
377, 4.102892071228270e-16, 8.200000000000287e-03, 7.880576230971814e-04, -4.418244398699113e-05, 4.312902206228158e+01, 2.275911348230608e+01, 1.350004327471472e+02, 2.707681675220051e+02
378, 5.000000000029257e-05, 8.199999999999309e-03, 7.875837502740302e-04, -5.105579459420856e-05, 4.026876719742344e+01, -1.866795519221869e+02, 1.005129531228278e+02, 3.031780904569188e+02
379, 1.000000000002088e-04, 8.199999999998328e-03, 7.871128687762568e-04, -5.793007703365785e-05, 3.419588694709866e+01, -3.926075891010204e+02, 5.574633971228693e+01, 4.411256337281117e+02
380, 1.500000000001190e-04, 8.199999999997352e-03, 7.866448865052501e-04, -6.480581132340051e-05, 2.463516693581205e+01, -5.944612440466533e+02, 8.160132983184667e-01, 6.190985621063757e+02
381, 2.000000000000473e-04, 8.199999999996377e-03, 7.861796982305930e-04, -7.168351567965447e-05, 1.131078500415893e+01, -7.916764493204555e+02, -6.416066866405038e+01, 8.131757891759723e+02
382, -1.999999999999271e-04, 8.100000000004175e-03, 7.762263126441152e-04, -1.577052320901909e-05, 3.017888801411156e+01, 9.713786687179787e+02, 1.825450407828073e+02, 1.009528501259174e+03
383, -1.499999999998452e-04, 8.100000000003150e-03, 7.757397762531932e-04, -2.263756755236644e-05, 3.753342005779169e+01, 7.312534416182632e+02, 1.892480588700900e+02, 7.902574134155586e+02
384, -9.999999999973005e-05, 8.100000000002133e-03, 7.752567908490304e-04, -2.950340629755051e-05, 4.262810158340744e+01, 4.925227962354897e+02, 1.846673662913963e+02, 5.820767827083411e+02
385, -4.999999999965090e-05, 8.100000000001112e-03, 7.747773133884789e-04, -3.636859411905356e-05, 4.518876755443083e+01, 2.557569885890431e+02, 1.689113635363553e+02, 3.980743280299853e+02
386, 3.974685164331859e-16, 8.100000000000092e-03, 7.743012876042268e-04, -4.323368415208997e-05, 4.493766468681490e+01, 2.152200635342107e+01, 1.420905615227924e+02, 2.851441806361057e+02
387, 5.000000000028236e-05, 8.099999999999071e-03, 7.738286440250693e-04, -5.009922793177257e-05, 4.159794088930529e+01, -2.096155785665221e+02, 1.043168688465935e+02, 3.265520921096862e+02
388, 1.000000000002012e-04, 8.099999999998051e-03, 7.733592999811463e-04, -5.696577533760625e-05, 3.489279844096423e+01, -4.370889210939764e+02, 5.570364455188774e+01, 4.849518817786066e+02
389, 1.500000000001146e-04, 8.099999999997031e-03, 7.728931596025297e-04, -6.383387453763596e-05, 2.454531496920305e+01, -6.603306595968427e+02, -3.634241834909567e+00, 6.849145431312211e+02
390, 2.000000000000454e-04, 8.099999999996011e-03, 7.724301138103565e-04, -7.070407193568536e-05, 1.027820918942174e+01, -8.787727183226962e+02, -7.358037840713591e+01, 9.011480677759381e+02
391, -1.999999999999291e-04, 8.000000000004158e-03, 7.624834210241367e-04, -1.485847123948080e-05, 3.247019424101394e+01, 1.062929351220962e+03, 1.977690902821322e+02, 1.103764706125320e+03
392, -1.499999999998495e-04, 8.000000000003093e-03, 7.619968951971162e-04, -2.171691409388151e-05, 3.992634102532357e+01, 7.993808983377457e+02, 2.032895717084972e+02, 8.614393910684047e+02
393, -9.999999999973761e-05, 8.000000000002028e-03, 7.615142593409613e-04, -2.857411225104827e-05, 4.497905181561855e+01, 5.373735496270651e+02, 1.969628864533113e+02, 6.305789847711915e+02
394, -4.999999999966106e-05, 8.000000000000966e-03, 7.610354668630917e-04, -3.543064868452177e-05, 4.734506587757591e+01, 2.774724765214473e+02, 1.788983133223464e+02, 4.254139762254817e+02
395, 3.846478257435448e-16, 7.999999999999901e-03, 7.605604579176377e-04, -4.228710479131344e-05, 4.674769476236963e+01, 2.024786293483984e+01, 1.492064138505391e+02, 2.995871439555456e+02
396, 5.000000000027218e-05, 7.999999999998840e-03, 7.600891594062360e-04, -4.914406036633191e-05, 4.290964488176431e+01, -2.337303740964474e+02, 1.079987501470444e+02, 3.509766662237822e+02
397, 1.000000000001936e-04, 7.999999999997775e-03, 7.596214849774519e-04, -5.600209355955296e-05, 3.555331648368242e+01, -4.838919881034334e+02, 5.538810893182306e+01, 5.311259689581893e+02
398, 1.500000000001103e-04, 7.999999999996709e-03, 7.591573350199178e-04, -6.286178083259564e-05, 2.440075877511195e+01, -7.296661651657284e+02, -8.511412092491181e+00, 7.542590419244797e+02
399, 2.000000000000435e-04, 7.999999999995648e-03, 7.586965966526511e-04, -6.972369691314171e-05, 9.173817848686532e+00, -9.704811981978477e+02, -8.358442221269615e+01, 9.938155628745490e+02
400, -1.999999999999309e-04, 7.900000000004136e-03, 7.487573155707730e-04, -1.395212235041993e-05, 3.493841861972000e+01, 1.159123243329034e+03, 2.135640821572445e+02, 1.202593027111573e+03
401, -1.499999999998538e-04, 7.900000000003030e-03, 7.482708562827963e-04, -2.080113489791325e-05, 4.245217323395480e+01, 8.709833014378910e+02, 2.177683705191740e+02, 9.360320951747286e+02
402, -9.999999999974523e-05, 7.900000000001926e-03, 7.477886420967072e-04, -2.764886537623008e-05, 4.741483944096004e+01, 5.845287905261251e+02, 2.095585501632424e+02, 6.812859460141519e+02
403, -4.999999999967128e-05, 7.900000000000816e-03, 7.473106229576274e-04, -3.449592512657246e-05, 4.954920613669024e+01, 3.003308945288290e+02, 1.890458993411425e+02, 4.537012932135166e+02
404, 3.718271350539037e-16, 7.899999999999709e-03, 7.468367354992430e-04, -4.134292392344301e-05, 4.857512610901487e+01, 1.895966335078032e+01, 1.563405790470337e+02, 3.140805346745188e+02
405, 5.000000000026201e-05, 7.899999999998603e-03, 7.463669030499548e-04, -4.819046993881827e-05, 4.421303059484922e+01, -2.590135911163848e+02, 1.115536628070407e+02, 3.764615024900628e+02
406, 1.000000000001860e-04, 7.899999999997496e-03, 7.459010356276670e-04, -5.503916971681218e-05, 3.618326398755121e+01, -5.330166707059323e+02, 5.479722694892591e+01, 5.796546471652188e+02
407, 1.500000000001060e-04, 7.899999999996389e-03, 7.454390299321118e-04, -6.188962813854341e-05, 2.420582646595925e+01, -8.024766207379716e+02, -1.381548575722645e+01, 8.271440860587184e+02
408, 2.000000000000416e-04, 7.899999999995286e-03, 7.449807693337065e-04, -6.874244838249205e-05, 8.000665853429069e+00, -1.066819366428768e+03, -9.416989231546108e+01, 1.091196580030347e+03
409, -1.999999999999328e-04, 7.800000000004094e-03, 7.350496623349124e-04, -1.305186644086370e-05, 3.739977187755775e+01, 1.259851665419575e+03, 2.299318261851351e+02, 1.306086984391081e+03
410, -1.499999999998583e-04, 7.800000000002947e-03, 7.345633292308450e-04, -1.989057949846523e-05, 4.497643827823821e+01, 9.459872450323107e+02, 2.326797721224699e+02, 1.014090715521784e+03
411, -9.999999999975283e-05, 7.800000000001799e-03, 7.340816129584373e-04, -2.672797488815844e-05, 4.985092614879116e+01, 6.339483669145604e+02, 2.224502290999692e+02, 7.342385429924233e+02
412, -4.999999999968147e-05, 7.800000000000654e-03, 7.336044599352003e-04, -3.356469240689603e-05, 5.174657228495718e+01, 3.243088363396332e+02, 1.993507369176171e+02, 4.829627863769618e+02
413, 3.590064443642627e-16, 7.799999999999507e-03, 7.331318032624861e-04, -4.040137027052351e-05, 5.038451538794713e+01, 1.764185022620042e+01, 1.634908971589675e+02, 3.286170658034525e+02
414, 5.000000000025183e-05, 7.799999999998360e-03, 7.326635627019545e-04, -4.723864512391089e-05, 4.548505091626555e+01, -2.854784106509141e+02, 1.149809470797204e+02, 4.030127611601496e+02
415, 1.000000000001784e-04, 7.799999999997211e-03, 7.321996446610387e-04, -5.407715201033267e-05, 3.676785284753018e+01, -5.844769652386983e+02, 5.393215465428143e+01, 6.305393193303686e+02
416, 1.500000000001016e-04, 7.799999999996065e-03, 7.317399421811077e-04, -6.091752433841362e-05, 2.395208681515456e+01, -8.787780304643185e+02, -1.954314126312865e+01, 9.035758972688091e+02
417, 2.000000000000397e-04, 7.799999999994919e-03, 7.312843349261415e-04, -6.776039385104421e-05, 6.755385649317915e+00, -1.167805891200914e+03, -1.053314508486428e+02, 1.193303419599378e+03
418, -1.999999999999347e-04, 7.700000000003952e-03, 7.213622048656131e-04, -1.215810481247835e-05, 3.994090972539777e+01, 1.365209107885991e+03, 2.468724591074093e+02, 1.414255932042989e+03
419, -1.499999999998626e-04, 7.700000000002785e-03, 7.208760626810076e-04, -1.898560857788327e-05, 4.754754499838910e+01, 1.024454042257090e+03, 2.480293312389452e+02, 1.095637029771091e+03
420, -9.999999999976044e-05, 7.700000000001617e-03, 7.203949254769470e-04, -2.581176099553047e-05, 5.230982897030528e+01, 6.856702880500166e+02, 2.356411672125970e+02, 7.894634316210745e+02
421, -4.999999999969162e-05, 7.700000000000449e-03, 7.199187362221730e-04, -3.263723026046946e-05, 5.394626768032370e+01, 3.494285419207264e+02, 2.098154997394868e+02, 5.132250482137470e+02
422, 3.461857536746216e-16, 7.699999999999279e-03, 7.194474245338145e-04, -3.946268310057499e-05, 5.217779156024361e+01, 1.630495072497415e+01, 1.706599626770162e+02, 3.431998720181503e+02
423, 5.000000000024164e-05, 7.699999999998113e-03, 7.189809066448263e-04, -4.628878471916604e-05, 4.672355284063310e+01, -3.131239939712803e+02, 1.182835519336932e+02, 4.306439963342748e+02
424, 1.000000000001708e-04, 7.699999999996944e-03, 7.185190853846490e-04, -5.311619875664720e-05, 3.730188257472818e+01, -6.382809709339928e+02, 5.279648116226093e+01, 6.837851019490363e+02
425, 1.500000000000973e-04, 7.699999999995776e-03, 7.180618501658808e-04, -5.994558724993678e-05, 2.363059619844610e+01, -9.585878328449563e+02, -2.568981436340554e+01, 9.835613395211275e+02
426, 2.000000000000377e-04, 7.699999999994609e-03, 7.176090769754583e-04, -6.677761059347299e-05, 5.427535108296915e+00, -1.273465227731858e+03, -1.170630615703229e+02, 1.300146814933526e+03
427, -1.999999999999367e-04, 7.600000000003967e-03, 7.076967683107912e-04, -1.127124883828642e-05, 4.255030765482790e+01, 1.475206476134740e+03, 2.643781963488090e+02, 1.527117225330832e+03
428, -1.499999999998669e-04, 7.600000000002791e-03, 7.072108865009095e-04, -1.808659328857493e-05, 5.016530884485478e+01, 1.106404554192077e+03, 2.638099693575052e+02, 1.180687995679342e+03
429, -9.999999999976803e-05, 7.600000000001615e-03, 7.067304142664738e-04, -2.490055435186352e-05, 5.478948542988921e+01, 7.397085800900437e+02, 2.491295005995965e+02, 8.469806364410601e+02
430, -4.999999999970180e-05, 7.600000000000435e-03, 7.062552912358978e-04, -3.171382877077680e-05, 5.614742291149852e+01, 3.756997079674992e+02, 2.204409231179029e+02, 5.445093802909222e+02
431, 3.333650629849805e-16, 7.599999999999259e-03, 7.057854436087206e-04, -3.852711188051893e-05, 5.395647727969983e+01, 1.495486614844438e+01, 1.778503969158049e+02, 3.578326150636232e+02
432, 5.000000000023146e-05, 7.599999999998081e-03, 7.053207841406240e-04, -4.534109754878362e-05, 4.793374412982553e+01, -3.419475288662259e+02, 1.214656090337065e+02, 4.593723802589121e+02
433, 1.000000000001632e-04, 7.599999999996904e-03, 7.048612121288150e-04, -5.215647812026745e-05, 3.779579672765392e+01, -6.944280155629390e+02, 5.139566970405244e+01, 7.394036588648190e+02
434, 1.500000000000929e-04, 7.599999999995727e-03, 7.044066134007610e-04, -5.897394436684898e-05, 2.325897525509737e+01, -1.041906005537715e+03, -3.224894142664084e+01, 1.067115932408428e+03
435, 2.000000000000358e-04, 7.599999999994550e-03, 7.039568603070297e-04, -6.579418543986836e-05, 4.040534617145127e+00, -1.383799265215476e+03, -1.293561461969655e+02, 1.411747626254485e+03
436, -1.999999999999386e-04, 7.500000000004145e-03, 6.940552596330934e-04, -1.039172101594083e-05, 4.516128640123162e+01, 1.589807411230049e+03, 2.824504600893133e+02, 1.644702009656261e+03
437, -1.499999999998712e-04, 7.500000000002950e-03, 6.935697119446224e-04, -1.719391542726940e-05, 5.277360260647717e+01, 1.191803321316929e+03, 2.800262691505121e+02, 1.269270477779670e+03
438, -9.999999999977570e-05, 7.500000000001755e-03, 6.930899951241552e-04, -2.399469601651489e-05, 5.725913978761095e+01, 7.960453596491320e+02, 2.629193748092593e+02, 9.068139110410928e+02
439, -4.999999999971198e-05, 7.500000000000564e-03, 6.926160454610327e-04, -3.079478820795458e-05, 5.833230448083710e+01, 4.031117001470578e+02, 2.312316190072634e+02, 5.768406003315346e+02
440, 3.205443722953394e-16, 7.499999999999370e-03, 6.921477857597227e-04, -3.759491606708982e-05, 5.571038828986489e+01, 1.358337780394466e+01, 1.850677913506622e+02, 3.725252133670012e+02
441, 5.000000000022125e-05, 7.499999999998177e-03, 6.916851253290510e-04, -4.439580223259687e-05, 4.910978183600899e+01, -3.719580483788438e+02, 1.245342618162234e+02, 4.892169734445962e+02
442, 1.000000000001556e-04, 7.499999999996980e-03, 6.912279599710948e-04, -5.119816785980236e-05, 3.824624887205445e+01, -7.529300736510016e+02, 4.973886684621981e+01, 7.974056639011858e+02
443, 1.500000000000885e-04, 7.499999999995787e-03, 6.907761719679970e-04, -5.800273256793480e-05, 2.283491328330560e+01, -1.128749230971710e+03, -3.920903059134685e+01, 1.154251027125040e+03
444, 2.000000000000339e-04, 7.499999999994593e-03, 6.903296300694223e-04, -6.481021438070089e-05, 2.589707221444925e+00, -1.498831604297885e+03, -1.421983131511972e+02, 1.528118907590835e+03
445, -1.999999999999404e-04, 7.400000000004559e-03, 6.804396642382834e-04, -9.519953259078558e-06, 4.790609081099123e+01, 1.709132305372134e+03, 3.010699541803455e+02, 1.766987550942498e+03
446, -1.499999999998756e-04, 7.400000000003323e-03, 6.799545299260425e-04, -1.630796633716677e-05, 5.547389325197976e+01, 1.280740981186093e+03, 2.966664697432705e+02, 1.361368213913591e+03
447, -9.999999999978329e-05, 7.400000000002085e-03, 6.794756642118547e-04, -2.309453664791403e-05, 5.978107195319426e+01, 8.547367253721169e+02, 2.770030989902717e+02, 9.689568402687311e+02
448, -4.999999999972218e-05, 7.400000000000849e-03, 6.790030001483419e-04, -2.988041846897881e-05, 6.053875369365652e+01, 4.316984835054483e+02, 2.421834330268237e+02, 6.102219317302472e+02
449, 3.077507866600104e-16, 7.399999999999613e-03, 6.785364572269051e-04, -3.666636473001059e-05, 5.746078953525119e+01, 1.220832162165304e+01, 1.923112307531597e+02, 3.872753848974285e+02
450, 5.000000000021107e-05, 7.399999999998373e-03, 6.780759413835536e-04, -4.345312695800731e-05, 5.026129951706065e+01, -4.031503187759333e+02, 1.274915952671809e+02, 5.201908525321783e+02
451, 1.000000000001480e-04, 7.399999999997137e-03, 6.776213449907317e-04, -5.024145523214371e-05, 3.865393598228400e+01, -8.137928503414730e+02, 4.783096500133659e+01, 8.577976033806211e+02
452, 1.500000000000842e-04, 7.399999999995899e-03, 6.771725468435995e-04, -5.703209813750526e-05, 2.235145541236251e+01, -1.219133645121962e+03, -4.656281939266614e+01, 1.244972947275522e+03
453, 2.000000000000320e-04, 7.399999999994663e-03, 6.767294121393356e-04, -6.382580271906664e-05, 1.065194698619251e+00, -1.618586104323453e+03, -1.555804098417348e+02, 1.649269955504549e+03
454, -1.999999999999424e-04, 7.300000000004963e-03, 6.668520533858719e-04, -8.656387729711691e-06, 5.069501673631677e+01, 1.833139105101038e+03, 3.202198634031967e+02, 1.894008968251785e+03
455, -1.499999999998800e-04, 7.300000000003675e-03, 6.663674158306784e-04, -1.542914734033124e-05, 5.821192240174153e+01, 1.373197195633385e+03, 3.137119516846500e+02, 1.456999321666029e+03
456, -9.999999999979085e-05, 7.300000000002383e-03, 6.658895012832730e-04, -2.220043672425358e-05, 6.232436807452004e+01, 9.157743542432572e+02, 2.913668984723706e+02, 1.033419351954013e+03
457, -4.999999999973237e-05, 7.300000000001096e-03, 6.654182395597691e-04, -2.897103916091745e-05, 6.274855106565930e+01, 4.614563425883740e+02, 2.532869997287820e+02, 6.446589175272088e+02
458, 2.949029909160572e-16, 7.299999999999806e-03, 6.649535468791448e-04, -3.574173655925723e-05, 5.919729418897958e+01, 1.082724925666025e+01, 1.995753242191540e+02, 4.020707666511909e+02
459, 5.000000000020089e-05, 7.299999999998517e-03, 6.644953258579498e-04, -4.251330944727446e-05, 5.138314863111674e+01, -4.355274845344166e+02, 1.303357443044265e+02, 5.522966500561233e+02
460, 1.000000000001404e-04, 7.299999999997227e-03, 6.640434654997982e-04, -4.928653694009002e-05, 3.901811296365402e+01, -8.770210639472400e+02, 4.567321543842538e+01, 9.205823939602188e+02
461, 1.500000000000799e-04, 7.299999999995936e-03, 6.635978411791265e-04, -5.606219670544852e-05, 2.181349823360237e+01, -1.313065181694198e+03, -5.430614231710633e+01, 1.339290005375703e+03
462, 2.000000000000302e-04, 7.299999999994650e-03, 6.631583146205890e-04, -6.284106493096795e-05, -5.203874776940864e-01, -1.743070011153564e+03, -1.694951010064202e+02, 1.775216479202923e+03
463, -1.999999999999443e-04, 7.200000000005343e-03, 6.532945811267462e-04, -7.801477452801522e-06, 5.351794820717089e+01, 1.961846409332033e+03, 3.398954456747253e+02, 2.025791986236707e+03
464, -1.499999999998843e-04, 7.200000000003976e-03, 6.528105279491228e-04, -1.455787012259131e-05, 6.096653139194004e+01, 1.469177088141557e+03, 3.311575866678845e+02, 1.556187122736806e+03
465, -9.999999999979844e-05, 7.200000000002606e-03, 6.523336689460730e-04, -2.131276677583602e-05, 6.487275718450690e+01, 9.791628625931614e+02, 3.060047099439320e+02, 1.100219035864972e+03
466, -4.999999999974257e-05, 7.200000000001237e-03, 6.518639307089973e-04, -2.806697969964971e-05, 6.495003010045124e+01, 4.923884887291127e+02, 2.645374689927257e+02, 6.801646314820812e+02
467, 2.821094052807283e-16, 7.199999999999870e-03, 6.514012262169868e-04, -3.482131985620392e-05, 6.091173466558624e+01, 9.440811793594321e+00, 2.068573347997561e+02, 4.169041661378884e+02
468, 5.000000000019069e-05, 7.199999999998501e-03, 6.509454548169181e-04, -4.157659685964157e-05, 5.246983846122674e+01, -4.690924406833368e+02, 1.330665836291275e+02, 5.855374230067468e+02
469, 1.000000000001328e-04, 7.199999999997132e-03, 6.504965022049767e-04, -4.833361895439154e-05, 3.933528182567616e+01, -9.426221943117723e+02, 4.326840276256117e+01, 9.857632087132896e+02
470, 1.500000000000756e-04, 7.199999999995762e-03, 6.500542404058838e-04, -5.509319298887786e-05, 2.121797144350367e+01, -1.410557913555420e+03, -6.243298020242115e+01, 1.437210385758562e+03
471, 2.000000000000282e-04, 7.199999999994395e-03, 6.496185277501599e-04, -6.185612438518696e-05, -2.172449421324245e+00, -1.872306841496343e+03, -1.839322667353968e+02, 1.905971395222784e+03
472, -1.999999999999461e-04, 7.100000000005715e-03, 6.397694836111648e-04, -6.955684861135391e-06, 5.642703789287239e+01, 2.095316476874833e+03, 3.600791117179815e+02, 2.162336239157689e+03
473, -1.499999999998886e-04, 7.100000000004259e-03, 6.392861070638926e-04, -1.369455597085343e-05, 6.377326259981461e+01, 1.568729328327176e+03, 3.489903735443714e+02, 1.658936371014916e+03
474, -9.999999999980600e-05, 7.100000000002804e-03, 6.388104124872929e-04, -2.043190688767273e-05, 6.744450106314736e+01, 1.044933878036265e+03, 3.209072176103871e+02, 1.169363609555666e+03
475, -4.999999999975274e-05, 7.100000000001348e-03, 6.383423233470283e-04, -2.716857896002846e-05, 6.715310396710046e+01, 5.245156420703530e+02, 2.759287791691033e+02, 7.167476933728187e+02
476, 2.692616095367750e-16, 7.099999999999895e-03, 6.378817494649711e-04, -3.390541225619724e-05, 6.261065092794868e+01, 8.062022546752246e+00, 2.141546265914892e+02, 4.317688840345382e+02
477, 5.000000000018050e-05, 7.099999999998441e-03, 6.374285870003572e-04, -4.064324554637225e-05, 5.352798784566568e+01, -5.038376569223457e+02, 1.356851001332291e+02, 6.199179361498735e+02
478, 1.000000000001252e-04, 7.099999999996985e-03, 6.369827184275175e-04, -4.738291628258170e-05, 3.961491081367046e+01, -1.010592444809899e+03, 4.062140602831529e+01, 1.053345092700734e+03
479, 1.500000000000712e-04, 7.099999999995530e-03, 6.365440125135662e-04, -5.412526057582060e-05, 2.058020891399900e+01, -1.511609672432967e+03, -7.093431215992601e+01, 1.538743818531349e+03
480, 2.000000000000263e-04, 7.099999999994075e-03, 6.361123242944304e-04, -6.087111317314082e-05, -3.868770655738984e+00, -2.006295325653557e+03, -1.988786816241657e+02, 2.041549173588209e+03
481, -1.999999999999481e-04, 7.000000000006086e-03, 6.262790820058116e-04, -6.119482141319458e-06, 5.934970258252048e+01, 2.233514102841547e+03, 3.807571387939073e+02, 2.303669862268416e+03
482, -1.499999999998929e-04, 7.000000000004546e-03, 6.257964782075506e-04, -1.283963577159817e-05, 6.658380476581604e+01, 1.671835614045007e+03, 3.671989490667868e+02, 1.765268717214784e+03
483, -9.999999999981362e-05, 7.000000000003004e-03, 6.253220609468370e-04, -1.955824662662109e-05, 7.000792724987221e+01, 1.113079217143001e+03, 3.360664695573049e+02, 1.240870824720349e+03
484, -4.999999999976293e-05, 7.000000000001462e-03, 6.248557506161570e-04, -2.627618515674340e-05, 6.933499796095282e+01, 5.578325559900650e+02, 2.874563757316255e+02, 7.544233135285864e+02
485, 2.564544713742900e-16, 6.999999999999921e-03, 6.243974539470632e-04, -3.299432058652850e-05, 6.427647185458540e+01, 6.685092835366675e+00, 2.214660982557803e+02, 4.466606067741939e+02
486, 5.000000000017032e-05, 6.999999999998381e-03, 6.239470639803369e-04, -3.971352090189077e-05, 5.454224065330965e+01, -5.397722253872724e+02, 1.381938360720439e+02, 6.554386545347551e+02
487, 1.000000000001176e-04, 6.999999999996837e-03, 6.235044600414525e-04, -4.643465282806644e-05, 3.984100809106178e+01, -1.080946700090575e+03, 3.773865763854249e+01, 1.123326271362191e+03
488, 1.500000000000668e-04, 6.999999999995296e-03, 6.230695077155642e-04, -5.315858180883135e-05, 1.988028074207986e+01, -1.616243875512340e+03, -7.979945235520341e+01, 1.643889918779235e+03
489, 2.000000000000244e-04, 6.999999999993755e-03, 6.226420588218605e-04, -5.988617198453731e-05, -5.634164365875506e+00, -2.145067812774427e+03, -2.143197612654582e+02, 2.181950543944169e+03
490, -1.999999999999499e-04, 6.900000000006458e-03, 6.128257799421915e-04, -5.293350781040371e-06, 6.231763631266443e+01, 2.376485572894944e+03, 4.019164327813816e+02, 2.449800096837358e+03
491, -1.499999999998973e-04, 6.900000000004828e-03, 6.123440492200145e-04, -1.199354963741551e-05, 6.941281181564332e+01, 1.778526074665067e+03, 3.857738368245620e+02, 1.875194378714158e+03
492, -9.999999999982122e-05, 6.900000000003202e-03, 6.118710263232398e-04, -1.869218469714975e-05, 7.256878085796478e+01, 1.183618394994533e+03, 3.514759599125459e+02, 1.314751933506393e+03
493, -4.999999999977310e-05, 6.900000000001573e-03, 6.114066286771061e-04, -2.539015553906809e-05, 7.149821311027586e+01, 5.923523411492986e+02, 2.991168925980878e+02, 7.932040622976124e+02
494, 2.436337806846489e-16, 6.899999999999946e-03, 6.109507600106018e-04, -3.208836059992226e-05, 6.591084675561564e+01, 5.318204983635923e+00, 2.287915719248962e+02, 4.615775143704113e+02
495, 5.000000000016015e-05, 6.899999999998319e-03, 6.105033103334927e-04, -3.878769713834588e-05, 5.551529221773475e+01, -5.768917670205154e+02, 1.405958572617452e+02, 6.921036547302953e+02
496, 1.000000000001100e-04, 6.899999999996692e-03, 6.100641559102749e-04, -4.548906121494386e-05, 4.001897699339611e+01, -1.153683346976288e+03, 3.462646222146279e+01, 1.195709498914566e+03
497, 1.500000000000625e-04, 6.899999999995065e-03, 6.096331592338301e-04, -5.219334767127521e-05, 1.912813391878336e+01, -1.724460340354039e+03, -8.901901197306279e+01, 1.752654645270331e+03
498, 2.000000000000225e-04, 6.899999999993437e-03, 6.092101689987695e-04, -5.890145011165422e-05, -7.451386768118951e+00, -2.288623971997036e+03, -2.302420465898049e+02, 2.327185846397194e+03
499, -1.999999999999519e-04, 6.800000000006828e-03, 5.994120651369538e-04, -4.477781116595522e-06, 6.530016160702655e+01, 2.524221587011871e+03, 4.235420649991710e+02, 2.600739529366607e+03
500, -1.499999999999017e-04, 6.800000000005111e-03, 5.989313116874468e-04, -1.115674650577404e-05, 7.223899459614989e+01, 1.888796569157638e+03, 4.047041699954323e+02, 1.988724033782336e+03
501, -9.999999999982880e-05, 6.800000000003401e-03, 5.984598041489880e-04, -1.783412853263122e-05, 7.511472826608531e+01, 1.256552285923135e+03, 3.671288089996290e+02, 1.391017236497304e+03
502, -4.999999999978328e-05, 6.800000000001686e-03, 5.979974570531866e-04, -2.451085599326141e-05, 7.363558467087847e+01, 6.280772668949078e+02, 3.109072213806865e+02, 8.331019026590013e+02
503, 2.308130899950078e-16, 6.799999999999972e-03, 5.975441712144512e-04, -3.118785658277751e-05, 6.751053674517891e+01, 3.963198154016112e+00, 2.361319387857737e+02, 4.765201300059982e+02
504, 5.000000000014997e-05, 6.799999999998255e-03, 5.970998337048174e-04, -3.786605688562903e-05, 5.644751779203327e+01, -6.151958850471440e+02, 1.428962217591248e+02, 7.299192978333435e+02
505, 1.000000000001024e-04, 6.799999999996542e-03, 5.966643178253776e-04, -4.454638235535172e-05, 4.015313716297862e+01, -1.228803841776531e+03, 3.129420761747330e+01, 1.270499556914880e+03
506, 1.500000000000582e-04, 6.799999999994830e-03, 5.962374830773083e-04, -5.122975729392341e-05, 1.833277891496263e+01, -1.836262385724344e+03, -9.857901101873811e+01, 1.865045444582311e+03
507, 2.000000000000206e-04, 6.799999999993115e-03, 5.958191751349350e-04, -5.791710482765631e-05, -9.309533928016435e+00, -2.436971372103311e+03, -2.466272178194839e+02, 2.477265011824566e+03
508, -1.999999999999538e-04, 6.700000000007203e-03, 5.860405084189371e-04, -3.673271849902394e-06, 6.832335380326117e+01, 2.676759191480722e+03, 4.456126967038242e+02, 2.756486934693276e+03
509, -1.499999999999060e-04, 6.700000000005407e-03, 5.855608405036077e-04, -1.032968358688660e-05, 7.508413405810592e+01, 2.002678382709529e+03, 4.239748500864235e+02, 2.105858086732642e+03
510, -9.999999999983645e-05, 6.700000000003612e-03, 5.850909732976190e-04, -1.698449384268886e-05, 7.765781450827953e+01, 1.331902544458319e+03, 3.830147375408416e+02, 1.469670370968051e+03
511, -4.999999999979346e-05, 6.700000000001816e-03, 5.846308185529165e-04, -2.363866064804098e-05, 7.575265012643447e+01, 6.650208817566563e+02, 3.228223175610731e+02, 8.741247300417818e+02
512, 2.179923993053667e-16, 6.700000000000018e-03, 5.841802742864612e-04, -3.029314100630256e-05, 6.907700694663220e+01, 2.626767956940370e+00, 2.434872580948187e+02, 4.914873484433945e+02
513, 5.000000000013978e-05, 6.699999999998221e-03, 5.837392247464101e-04, -3.694889088036908e-05, 5.733765720920221e+01, -6.546842175493601e+02, 1.451000215236371e+02, 7.688895987847264e+02
514, 1.000000000000948e-04, 6.699999999996424e-03, 5.833075403797838e-04, -4.360686517578479e-05, 4.023988791601747e+01, -1.306314273195776e+03, 2.775198190954463e+01, 1.347697591749394e+03
515, 1.500000000000538e-04, 6.699999999994629e-03, 5.828850778012404e-04, -5.026801771889472e-05, 1.748744330837965e+01, -1.951663495444672e+03, -1.084644654331424e+02, 1.981063749766477e+03
516, 2.000000000000187e-04, 6.699999999992831e-03, 5.824716797615826e-04, -5.693330123173128e-05, -1.121756891941533e+01, -2.590129924534209e+03, -2.634558399333895e+02, 2.632190125413184e+03
517, -1.999999999999557e-04, 6.600000000007607e-03, 5.727137658988672e-04, -2.880329826735791e-06, 7.137167179114181e+01, 2.834111058321640e+03, 4.681061287745728e+02, 2.917057131609215e+03
518, -1.499999999999103e-04, 6.600000000005753e-03, 5.722352952961782e-04, -9.512826265257057e-06, 7.793346992845528e+01, 2.120182845572516e+03, 4.435668296353509e+02, 2.226609225196371e+03
519, -9.999999999984406e-05, 6.600000000003900e-03, 5.717671969458949e-04, -1.614370444683081e-05, 8.018531452480551e+01, 1.409677022424181e+03, 3.991215511792529e+02, 1.550722493496542e+03
520, -4.999999999980367e-05, 6.600000000002050e-03, 5.713093799494553e-04, -2.277395167322852e-05, 7.783963514281064e+01, 7.031884176208144e+02, 3.348560578630862e+02, 9.162834810783984e+02
521, 2.051717086157256e-16, 6.600000000000198e-03, 5.708617396466372e-04, -2.940455430348270e-05, 7.060334435163392e+01, 1.311520120185293e+00, 2.508570195039266e+02, 5.064763902127085e+02
522, 5.000000000012958e-05, 6.599999999998345e-03, 5.704241575765656e-04, -3.603649773928960e-05, 5.818162230824535e+01, -6.953567884223138e+02, 1.472119770568526e+02, 8.090152045556907e+02
523, 1.000000000000872e-04, 6.599999999996491e-03, 5.699965014439670e-04, -4.267076640285534e-05, 4.027814061444434e+01, -1.386217205659617e+03, 2.400944004834541e+01, 1.427303326482249e+03
524, 1.500000000000495e-04, 6.599999999994639e-03, 5.695786250865974e-04, -4.930834371434434e-05, 1.659514378996448e+01, -2.070667968511173e+03, -1.186610759253591e+02, 2.100711570809301e+03
525, 2.000000000000168e-04, 6.599999999992787e-03, 5.691703684425666e-04, -5.595021207122369e-05, -1.316672734312547e+01, -2.748105022983869e+03, -2.807089858849149e+02, 2.791966622291256e+03
526, -1.999999999999576e-04, 6.500000000008018e-03, 5.594345786551944e-04, -2.099470405299250e-06, 7.438638532799069e+01, 2.996252551732526e+03, 4.910088773175606e+02, 3.082476401336779e+03
527, -1.499999999999147e-04, 6.500000000006126e-03, 5.589574202110761e-04, -8.706648170788334e-06, 8.073705338822128e+01, 2.241288026281218e+03, 4.634719799967905e+02, 2.351000980739365e+03
528, -9.999999999985163e-05, 6.500000000004228e-03, 5.584912224581613e-04, -1.531219219908398e-05, 8.266386759096878e+01, 1.489863328416026e+03, 4.154441908241059e+02, 1.634192713637017e+03
529, -4.999999999981387e-05, 6.500000000002332e-03, 5.580358919421520e-04, -2.191711908859091e-05, 7.987449311780111e+01, 7.425724357296888e+02, 3.470070508936807e+02, 9.595958194061431e+02
530, 1.923510179260846e-16, 6.500000000000438e-03, 5.575913214188302e-04, -2.852244460535313e-05, 7.207522502327132e+01, 1.188137316952975e-02, 2.582438895193578e+02, 5.214908929160486e+02
531, 5.000000000011942e-05, 6.499999999998543e-03, 5.571573898171655e-04, -3.512918364482946e-05, 5.897040136985697e+01, -7.372195550683289e+02, 1.492391098524381e+02, 8.502985913026275e+02
532, 1.000000000000796e-04, 6.499999999996646e-03, 5.567339622037450e-04, -4.173835020709034e-05, 4.026264965998956e+01, -1.468520608149457e+03, 2.007811215251428e+01, 1.509317541604987e+03
533, 1.500000000000451e-04, 6.499999999994751e-03, 5.563208897471083e-04, -4.835095737373553e-05, 1.565294621583942e+01, -2.193287499761168e+03, -1.291526501375708e+02, 2.223991799000916e+03
534, 2.000000000000149e-04, 6.499999999992855e-03, 5.559180096828384e-04, -5.496801728261916e-05, -1.515901244842448e+01, -2.910913637585298e+03, -2.983657042521650e+02, 2.956599942991470e+03
535, -1.999999999999595e-04, 6.400000000008258e-03, 5.462057699890753e-04, -1.331216060095951e-06, 7.742273232540632e+01, 3.163238611448391e+03, 5.143004099425475e+02, 3.252734124781157e+03
536, -1.499999999999190e-04, 6.400000000006336e-03, 5.457300422581587e-04, -7.911630144912432e-06, 8.353689942405717e+01, 2.366036463292783e+03, 4.836770047634119e+02, 2.479027639783096e+03
537, -9.999999999985919e-05, 6.400000000004416e-03, 5.452658804288428e-04, -1.449039615845514e-05, 8.511935278208628e+01, 1.572489714897884e+03, 4.319744180489392e+02, 1.720080865975596e+03
538, -4.999999999982406e-05, 6.400000000002495e-03, 5.448131886335946e-04, -2.106856008817588e-05, 8.187351327203410e+01, 7.831915207213436e+02, 3.592719169100486e+02, 1.004067820763893e+03
539, 1.795438797635995e-16, 6.400000000000575e-03, 5.443718571780217e-04, -2.764716716335139e-05, 7.350374750875056e+01, -1.260627472197029e+00, 2.656495383395886e+02, 5.365337087699505e+02
540, 5.000000000010922e-05, 6.399999999998654e-03, 5.439417625125412e-04, -3.422726182893768e-05, 5.971319590920075e+01, -7.802662550093290e+02, 1.511882944751047e+02, 8.927469291521302e+02
541, 1.000000000000720e-04, 6.399999999996736e-03, 5.435227671963304e-04, -4.080988772285431e-05, 4.020328105072767e+01, -1.553222209017878e+03, 1.597020329958269e+01, 1.593745582573986e+03
542, 1.500000000000408e-04, 6.399999999994814e-03, 5.431147198600320e-04, -4.739608765306262e-05, 1.467365408690108e+01, -2.319522670960393e+03, -1.399216598150626e+02, 2.350911475876091e+03
543, 2.000000000000129e-04, 6.399999999992895e-03, 5.427174551676497e-04, -5.398690357498321e-05, -1.717772595329546e+01, -3.078559151567505e+03, -3.164029302341137e+02, 3.126099724918995e+03
544, -1.999999999999615e-04, 6.300000000008254e-03, 5.330302487568348e-04, -5.760959392163436e-07, 8.046866046866623e+01, 3.335075500636154e+03, 5.379512572398653e+02, 3.427831953980359e+03
545, -1.499999999999234e-04, 6.300000000006307e-03, 5.325560734870878e-04, -7.128259671195620e-06, 8.633106284763224e+01, 2.494439840733099e+03, 5.041581623571778e+02, 2.610687590810992e+03
546, -9.999999999986685e-05, 6.300000000004357e-03, 5.320940861085702e-04, -1.367876205727235e-05, 8.755187730436776e+01, 1.657566915142329e+03, 4.486962902267489e+02, 1.808386203909531e+03
547, -4.999999999983422e-05, 6.300000000002410e-03, 5.316441884669038e-04, -2.022867854400475e-05, 8.383647038874190e+01, 8.250531038529007e+02, 3.716421364885232e+02, 1.049701675800776e+03
548, 1.667096365468024e-16, 6.300000000000461e-03, 5.312062685601987e-04, -2.677908388371648e-05, 7.488828716814243e+01, -2.502423820371519e+00, 2.730724385409821e+02, 5.516008964008139e+02
549, 5.000000000009904e-05, 6.299999999998514e-03, 5.307802005020476e-04, -3.333105213034403e-05, 6.040902479154107e+01, -8.244976592698479e+02, 1.530647141786502e+02, 9.363626788819010e+02
550, 1.000000000000644e-04, 6.299999999996569e-03, 5.303658444840634e-04, -3.988565662148036e-05, 4.009859642955993e+01, -1.640327751141469e+03, 1.169744374688345e+01, 1.680589191436073e+03
551, 1.500000000000364e-04, 6.299999999994618e-03, 5.299630467369037e-04, -4.644396995842980e-05, 1.365508848006573e+01, -2.449384988129826e+03, -1.509498383370726e+02, 2.481473319171982e+03
552, 2.000000000000111e-04, 6.299999999992672e-03, 5.295716394902790e-04, -5.300706398389036e-05, -1.922576175384003e+01, -3.251059128672585e+03, -3.347965391652370e+02, 3.300469936551071e+03
553, -1.999999999999633e-04, 6.200000000008235e-03, 5.199110098403411e-04, 1.653539305481358e-07, 8.350852383281094e+01, 3.511776908058232e+03, 5.619343002016431e+02, 3.607783910553960e+03
554, -1.499999999999277e-04, 6.200000000006244e-03, 5.194385115066793e-04, -6.357030928051803e-06, 8.910070054638723e+01, 2.626505119057332e+03, 5.248936572637301e+02, 2.745992459716823e+03
555, -9.999999999987445e-05, 6.200000000004252e-03, 5.189788398794592e-04, -1.287774220044970e-05, 8.994656905347117e+01, 1.745099935027383e+03, 4.655945715432517e+02, 1.899117133063927e+03
556, -4.999999999984441e-05, 6.200000000002263e-03, 5.185318946536790e-04, -1.939788480271635e-05, 8.575269312970636e+01, 8.681605702671027e+02, 3.841092995572840e+02, 1.096504401373837e+03
557, 1.538618408028491e-16, 6.200000000000271e-03, 5.180975616560694e-04, -2.591856306154004e-05, 7.622154323205100e+01, -3.712295611353710e+00, 2.805108798704780e+02, 5.666875977953658e+02
558, 5.000000000008886e-05, 6.199999999998280e-03, 5.176757128022437e-04, -3.244088069730470e-05, 6.105335675272070e+01, -8.699152759058088e+02, 1.548731952020790e+02, 9.811449543072100e+02
559, 1.000000000000568e-04, 6.199999999996288e-03, 5.172662060566416e-04, -3.896594080872449e-05, 3.994644052963832e+01, -1.729841995834420e+03, 7.271031291617106e+00, 1.769848180232450e+03
560, 1.500000000000321e-04, 6.199999999994299e-03, 5.168688853915547e-04, -4.549484585572660e-05, 1.259714113171486e+01, -2.582883048479379e+03, -1.622198473894667e+02, 2.615679363035899e+03
561, 2.000000000000091e-04, 6.199999999992307e-03, 5.164835807441455e-04, -5.202869764268715e-05, -2.129980465229423e+01, -3.428425614816372e+03, -3.535226553810735e+02, 3.479715413328648e+03
562, -1.999999999999653e-04, 6.100000000008216e-03, 5.068511336176912e-04, 8.925909789740736e-07, 8.651161623274442e+01, 3.693339283419091e+03, 5.862271771189216e+02, 3.792605309487422e+03
563, -1.499999999999321e-04, 6.100000000006179e-03, 5.063804391522270e-04, -5.598444530347527e-06, 9.181981597731760e+01, 2.762229602567219e+03, 5.458672448764772e+02, 2.884956260401754e+03
564, -9.999999999988203e-05, 6.100000000004146e-03, 5.059232271022049e-04, -1.208779515953201e-05, 9.228489707246257e+01, 1.835088418953920e+03, 4.826582091760886e+02, 1.992285095919429e+03
565, -4.999999999985460e-05, 6.100000000002112e-03, 5.054793951436758e-04, -1.857659533304502e-05, 8.761010335842917e+01, 9.125147801784391e+02, 3.966678456505443e+02, 1.144486454673755e+03
566, 1.410275975860520e-16, 6.100000000000079e-03, 5.050488270623332e-04, -2.506597899039109e-05, 7.749684381914579e+01, -4.889380487471072e+00, 2.879652681504783e+02, 5.817933246432170e+02
567, 5.000000000007866e-05, 6.099999999998046e-03, 5.046313927137316e-04, -3.155707956480139e-05, 6.164449089912495e+01, -9.165190352500640e+02, 1.566204373640287e+02, 1.027094800633814e+03
568, 1.000000000000492e-04, 6.099999999996011e-03, 5.042269479807889e-04, -3.805102996854047e-05, 3.975033792978658e+01, -1.821765983656576e+03, 2.704171460810429e+00, 1.861524178114692e+03
569, 1.500000000000277e-04, 6.099999999993980e-03, 5.038353347295902e-04, -4.454896257910398e-05, 1.150962498983844e+01, -2.720018761389251e+03, -1.737117784685112e+02, 2.753534175111964e+03
570, 2.000000000000072e-04, 6.099999999991945e-03, 5.034563807644859e-04, -5.105200922397235e-05, -2.338448534765422e+01, -3.610662666335769e+03, -3.725545815725336e+02, 3.663843939470694e+03
571, -1.999999999999672e-04, 6.000000000008407e-03, 4.938537848135338e-04, 1.605067113694744e-06, 8.950020999002356e+01, 3.879794065033941e+03, 6.108018731191380e+02, 3.982291202361660e+03
572, -1.499999999999365e-04, 6.000000000006308e-03, 4.933850237961585e-04, -4.853006618661977e-06, 9.450579951313648e+01, 2.901638996713000e+03, 5.670587756310711e+02, 3.027576490677381e+03
573, -9.999999999988962e-05, 6.000000000004209e-03, 4.929304177245928e-04, -1.130938502194892e-05, 9.457692487021484e+01, 1.927550963146993e+03, 4.998735318995112e+02, 2.087890805710741e+03
574, -4.999999999986476e-05, 6.000000000002106e-03, 4.924898624092070e-04, -1.776523208152235e-05, 8.941368462688462e+01, 9.581280428229193e+02, 4.093107518952895e+02, 1.193652295521731e+03
575, 1.282204594235670e-16, 6.000000000000007e-03, 4.920632397526638e-04, -2.422171138595980e-05, 7.871624291512848e+01, -6.026918569535553e+00, 2.954354679931656e+02, 5.969169677700399e+02
576, 5.000000000006848e-05, 5.999999999997906e-03, 4.916504177107688e-04, -3.067998611916890e-05, 6.218293659984977e+01, -9.643074762529047e+02, 1.583134146479096e+02, 1.074213720219837e+03
577, 1.000000000000416e-04, 5.999999999995806e-03, 4.912512502466451e-04, -3.714121905181289e-05, 3.950990982985036e+01, -1.916103764447692e+03, -1.988860773799928e+00, 1.955617719619563e+03
578, 1.500000000000234e-04, 5.999999999993707e-03, 4.908655772830888e-04, -4.360657253024467e-05, 1.039100737587563e+01, -2.860802549445195e+03, -1.854038904113939e+02, 2.895039006826947e+03
579, 2.000000000000053e-04, 5.999999999991606e-03, 4.904932246538840e-04, -5.007720846318636e-05, -2.548241650727041e+01, -3.797787332752584e+03, -3.918632095724603e+02, 3.852857573437446e+03
580, -1.999999999999690e-04, 5.900000000008779e-03, 4.809222143557281e-04, 2.302229341019271e-06, 9.247399412096206e+01, 4.071159466517629e+03, 6.356230055560126e+02, 4.176841451267755e+03
581, -1.499999999999408e-04, 5.900000000006594e-03, 4.804555186296444e-04, -4.121228245809860e-06, 9.716089749934650e+01, 3.044752013998122e+03, 5.884399691119692e+02, 3.173852513753039e+03
582, -9.999999999989724e-05, 5.900000000004408e-03, 4.800036671635474e-04, -1.054298081595811e-05, 9.682322617196627e+01, 2.022502516556717e+03, 5.172211952530711e+02, 2.185934991872536e+03
583, -4.999999999987495e-05, 5.900000000002220e-03, 4.795665540691735e-04, -1.696422194075804e-05, 9.116281059623731e+01, 1.005011155769516e+03, 4.220273956892482e+02, 1.244004537300784e+03
584, 1.153862162067698e-16, 5.900000000000033e-03, 4.791440595452147e-04, -2.338614488677584e-05, 7.987902205418214e+01, -7.118101452997223e+00, 3.029192523747372e+02, 6.120529334425270e+02
585, 5.000000000005830e-05, 5.899999999997847e-03, 4.787360498263500e-04, -2.980994262668610e-05, 6.266893013652754e+01, -1.013277534593062e+03, 1.599580105852687e+02, 1.122500358826530e+03
586, 1.000000000000340e-04, 5.899999999995659e-03, 4.783423771326068e-04, -3.623680783466236e-05, 3.922724206496457e+01, -2.012855789774477e+03, -6.794285909004572e+00, 2.052128022041366e+03
587, 1.500000000000191e-04, 5.899999999993472e-03, 4.779628796188543e-04, -4.266793287720225e-05, 9.246291375896249e+00, -3.005237908942235e+03, -1.972746875929051e+02, 3.040194764061532e+03
588, 2.000000000000034e-04, 5.899999999991286e-03, 4.775973813240445e-04, -4.910450980290976e-05, -2.758391685444036e+01, -3.989805282357806e+03, -4.114192789884453e+02, 4.046759375320560e+03
589, -1.999999999999710e-04, 5.800000000009150e-03, 4.680597602708904e-04, 2.983519736367326e-06, 9.540041192052973e+01, 4.267436465728795e+03, 6.606575396437673e+02, 4.376272200518229e+03
590, -1.499999999999452e-04, 5.800000000006880e-03, 4.675952633156179e-04, -3.403625274152046e-06, 9.975533096524970e+01, 3.191569183846835e+03, 6.099850729154518e+02, 3.323799039892326e+03
591, -9.999999999990477e-05, 5.800000000004606e-03, 4.671463167663355e-04, -9.789056283091651e-06, 9.900111084570727e+01, 2.119944815480917e+03, 5.346837733180320e+02, 2.286429619975896e+03
592, -4.999999999988512e-05, 5.800000000002332e-03, 4.667128132147602e-04, -1.617399642158747e-05, 9.284102665428605e+01, 1.053165832349907e+03, 4.348088219408824e+02, 1.295553387161179e+03
593, 1.025655255171287e-16, 5.800000000000059e-03, 4.662946313333990e-04, -2.255966865600061e-05, 8.097391072859028e+01, -8.162312554531240e+00, 3.104159822265926e+02, 6.271982098092910e+02
594, 5.000000000004811e-05, 5.799999999997786e-03, 4.658916358132399e-04, -2.894729578475968e-05, 6.309559601126108e+01, -1.063430555052553e+03, 1.615617546820284e+02, 1.171951351948704e+03
595, 1.000000000000264e-04, 5.799999999995513e-03, 4.655036773086277e-04, -3.533810043086177e-05, 3.889935050443904e+01, -2.112026034965546e+03, -1.169651628483736e+01, 2.151052590670905e+03
596, 1.500000000000147e-04, 5.799999999993240e-03, 4.651305923842133e-04, -4.173330503180963e-05, 8.076011352734383e+00, -3.153332062912792e+03, -2.093005554348969e+02, 3.189001082165494e+03
597, 2.000000000000015e-04, 5.799999999990969e-03, 4.647722034630685e-04, -4.813413182833443e-05, -2.968591627019254e+01, -4.186728102605865e+03, -4.311910976521229e+02, 4.245550940661558e+03
598, -1.999999999999729e-04, 5.700000000009518e-03, 4.552698465233373e-04, 3.648375937212166e-06, 9.825526289989926e+01, 4.468629177078694e+03, 6.858771578633548e+02, 4.580598001620458e+03
599, -1.499999999999495e-04, 5.700000000007160e-03, 4.548076832051407e-04, -2.700717957443338e-06, 1.022654108545057e+02, 3.342092622183743e+03, 6.316742781207531e+02, 3.477431513894541e+03
600, -9.999999999991239e-05, 5.700000000004800e-03, 4.543617933079254e-04, -9.048089425564920e-06, 1.010914202765384e+02, 2.219879745542848e+03, 5.522488001153300e+02, 2.389388816454973e+03
601, -4.999999999989533e-05, 5.700000000002444e-03, 4.539320680973689e-04, -1.539499116507949e-05, 9.443425364869984e+01, 1.102593647585609e+03, 4.476499001246953e+02, 1.348312684769314e+03
602, 8.974483482748763e-17, 5.700000000000083e-03, 4.535183848986671e-04, -2.174267586608316e-05, 8.199146079156691e+01, -9.159033493309721e+00, 3.179280886366619e+02, 6.423562024181148e+02
603, 5.000000000003792e-05, 5.699999999997726e-03, 4.531206070371237e-04, -2.809239618799496e-05, 6.345773486600427e+01, -1.114767753085244e+03, 1.631348365793545e+02, 1.222565826481768e+03
604, 1.000000000000188e-04, 5.699999999995369e-03, 4.527385837812391e-04, -3.444540474555901e-05, 3.852508649901773e+01, -2.213617995767760e+03, -1.667746104762341e+01, 2.252390066979981e+03
605, 1.500000000000104e-04, 5.699999999993010e-03, 4.523721502871954e-04, -4.080295409623971e-05, 6.882946438357351e+00, -3.305091250242748e+03, -2.214554306214719e+02, 3.341458231145261e+03
606, 1.999999999999996e-04, 5.699999999990651e-03, 4.520211275443542e-04, -4.716629672687766e-05, -3.178173136574753e+01, -4.388564998747856e+03, -4.511446267156054e+02, 4.449234353885865e+03
607, -1.999999999999748e-04, 5.600000000009672e-03, 4.425559821782265e-04, 4.296232172506398e-06, 1.010384067601484e+02, 4.674751308211814e+03, 7.112510813767581e+02, 4.789818588208101e+03
608, -1.499999999999538e-04, 5.600000000007281e-03, 4.420962887508904e-04, -2.013029971552649e-06, 1.046920985491445e+02, 3.496334893556582e+03, 6.534863958277821e+02, 3.634751535807338e+03
609, -9.999999999991998e-05, 5.600000000004890e-03, 4.416536086078371e-04, -8.320561640045217e-06, 1.030940975488771e+02, 2.322317411185400e+03, 5.699031004471158e+02, 2.494816684925931e+03
610, -4.999999999990553e-05, 5.600000000002499e-03, 4.412278318867019e-04, -1.462764515672600e-05, 9.594177474558558e+01, 1.153301786998597e+03, 4.605453269034782e+02, 1.402290336571645e+03
611, 7.692414413784654e-17, 5.600000000000110e-03, 4.408188347590777e-04, -2.093556297218964e-05, 8.293118342503152e+01, -1.010413514698854e+01, 3.254583037822063e+02, 6.575317486669071e+02
612, 5.000000000002774e-05, 5.599999999997718e-03, 4.404264793772525e-04, -2.724559764340365e-05, 6.375584219970568e+01, -1.167288252500367e+03, 1.646882152029884e+02, 1.274346262207766e+03
613, 1.000000000000112e-04, 5.599999999995330e-03, 4.400506138169645e-04, -3.355903181887050e-05, 3.810652429806220e+01, -2.317634299526310e+03, -2.171779607817145e+01, 2.356141226603088e+03
614, 1.500000000000060e-04, 5.599999999992939e-03, 4.396910720192606e-04, -3.987714822518564e-05, 5.671231910959193e+00, -3.460521862277195e+03, -2.337115669884150e+02, 3.497567576527204e+03
615, 1.999999999999977e-04, 5.599999999990549e-03, 4.393476737323531e-04, -4.620122965264364e-05, -3.386481201573673e+01, -4.595326403496948e+03, -4.712438133497292e+02, 4.657812230762407e+03
616, -1.999999999999767e-04, 5.500000000009695e-03, 4.299217621165456e-04, 4.926520228962030e-06, 1.037683988324923e+02, 4.885831637293640e+03, 7.367395657901279e+02, 5.003925415895406e+03
617, -1.499999999999582e-04, 5.500000000007305e-03, 4.294646760701555e-04, -1.341087452945170e-06, 1.070511767834806e+02, 3.654320107652251e+03, 6.753915684794048e+02, 3.795751829479787e+03
618, -9.999999999992762e-05, 5.500000000004914e-03, 4.290253599563462e-04, -7.606956831564251e-06, 1.050195189908147e+02, 2.427275672480176e+03, 5.876270139626245e+02, 2.602709294672327e+03
619, -4.999999999991570e-05, 5.500000000002524e-03, 4.286037029943828e-04, -1.387239991608321e-05, 9.737006474101298e+01, 1.205302602514998e+03, 4.734853899371927e+02, 1.457486935171017e+03
620, 6.410345344820545e-17, 5.500000000000133e-03, 4.281995804179776e-04, -2.013872896192856e-05, 8.379742372458929e+01, -1.099009210889136e+01, 3.330066099174048e+02, 6.727245217417102e+02
621, 5.000000000001756e-05, 5.499999999997745e-03, 4.278128534208179e-04, -2.640725646561492e-05, 6.399363661916527e+01, -1.220988920819378e+03, 1.662313850370427e+02, 1.327294867919948e+03
622, 1.000000000000036e-04, 5.499999999995354e-03, 4.274433690980012e-04, -3.267929515502104e-05, 3.764795320877431e+01, -2.424075993866106e+03, -2.679865108082778e+01, 2.462307345235548e+03
623, 1.500000000000017e-04, 5.499999999992964e-03, 4.270909603857148e-04, -3.895615797800954e-05, 4.446733393607190e+00, -3.619629056261041e+03, -2.460408486745302e+02, 3.657330956589367e+03
624, 1.999999999999958e-04, 5.499999999990576e-03, 4.267554459998129e-04, -4.523915808977739e-05, -3.592661299595665e+01, -4.807021496329235e+03, -4.914514440831331e+02, 4.871287763347036e+03
625, -1.999999999999786e-04, 5.400000000009719e-03, 4.173708687750929e-04, 5.538669749393232e-06, 1.064245451417214e+02, 5.101875317430916e+03, 7.623002249860720e+02, 5.222923984744558e+03
626, -1.499999999999625e-04, 5.400000000007331e-03, 4.169165281954841e-04, -6.854185887988293e-07, 1.093265577941418e+02, 3.816053875111426e+03, 6.973566087468735e+02, 3.960435880556325e+03
627, -9.999999999993521e-05, 5.400000000004939e-03, 4.164807310056433e-04, -6.907760912408591e-06, 1.068563495933276e+02, 2.534760189461997e+03, 6.053979891554224e+02, 2.713069102832205e+03
628, -4.999999999992589e-05, 5.400000000002551e-03, 4.160633657128113e-04, -1.312969893787573e-05, 9.871138153310392e+01, 1.258600677202716e+03, 4.864582105486899e+02, 1.513905393559942e+03
629, 5.128276275856436e-17, 5.400000000000158e-03, 4.156643068289638e-04, -1.935257476201324e-05, 8.458535365571254e+01, -1.181426159664613e+01, 3.405715931594926e+02, 6.879309021185068e+02
630, 5.000000000000737e-05, 5.399999999997771e-03, 4.152834148082543e-04, -2.557773086346211e-05, 6.416894083923347e+01, -1.275869702234314e+03, 1.677731700244757e+02, 1.381410478912999e+03
631, 9.999999999999598e-05, 5.399999999995381e-03, 4.149205359847636e-04, -3.180651009714700e-05, 3.714985577028045e+01, -2.532946120947384e+03, -3.190115235732576e+01, 2.570887796779008e+03
632, 1.499999999999973e-04, 5.399999999992991e-03, 4.145755025094383e-04, -3.804025568573545e-05, 3.212824254577697e+00, -3.782419381571191e+03, -2.584144852920472e+02, 3.820749060409528e+03
633, 1.999999999999938e-04, 5.399999999990601e-03, 4.142481322861993e-04, -4.428031120985579e-05, -3.796049691015719e+01, -5.023660767843428e+03, -5.117288728352549e+02, 5.089663343361431e+03
634, -1.999999999999805e-04, 5.300000000009745e-03, 4.049070718287335e-04, 6.132108620704276e-06, 1.089871685368142e+02, 5.322890762153449e+03, 7.878929695874117e+02, 5.446824029618501e+03
635, -1.499999999999669e-04, 5.300000000007331e-03, 4.044556149683472e-04, -4.655321702074391e-08, 1.114988062122102e+02, 3.981541878725067e+03, 7.193511780608693e+02, 4.128813128807720e+03
636, -9.999999999994280e-05, 5.300000000004915e-03, 4.040234917860641e-04, -6.223461336910360e-06, 1.085890722294289e+02, 2.644775829472263e+03, 6.231954240298211e+02, 2.825903999385109e+03
637, -4.999999999993605e-05, 5.300000000002501e-03, 4.036105902954629e-04, -1.239998716415626e-05, 9.995431136447479e+01, 1.313199725514984e+03, 4.994532267730955e+02, 1.571552906488824e+03
638, 3.846207206892327e-17, 5.300000000000087e-03, 4.032167845058353e-04, -1.857750266242415e-05, 8.528732128879437e+01, -1.257472512627612e+01, 3.481528691670787e+02, 7.031491032246444e+02
639, 4.999999999999720e-05, 5.299999999997673e-03, 4.028419343540885e-04, -2.475738032964273e-05, 6.427759377692973e+01, -1.331931091207232e+03, 1.693233963999122e+02, 1.436690760845496e+03
640, 9.999999999998842e-05, 5.299999999995259e-03, 4.024858856379494e-04, -3.094099319305682e-05, 3.661143250511952e+01, -2.644248146179735e+03, -3.700528221956748e+01, 2.681880989953681e+03
641, 1.499999999999930e-04, 5.299999999992844e-03, 4.021484699493930e-04, -3.712971480208463e-05, 1.971993460103249e+00, -3.948899842727562e+03, -2.708022870848187e+02, 3.987821934432675e+03
642, 1.999999999999920e-04, 5.299999999990430e-03, 4.018295046081433e-04, -4.332491921949857e-05, -3.996064109247067e+01, -5.245255252499559e+03, -5.320356944082891e+02, 5.312940796963740e+03
643, -1.999999999999824e-04, 5.200000000009989e-03, 3.925342277085003e-04, 6.706263855570486e-06, 1.114478825946821e+02, 5.548891954281533e+03, 8.134765990823853e+02, 5.675629898235179e+03
644, -1.499999999999712e-04, 5.200000000007502e-03, 3.920857927326879e-04, 5.749779600397471e-07, 1.135600123049655e+02, 4.150796548797874e+03, 7.413449431429290e+02, 4.300889227879234e+03
645, -9.999999999995044e-05, 5.200000000005017e-03, 3.916574985386874e-04, -5.554546364603325e-06, 1.102100164724651e+02, 2.757332324559178e+03, 6.409992176169842e+02, 2.941220240293587e+03
646, -4.999999999994625e-05, 5.200000000002529e-03, 3.912492328837957e-04, -1.168371026934026e-05, 1.010924635997239e+02, 1.369106751899696e+03, 5.124605904916585e+02, 1.630436647822025e+03
647, 2.564138137928218e-17, 5.200000000000042e-03, 3.908608695089790e-04, -1.781391560777166e-05, 8.589899330775677e+01, -1.326729572856715e+01, 3.557509719859465e+02, 7.183794047416857e+02
648, 4.999999999998700e-05, 5.199999999997556e-03, 3.904922680685422e-04, -2.394656493076629e-05, 6.431790798602026e+01, -1.389171870004939e+03, 1.708930735199412e+02, 1.493134389474898e+03
649, 9.999999999998081e-05, 5.199999999995069e-03, 3.901432740596168e-04, -3.008306148057189e-05, 3.603413421875041e+01, -2.757984019477190e+03, -4.208950536478396e+01, 2.795285951209621e+03
650, 1.499999999999887e-04, 5.199999999992581e-03, 3.898137187522073e-04, -3.622480918346909e-05, 7.292769726615234e-01, -4.119075767569246e+03, -2.831721819059899e+02, 4.158550173252036e+03
651, 1.999999999999900e-04, 5.199999999990096e-03, 3.895034191196653e-04, -4.237321264101728e-05, -4.191829476691396e+01, -5.471814074734155e+03, -5.523292750412863e+02, 5.541122512052642e+03
652, -1.999999999999843e-04, 5.100000000010360e-03, 3.802562798633437e-04, 7.260562487386929e-06, 1.138011239081713e+02, 5.779894108800399e+03, 8.390064457250476e+02, 5.909343193394476e+03
653, -1.499999999999755e-04, 5.100000000007788e-03, 3.798110045163813e-04, 1.178644260772749e-06, 1.155056053486904e+02, 4.323831898370643e+03, 7.633046216773616e+02, 4.476666837105032e+03
654, -9.999999999995803e-05, 5.100000000005215e-03, 3.793866938470385e-04, -4.901504219419064e-06, 1.117144236178360e+02, 2.872440848699272e+03, 6.587874761550167e+02, 3.059021763423352e+03
655, -4.999999999995644e-05, 5.100000000002642e-03, 3.789832356079032e-04, -1.098131385331911e-05, 1.021214780498957e+02, 1.426329742481397e+03, 5.254696487831355e+02, 1.690562313183923e+03
656, 1.282069068964109e-17, 5.100000000000066e-03, 3.786005035224285e-04, -1.706221641244465e-05, 8.641726078395629e+01, -1.388722024894707e+01, 3.633664147517303e+02, 7.336222422973461e+02
657, 4.999999999997683e-05, 5.099999999997495e-03, 3.782383572111690e-04, -2.314564453574945e-05, 6.428870955054350e+01, -1.447590646713037e+03, 1.724938655229824e+02, 1.550740378808852e+03
658, 9.999999999997324e-05, 5.099999999994921e-03, 3.778966421190366e-04, -2.923303172292159e-05, 3.541927682187196e+01, -2.874155909650579e+03, -4.713100022330136e+01, 2.911101697032309e+03
659, 1.499999999999843e-04, 5.099999999992348e-03, 3.775751894426217e-04, -3.532581232710812e-05, -5.110559089965250e-01, -4.292953136048205e+03, -2.954901871892303e+02, 4.332933972985317e+03
660, 1.999999999999881e-04, 5.099999999989774e-03, 3.772738160574608e-04, -4.142542154606131e-05, -4.382580746195566e+01, -5.703347226330437e+03, -5.725646000560453e+02, 5.774210212278426e+03
661, -1.999999999999862e-04, 5.000000000010596e-03, 3.680772592557829e-04, 7.794432293936123e-06, 1.160358937426318e+02, 6.015910421955616e+03, 8.644353855996743e+02, 6.147968249118063e+03
662, -1.499999999999799e-04, 5.000000000007969e-03, 3.676352803998421e-04, 1.763915782052660e-06, 1.173249172487337e+02, 4.500658459532348e+03, 7.851949339552348e+02, 4.656150478683488e+03
663, -9.999999999996564e-05, 5.000000000005344e-03, 3.672151069085993e-04, -4.264822310364062e-06, 1.130932333008143e+02, 2.990109711509172e+03, 6.765369213070783e+02, 3.179313233931041e+03
664, -4.999999999996662e-05, 5.000000000002718e-03, 3.668166267910735e-04, -1.029324265581496e-05, 1.030343141980482e+02, 1.484874768218734e+03, 5.384689749989806e+02, 1.751935611977194e+03
665, 0.000000000000000e+00, 5.000000000000093e-03, 3.664397140107976e-04, -1.632280697691523e-05, 8.683720675742387e+01, -1.443105745948657e+01, 3.709995076449028e+02, 7.488776936379847e+02
666, 4.999999999996663e-05, 4.999999999997467e-03, 3.660842284119603e-04, -2.235497803785993e-05, 6.418736897117674e+01, -1.507187034867413e+03, 1.741377635923450e+02, 1.609507179193326e+03
667, 9.999999999996559e-05, 4.999999999994841e-03, 3.657500156449402e-04, -2.839121963879803e-05, 3.476670271275361e+01, -2.992766929933562e+03, -5.210612571560262e+01, 3.029326672736527e+03
668, 1.499999999999799e-04, 4.999999999992216e-03, 3.654369070910111e-04, -3.443299660967913e-05, -1.746481581979936e+00, -4.470539000408115e+03, -3.077210525931742e+02, 4.510972795434776e+03
669, 1.999999999999863e-04, 4.999999999989590e-03, 3.651447197863574e-04, -4.048177480343488e-05, -4.567753277553078e+01, -5.939866024571649e+03, -5.926948348498495e+02, 6.012204807377454e+03
670, -1.999999999999881e-04, 4.900000000010410e-03, 3.560012844735764e-04, 8.307302509494808e-06, 1.181312070633720e+02, 6.256944544955796e+03, 8.897167203500887e+02, 6.391510976863608e+03
671, -1.499999999999843e-04, 4.900000000007836e-03, 3.555627376341934e-04, 2.330264150998215e-06, 1.190007352628639e+02, 4.681279853882865e+03, 8.069810181076375e+02, 4.839345432033164e+03
672, -9.999999999997321e-05, 4.900000000005265e-03, 3.551468536623874e-04, -3.644986442274849e-06, 1.143341011636964e+02, 3.110343398659439e+03, 6.942243304704507e+02, 3.302099543434377e+03
673, -4.999999999997681e-05, 4.900000000002690e-03, 3.547535210779797e-04, -9.619939749851625e-06, 1.038223754772836e+02, 1.544745882765155e+03, 5.514471103974716e+02, 1.814562265704230e+03
674, -1.282069068964109e-17, 4.900000000000120e-03, 3.543826143441128e-04, -1.559608747480771e-05, 8.715343533358828e+01, -1.489622450550701e+01, 3.786507119173816e+02, 7.641463077287193e+02
675, 4.999999999995644e-05, 4.899999999997547e-03, 3.540339937927398e-04, -2.157492254092609e-05, 6.401157531730405e+01, -1.567960678515695e+03, 1.758372353877532e+02, 1.669433547846692e+03
676, 9.999999999995801e-05, 4.899999999994974e-03, 3.537075055468756e-04, -2.755793908994910e-05, 3.407734589482504e+01, -3.113819509259746e+03, -5.699037283480496e+01, 3.149959717373453e+03
677, 1.499999999999756e-04, 4.899999999992402e-03, 3.534029814416555e-04, -3.354663247757352e-05, -2.972469990267314e+00, -4.651838999074728e+03, -3.198282114953946e+02, 4.692666656040590e+03
678, 1.999999999999843e-04, 4.899999999989829e-03, 3.531202389449876e-04, -3.954249926773698e-05, -4.746481415569298e+01, -6.181379623228595e+03, -6.126713350842826e+02, 6.255107956246613e+03
679, -1.999999999999901e-04, 4.800000000010084e-03, 3.440325613749537e-04, 8.798604891352129e-06, 1.200920543648758e+02, 6.503017593844065e+03, 9.147995313348541e+02, 6.639967708705937e+03
680, -1.499999999999886e-04, 4.800000000007600e-03, 3.435975805088015e-04, 2.877163546026318e-06, 1.205368469007615e+02, 4.865714571859906e+03, 8.286246678952344e+02, 5.026249795068525e+03
681, -9.999999999998080e-05, 4.800000000005114e-03, 3.431861367755978e-04, -3.042479856084504e-06, 1.154379830702978e+02, 3.233156198860655e+03, 7.118239262511236e+02, 3.427380936080095e+03
682, -4.999999999998701e-05, 4.800000000002629e-03, 3.427981194800963e-04, -8.961845621355819e-06, 1.044851589019653e+02, 1.605953311055363e+03, 5.643909554651525e+02, 1.878444892557248e+03
683, -2.564138137928218e-17, 4.800000000000143e-03, 3.424334038666593e-04, -1.488245545694620e-05, 8.736540448329856e+01, -1.527631573988958e+01, 3.863196928912156e+02, 7.794273174534158e+02
684, 4.999999999994627e-05, 4.799999999997659e-03, 3.420918510384370e-04, -2.080583247759323e-05, 6.376185086680960e+01, -1.629908937072722e+03, 1.776047344207827e+02, 1.730518565249857e+03
685, 9.999999999995042e-05, 4.799999999995174e-03, 3.417733078751498e-04, -2.673350120640831e-05, 3.335365839244298e+01, -3.237314866548761e+03, -6.175850654503725e+01, 3.273000008029906e+03
686, 1.499999999999713e-04, 4.799999999992687e-03, 3.414776069503687e-04, -3.266698757285046e-05, -4.184013709216174e+00, -4.836858479788019e+03, -3.317736765945669e+02, 4.878015742595995e+03
687, 1.999999999999824e-04, 4.799999999990203e-03, 3.412045664483335e-04, -3.860781890852035e-05, -4.917993329272844e+01, -6.427898132609008e+03, -6.324433462703857e+02, 6.502921205985465e+03
688, -1.999999999999919e-04, 4.700000000009747e-03, 3.321753841540815e-04, 9.267774676815769e-06, 1.219177060791763e+02, 6.754151174537492e+03, 9.396267771456477e+02, 6.893338429342860e+03
689, -1.499999999999929e-04, 4.700000000007334e-03, 3.317441011060055e-04, 3.404091596849611e-06, 1.219305750198921e+02, 5.053980944276421e+03, 8.500821420848669e+02, 5.216864905098641e+03
690, -9.999999999998839e-05, 4.700000000004922e-03, 3.313372461758142e-04, -2.457782349304122e-06, 1.164003128982946e+02, 3.358561666971775e+03, 7.293063790662163e+02, 3.555159831011017e+03
691, -4.999999999999717e-05, 4.700000000002511e-03, 3.309547097554744e-04, -8.319397297203878e-06, 1.050180689109512e+02, 1.668506626837552e+03, 5.772853508919359e+02, 1.943586884135902e+03
692, -3.846207206892327e-17, 4.700000000000096e-03, 3.305963681714607e-04, -1.418230498014670e-05, 8.746968185300000e+01, -1.556538134798950e+01, 3.940051982023937e+02, 7.947179431036284e+02
693, 4.999999999993608e-05, 4.699999999997685e-03, 3.302620835970709e-04, -2.004805873659604e-05, 6.343680175416733e+01, -1.693029369175931e+03, 1.794527183841348e+02, 1.792759471363536e+03
694, 9.999999999994281e-05, 4.699999999995272e-03, 3.299517039665011e-04, -2.591821351208625e-05, 3.259698148985734e+01, -3.363254114561549e+03, -6.638448762965994e+01, 3.398445566335431e+03
695, 1.499999999999669e-04, 4.699999999992859e-03, 3.296650628891918e-04, -3.179432585832410e-05, -5.376287891159507e+00, -5.025602123093608e+03, -3.435179034505534e+02, 5.067019403594028e+03
696, 1.999999999999805e-04, 4.699999999990447e-03, 3.294019795641207e-04, -3.767795393125872e-05, -5.081380186564860e+01, -6.679429803403569e+03, -6.519579883817471e+02, 6.755645562809203e+03
697, -1.999999999999939e-04, 4.600000000009572e-03, 3.204341360264920e-04, 9.714251052311456e-06, 1.235654754500599e+02, 7.010336925896807e+03, 9.641444467081014e+02, 7.151637509491143e+03
698, -1.499999999999973e-04, 4.600000000007185e-03, 3.200066797464292e-04, 3.910529974129921e-06, 1.231460865146664e+02, 5.246073040847405e+03, 8.713128692065379e+02, 5.411203659409671e+03
699, -9.999999999999598e-05, 4.600000000004799e-03, 3.196045593536437e-04, -1.891369578643887e-06, 1.171951826993993e+02, 3.486557817445558e+03, 7.466446704021848e+02, 3.685446732729090e+03
700, -5.000000000000737e-05, 4.600000000002412e-03, 3.192276666216734e-04, -7.693027571174565e-06, 1.054027963887195e+02, 1.732405471297772e+03, 5.901168762556431e+02, 2.009997366846057e+03
701, -5.126921023140829e-17, 4.600000000000025e-03, 3.188758792530960e-04, -1.349602578275493e-05, 8.745381806080434e+01, -1.576396068371923e+01, 4.017074577460577e+02, 8.100181703419722e+02
702, 4.999999999992590e-05, 4.599999999997638e-03, 3.185490607879568e-04, -1.930194780643774e-05, 6.302867723017204e+01, -1.757324097180880e+03, 1.813951050925870e+02, 1.856152192012340e+03
703, 9.999999999993524e-05, 4.599999999995251e-03, 3.182470605142515e-04, -2.511237904955759e-05, 3.180349050962315e+01, -3.491642107955626e+03, -7.084069693971338e+01, 3.526293025645452e+03
704, 1.499999999999625e-04, 4.599999999992864e-03, 3.179697133786652e-04, -3.092890673368237e-05, -6.549917637957037e+00, -5.218078689960265e+03, -3.550195618335046e+02, 5.259675627059247e+03
705, 1.999999999999786e-04, 4.599999999990477e-03, 3.177168398972458e-04, -3.675311989228335e-05, -5.236378926800012e+01, -6.935987839858318e+03, -6.711601501721566e+02, 7.013280534712832e+03
706, -1.999999999999958e-04, 4.500000000009600e-03, 3.088132877130389e-04, 1.013747828293888e-05, 1.250322518193534e+02, 7.271591517861469e+03, 9.882989544689800e+02, 7.414866730877255e+03
707, -1.500000000000016e-04, 4.500000000007212e-03, 3.083897840519264e-04, 4.395965464657111e-06, 1.241788029211369e+02, 5.442004324534259e+03, 8.922778528898568e+02, 5.609269769350624e+03
708, -1.000000000000036e-04, 4.500000000004825e-03, 3.079925408046881e-04, -1.343712021883561e-06, 1.178172235059020e+02, 3.617155134647318e+03, 7.638130074946218e+02, 3.818246594711175e+03
709, -5.000000000001756e-05, 4.500000000002437e-03, 3.076214514394579e-04, -7.083163990522756e-06, 1.056346704137701e+02, 1.797657739303160e+03, 6.028731631474899e+02, 2.077682908681618e+03
710, -6.409667718462742e-17, 4.500000000000053e-03, 3.072763953448449e-04, -1.282400228762704e-05, 8.731490950618422e+01, -1.586669027287792e+01, 4.094278053696133e+02, 8.253308147476856e+02
711, 4.999999999991571e-05, 4.499999999997665e-03, 3.069572377393751e-04, -1.856784078875909e-05, 6.253729401752247e+01, -1.822790301855041e+03, 1.834471531028995e+02, 1.920695596830704e+03
712, 9.999999999992765e-05, 4.499999999995279e-03, 3.066638295792837e-04, -2.431629539948121e-05, 3.097670483776255e+01, -3.622478550743755e+03, -7.509779159557038e+01, 3.656541264329769e+03
713, 1.499999999999582e-04, 4.499999999992891e-03, 3.063960074658499e-04, -3.007098405590408e-05, -7.696445999253115e+00, -5.414290158124517e+03, -3.662351555883205e+02, 5.455984633844531e+03
714, 1.999999999999767e-04, 4.499999999990504e-03, 3.061535935524011e-04, -3.583352672515199e-05, -5.381621348560304e+01, -7.197577120249665e+03, -6.899920007159382e+02, 7.275828182222174e+03
715, -1.999999999999977e-04, 4.400000000009622e-03, 2.973173979517543e-04, 1.053690711987591e-05, 1.263258963583896e+02, 7.537937514725192e+03, 1.012029469774992e+03, 7.683020328769278e+03
716, -1.500000000000059e-04, 4.400000000007235e-03, 2.968979692933830e-04, 4.859891288028746e-06, 1.250353492109566e+02, 5.641794996827480e+03, 9.129313539508288e+02, 5.811059424724202e+03
717, -1.000000000000112e-04, 4.400000000004850e-03, 2.965057422704586e-04, -8.152737543531729e-07, 1.182691455308554e+02, 3.750368832894508e+03, 7.807810558033748e+02, 3.953558443649578e+03
718, -5.000000000002772e-05, 4.400000000002464e-03, 2.961406123769844e-04, -6.490227704149498e-06, 1.057140291690079e+02, 1.864274131163381e+03, 6.155390504938891e+02, 2.146645504748778e+03
719, -7.691736787426851e-17, 4.400000000000076e-03, 2.958024610201547e-04, -1.216661250013179e-05, 8.705241109724034e+01, -1.586706449183600e+01, 4.171661675114409e+02, 8.406562101836070e+02
720, 4.999999999990552e-05, 4.399999999997690e-03, 2.954911554287422e-04, -1.784607232963399e-05, 6.196230311033946e+01, -1.889425669953984e+03, 1.856238546217913e+02, 1.986388653571777e+03
721, 9.999999999991999e-05, 4.399999999995304e-03, 2.952065485585849e-04, -2.353025363243806e-05, 3.011715498228074e+01, -3.755765601492512e+03, -7.912570251824499e+01, 3.789188798802351e+03
722, 1.499999999999539e-04, 4.399999999992917e-03, 2.949484789967938e-04, -2.922080510368672e-05, -8.814195789156145e+00, -5.614243762031858e+03, -3.771194643642033e+02, 5.655945277645216e+03
723, 1.999999999999748e-04, 4.399999999990530e-03, 2.947167708654803e-04, -3.491937769434764e-05, -5.516775675443932e+01, -7.464210163967552e+03, -7.083934821901692e+02, 7.543288055902435e+03
724, -1.999999999999997e-04, 4.300000000009517e-03, 2.859511147501890e-04, 1.091199562173128e-05, 1.274272472406815e+02, 7.809380027167266e+03, 1.035271958696029e+03, 7.956101471629873e+03
725, -1.500000000000103e-04, 4.300000000007164e-03, 2.855358792781499e-04, 5.301808027453718e-06, 1.256998037611486e+02, 5.845450334036920e+03, 9.332245034904801e+02, 6.016575273712629e+03
726, -1.000000000000188e-04, 4.300000000004808e-03, 2.851488033651684e-04, -3.065114682246380e-07, 1.185393469517143e+02, 3.886204872003970e+03, 7.975158865604636e+02, 4.091384834739037e+03
727, -5.000000000003792e-05, 4.300000000002456e-03, 2.847897848610361e-04, -5.914632457036479e-06, 1.056324847511853e+02, 1.932259887259120e+03, 6.280975810108736e+02, 2.216888349168656e+03
728, -8.973805856390960e-17, 4.300000000000101e-03, 2.844587075295827e-04, -1.152422699278999e-05, 8.666074381487874e+01, -1.576151455736169e+01, 4.249214410564818e+02, 8.559925486171819e+02
729, 4.999999999989533e-05, 4.299999999997747e-03, 2.841554409509661e-04, -1.713696960383282e-05, 6.130091399827700e+01, -1.957229005117952e+03, 1.879398398433133e+02, 2.053228815297674e+03
730, 9.999999999991241e-05, 4.299999999995395e-03, 2.838798404230711e-04, -2.275453730109820e-05, 2.922502000935197e+01, -3.891504998476142e+03, -8.289417606739227e+01, 3.924233639267268e+03
731, 1.499999999999495e-04, 4.299999999993039e-03, 2.836317468621254e-04, -2.837860958336476e-05, -9.899741768289573e+00, -5.817944653729560e+03, -3.876267646736434e+02, 5.859556615830640e+03
732, 1.999999999999729e-04, 4.299999999990687e-03, 2.834109867024311e-04, -3.401086844157808e-05, -5.641080382158765e+01, -7.735895660139784e+03, -7.263031655353491e+02, 7.815660740557205e+03
733, -2.000000000000014e-04, 4.200000000009198e-03, 2.747191751442842e-04, 1.126221009157731e-05, 1.283219588390787e+02, 8.085928358991193e+03, 1.057962261667937e+03, 8.234114172647598e+03
734, -1.500000000000147e-04, 4.200000000006931e-03, 2.743082462832856e-04, 5.721224568499827e-06, 1.261585238355739e+02, 6.052978459246211e+03, 9.531089085978178e+02, 6.225822107430876e+03
735, -1.000000000000264e-04, 4.200000000004664e-03, 2.739264515978896e-04, 1.821265064667131e-07, 1.186164725687288e+02, 4.024670521803671e+03, 8.139848443779044e+02, 4.231730561254153e+03
736, -5.000000000004811e-05, 4.200000000002396e-03, 2.735736916388651e-04, -5.356783577225424e-06, 1.053814634597466e+02, 2.001621057754928e+03, 6.405321136714136e+02, 2.288416516622406e+03
737, -1.025587492535507e-16, 4.200000000000129e-03, 2.732498528757479e-04, -1.089720786513801e-05, 8.613438542877668e+01, -1.554569046035442e+01, 4.326931320018001e+02, 8.713393275635665e+02
738, 4.999999999988515e-05, 4.199999999997860e-03, 2.729548075925004e-04, -1.644085125254285e-05, 6.055104502409142e+01, -2.026198043927171e+03, 1.904108140982972e+02, 2.121213537751734e+03
739, 9.999999999990481e-05, 4.199999999995591e-03, 2.726884137841048e-04, -2.198942135681190e-05, 2.830223009873100e+01, -4.029696830670353e+03, -8.637128830925491e+01, 4.061674085273162e+03
740, 1.499999999999452e-04, 4.199999999993324e-03, 2.724505150532874e-04, -2.754462852459663e-05, -1.094624514147517e+01, -6.025395322290331e+03, -3.977088625756029e+02, 6.066818528611306e+03
741, 1.999999999999710e-04, 4.199999999991056e-03, 2.722409405074579e-04, -3.310818583699462e-05, -5.753365256458835e+01, -8.012639316100429e+03, -7.436567030708984e+02, 8.092947997244832e+03
742, -2.000000000000034e-04, 4.100000000008875e-03, 2.636264051084920e-04, 1.158702632928797e-05, 1.290057544821399e+02, 8.367598956968492e+03, 1.080033009624960e+03, 8.517059537397430e+03
743, -1.500000000000190e-04, 4.100000000006694e-03, 2.632198910147259e-04, 6.117659274243193e-06, 1.264058522686789e+02, 6.264393650405471e+03, 9.725340928450652e+02, 6.438803029838700e+03
744, -1.000000000000340e-04, 4.100000000004513e-03, 2.628435023663465e-04, 6.502013370115342e-07, 1.184935788010789e+02, 4.165776659460322e+03, 8.301542506201108e+02, 4.374599942198271e+03
745, -5.000000000005830e-05, 4.100000000002334e-03, 2.624971427861407e-04, -4.817076855667125e-06, 1.049542903153065e+02, 2.072365463045207e+03, 6.528257268156186e+02, 2.361235363311292e+03
746, -1.153726636796137e-16, 4.100000000000152e-03, 2.621807018166543e-04, -1.028590762883340e-05, 8.546788044333812e+01, -1.521482566856162e+01, 4.404810936177591e+02, 8.866968944621400e+02
747, 4.999999999987496e-05, 4.099999999997971e-03, 2.618940548123253e-04, -1.575802626937243e-05, 5.970901421217184e+01, -2.096331348235856e+03, 1.930534406969964e+02, 2.190339829424835e+03
748, 9.999999999989721e-05, 4.099999999995790e-03, 2.616370628323889e-04, -2.123517103534527e-05, 2.734716700582146e+01, -4.170343467262463e+03, -8.952352152678347e+01, 4.201507408615375e+03
749, 1.499999999999408e-04, 4.099999999993610e-03, 2.614095725340949e-04, -2.671908316389589e-05, -1.195336698997153e+01, -6.236602740453262e+03, -4.073153476547928e+02, 6.277729127024954e+03
750, 1.999999999999691e-04, 4.099999999991429e-03, 2.612114160659117e-04, -3.221150687749614e-05, -5.853346437869641e+01, -8.294452871346555e+03, -7.603867661065586e+02, 8.375148990576214e+03
751, -2.000000000000054e-04, 4.000000000008551e-03, 2.526777200228399e-04, 1.188593074182637e-05, 1.294607202034831e+02, 8.654397795041747e+03, 1.101414990934613e+03, 8.804942479026990e+03
752, -1.500000000000234e-04, 4.000000000006458e-03, 2.522757229086273e-04, 6.490641123958504e-06, 1.264262445591252e+02, 6.479702012885949e+03, 9.914482231136190e+02, 6.655523368216011e+03
753, -1.000000000000416e-04, 4.000000000004365e-03, 2.519048591634476e-04, 1.097284836448528e-06, 1.181583386062235e+02, 4.309529492858199e+03, 8.459896795094854e+02, 4.519998484960120e+03
754, -5.000000000006849e-05, 4.000000000002271e-03, 2.515650358590790e-04, -4.295897396116464e-06, 1.043415020863221e+02, 2.144498461327658e+03, 6.649612753497237e+02, 2.435350982753775e+03
755, -1.282069068964109e-16, 4.000000000000177e-03, 2.512561459873823e-04, -9.690668058618787e-06, 8.465463029558339e+01, -1.476510746555380e+01, 4.482854447747109e+02, 9.020663192049323e+02
756, 4.999999999986478e-05, 3.999999999998083e-03, 2.509780683503421e-04, -1.508879285518977e-05, 5.877128597160561e+01, -2.167627199149570e+03, 1.958851161290909e+02, 2.260604814962910e+03
757, 9.999999999988963e-05, 3.999999999995989e-03, 2.507306674500230e-04, -2.049204071877056e-05, 2.635969743006774e+01, -4.313445721912141e+03, -9.231619261398288e+01, 4.343731137562151e+03
758, 1.499999999999365e-04, 3.999999999993896e-03, 2.505137933783220e-04, -2.590218382003547e-05, -1.291726017886720e+01, -6.451570486828928e+03, -4.163942673225710e+02, 6.492287125234653e+03
759, 1.999999999999672e-04, 3.999999999991804e-03, 2.503272817065754e-04, -3.132099757522872e-05, -5.940200357145920e+01, -8.581343129369263e+03, -7.764240685030295e+02, 8.662264016304694e+03
760, -2.000000000000072e-04, 3.900000000008219e-03, 2.418781244505655e-04, 1.215842153456931e-05, 1.296750124281218e+02, 8.946333221485151e+03, 1.122037845639044e+03, 9.097765532454543e+03
761, -1.500000000000277e-04, 3.900000000006203e-03, 2.414807400302567e-04, 6.839710938140173e-06, 1.262094895653639e+02, 6.698911632209580e+03, 1.009798814073722e+03, 6.875986331831867e+03
762, -1.000000000000492e-04, 3.900000000004186e-03, 2.411155135428016e-04, 1.522960695080957e-06, 1.176021745714152e+02, 4.455936548008589e+03, 8.614561238471780e+02, 4.667930135402814e+03
763, -5.000000000007867e-05, 3.900000000002170e-03, 2.407823558934954e-04, -3.793618385572404e-06, 1.035361868912105e+02, 2.218026325445758e+03, 6.769213854322545e+02, 2.510768566448632e+03
764, -1.410275975860520e-16, 3.900000000000153e-03, 2.404811639107706e-04, -9.111818966791929e-06, 8.368962916447447e+01, -1.419212689682070e+01, 4.561065685387720e+02, 9.174495330133952e+02
765, 4.999999999985460e-05, 3.899999999998138e-03, 2.402118202340914e-04, -1.443343719496675e-05, 5.773513538329030e+01, -2.240083578485427e+03, 1.989240799409341e+02, 2.332006432265287e+03
766, 9.999999999988204e-05, 3.899999999996121e-03, 2.399741932004109e-04, -1.976027271155689e-05, 2.533981369928870e+01, -4.459004446200313e+03, -9.471313213717417e+01, 4.488343319187097e+03
767, 1.499999999999321e-04, 3.899999999994104e-03, 2.397681367301421e-04, -2.509412866341526e-05, -1.383475938316451e+01, -6.670302750203890e+03, -4.248914607076820e+02, 6.710491571140682e+03
768, 1.999999999999652e-04, 3.899999999992088e-03, 2.395934902131419e-04, -3.043681171175277e-05, -6.013265349161418e+01, -8.873318182006718e+03, -7.916965202371523e+02, 8.954293533308506e+03
769, -2.000000000000091e-04, 3.800000000007874e-03, 2.312327122490448e-04, 1.240401013786240e-05, 1.296514229145182e+02, 9.243423676598582e+03, 1.141826563548339e+03, 9.395526398074775e+03
770, -1.500000000000321e-04, 3.800000000005924e-03, 2.308400292043343e-04, 7.164422749226186e-06, 1.257561082551747e+02, 6.922038298828084e+03, 1.027529296240650e+03, 7.100191365902029e+03
771, -1.000000000000568e-04, 3.800000000003971e-03, 2.304805452461532e-04, 1.926825813232523e-06, 1.168232083539687e+02, 4.605010184414270e+03, 8.765157260291244e+02, 4.818396165113737e+03
772, -5.000000000008884e-05, 3.800000000002021e-03, 2.301541755173025e-04, -3.310599790631731e-06, 1.025354775886744e+02, 2.292958329672835e+03, 6.886869196925992e+02, 2.587491249135972e+03
773, -1.538415120121150e-16, 3.800000000000070e-03, 2.298608210896629e-04, -8.549676920482747e-06, 8.257019295082478e+01, -1.348960150620201e+01, 4.639440589536576e+02, 9.328471704757998e+02
774, 4.999999999984441e-05, 3.799999999998119e-03, 2.296003688482358e-04, -1.379223219019793e-05, 5.659899125375011e+01, -2.313697310547230e+03, 2.021886591550729e+02, 2.404542695377877e+03
775, 9.999999999987444e-05, 3.799999999996168e-03, 2.293726913738087e-04, -1.904009598391588e-05, 2.428778686908629e+01, -4.607019854788592e+03, -9.667728559532151e+01, 4.635342108396870e+03
776, 1.499999999999278e-04, 3.799999999994218e-03, 2.291776468249287e-04, -2.429510246837142e-05, -1.470324080800560e+01, -6.892803591605037e+03, -4.327511656778028e+02, 6.932341503504875e+03
777, 1.999999999999633e-04, 3.799999999992265e-03, 2.290150788196603e-04, -2.955908960274568e-05, -6.071955248414849e+01, -9.170386047425363e+03, -8.061296422274597e+02, 9.251237952261614e+03
778, -2.000000000000110e-04, 3.700000000007529e-03, 2.207466673850468e-04, 1.262222240983799e-05, 1.293749455313333e+02, 9.545674836608818e+03, 1.160702774828175e+03, 9.698228052829090e+03
779, -1.500000000000364e-04, 3.700000000005644e-03, 2.203587665884522e-04, 7.464345037391457e-06, 1.250532111897356e+02, 7.149088452712056e+03, 1.044580324882546e+03, 7.328141871898662e+03
780, -1.000000000000644e-04, 3.700000000003758e-03, 2.200051226095037e-04, 2.308491553298600e-06, 1.158109219278978e+02, 4.756756982579293e+03, 8.911285988260660e+02, 4.971400311427207e+03
781, -5.000000000009902e-05, 3.700000000001873e-03, 2.196856552414734e-04, -2.847187093225282e-06, 1.013310156605014e+02, 2.369300292150632e+03, 7.002375071317906e+02, 2.665523382879945e+03
782, -1.666825314924902e-16, 3.699999999999988e-03, 2.194002702170292e-04, -8.004543970227083e-06, 8.129021241656403e+01, -1.265313909057761e+01, 4.717970507571078e+02, 9.482590266930308e+02
783, 4.999999999983423e-05, 3.699999999998102e-03, 2.191488590867567e-04, -1.316543618341851e-05, 5.535926774386064e+01, -2.388465992719166e+03, 2.056974872488758e+02, 2.478210590066790e+03
784, 9.999999999986681e-05, 3.699999999996217e-03, 2.189312990976961e-04, -1.833172489356583e-05, 2.320299001688181e+01, -4.757492021559505e+03, -9.817052902546905e+01, 4.784725133671516e+03
785, 1.499999999999234e-04, 3.699999999994331e-03, 2.187474530711307e-04, -2.350527533167078e-05, -1.551981064578740e+01, -7.119076004766774e+03, -4.399158059481275e+02, 7.157835864863527e+03
786, 1.999999999999614e-04, 3.699999999992445e-03, 2.185971692793571e-04, -2.868795681140059e-05, -6.115626206747856e+01, -9.472553610292962e+03, -8.196464231081488e+02, 9.553097983473297e+03
787, -2.000000000000130e-04, 3.600000000007325e-03, 2.104252638354371e-04, 1.281259989003731e-05, 1.288351367324033e+02, 9.853096084700566e+03, 1.178586753898647e+03, 1.000587417120764e+04
788, -1.500000000000407e-04, 3.600000000005489e-03, 2.100422176652751e-04, 7.739061985054610e-06, 1.240895028758097e+02, 7.380070014337301e+03, 1.060891852770641e+03, 7.559842543056665e+03
789, -1.000000000000720e-04, 3.600000000003653e-03, 2.096945026022998e-04, 2.667585015046626e-06, 1.145550163614106e+02, 4.911183997953669e+03, 9.052543692108138e+02, 5.126947579110972e+03
790, -5.000000000010923e-05, 3.600000000001818e-03, 2.093820435178002e-04, -2.403709999624931e-06, 9.991407991751657e+01, 2.447058174688115e+03, 7.115525796346807e+02, 2.744870433363944e+03
791, -1.794761171278192e-16, 3.599999999999982e-03, 2.091047512337857e-04, -7.476706348255335e-06, 7.984285723119888e+01, -1.167832669099369e+01, 4.796649085706156e+02, 9.636855426760059e+02
792, 4.999999999982404e-05, 3.599999999998146e-03, 2.088625223980867e-04, -1.255329164987117e-05, 5.401137453014996e+01, -2.464387228504068e+03, 2.094699771355772e+02, 2.553006503918355e+03
793, 9.999999999985923e-05, 3.599999999996311e-03, 2.086552393590542e-04, -1.763535787304888e-05, 2.208351744803747e+01, -4.910421014162061e+03, -9.915328584626519e+01, 4.936489283967969e+03
794, 1.499999999999191e-04, 3.599999999994474e-03, 2.084827700394003e-04, -2.272480135446282e-05, -1.628301481492679e+01, -7.349122858367524e+03, -4.463255226028559e+02, 7.386972726340563e+03
795, 1.999999999999595e-04, 3.599999999992638e-03, 2.083449678087917e-04, -2.782352281633362e-05, -6.143705408149549e+01, -9.779826782790076e+03, -8.321668074496158e+02, 9.859873493141378e+03
796, -2.000000000000149e-04, 3.500000000007369e-03, 2.002738656041211e-04, 1.297470123366335e-05, 1.280228524513404e+02, 1.016569547031123e+04, 1.195396250579400e+03, 1.031846695817413e+04
797, -1.500000000000451e-04, 3.500000000005565e-03, 1.998957372776201e-04, 7.988174892610055e-06, 1.228563288601307e+02, 7.614991072749982e+03, 1.076402077430159e+03, 7.795296578693160e+03
798, -1.000000000000796e-04, 3.500000000003764e-03, 1.995540308796626e-04, 3.003750434594763e-06, 1.130471718069763e+02, 5.068298591332614e+03, 9.188514474321221e+02, 5.285041963930208e+03
799, -5.000000000011939e-05, 3.500000000001962e-03, 1.992486767989339e-04, -1.980481053317085e-06, 9.827699124848198e+01, 2.526238070354463e+03, 7.226108442131609e+02, 2.825537246321716e+03
800, -1.923239128717724e-16, 3.500000000000160e-03, 1.989795913882412e-04, -6.966433091332368e-06, 7.822140847883520e+01, -1.056089112489713e+01, 4.875467646167123e+02, 9.791270027304029e+02
801, 4.999999999981385e-05, 3.499999999998358e-03, 1.987466768370600e-04, -1.195602383022967e-05, 5.254978673037681e+01, -2.541459198308123e+03, 2.135258018437652e+02, 2.628926717630706e+03
802, 9.999999999985163e-05, 3.499999999996555e-03, 1.985498210424331e-04, -1.695117607431389e-05, 2.092514748117776e+01, -5.065808211824631e+03, -9.958524288609419e+01, 5.090631115203428e+03
803, 1.499999999999148e-04, 3.499999999994753e-03, 1.983888974788085e-04, -2.195381730350084e-05, -1.699588096625541e+01, -7.582949681689367e+03, -4.519192434555285e+02, 7.619749400413256e+03
804, 1.999999999999576e-04, 3.499999999992950e-03, 1.982637650669370e-04, -2.696587969443938e-05, -6.156301019661100e+01, -1.009221556721444e+04, -8.436087103053983e+02, 1.017156297449025e+04
805, -2.000000000000167e-04, 3.400000000007423e-03, 1.902979268842349e-04, 1.310810371421676e-05, 1.269336447570417e+02, 1.048348261525663e+04, 1.211045783846727e+03, 1.063600649401117e+04
806, -1.500000000000494e-04, 3.400000000005649e-03, 1.899247697792015e-04, 8.211303677228761e-06, 1.213492535118359e+02, 7.853861423294872e+03, 1.091046318932221e+03, 8.034505133240315e+03
807, -1.000000000000872e-04, 3.400000000003875e-03, 1.895891419192432e-04, 3.316650665064967e-06, 1.112825684565614e+02, 5.228109749247880e+03, 9.318761796425268e+02, 5.445685746976724e+03
808, -5.000000000012958e-05, 3.400000000002102e-03, 1.892909796640782e-04, -1.577794169936213e-06, 9.641517172522265e+01, 2.606847795754456e+03, 7.333897809963469e+02, 2.907527169824864e+03
809, -2.051242747706794e-16, 3.400000000000329e-03, 1.890302053559923e-04, -6.473974586236758e-06, 7.642235709055660e+01, -9.294429256594071e+00, 4.954413189055718e+02, 9.945832139028153e+02
810, 4.999999999980369e-05, 3.399999999998554e-03, 1.888067271883061e-04, -1.137383928247647e-05, 5.097295374564897e+01, -2.619677116628717e+03, 2.178849522908606e+02, 2.705968811374175e+03
811, 9.999999999984403e-05, 3.399999999996781e-03, 1.886204390723319e-04, -1.627934192433186e-05, 1.972924889892499e+01, -5.223650602280991e+03, -9.942506050358668e+01, 5.247149095879027e+03
812, 1.499999999999104e-04, 3.399999999995008e-03, 1.884712205033947e-04, -2.119244116971450e-05, -1.765303453311606e+01, -7.820555280221084e+03, -4.566342392255735e+02, 7.856165907711904e+03
813, 1.999999999999557e-04, 3.399999999993234e-03, 1.883589364264125e-04, -2.611510069304253e-05, -6.152457056388300e+01, -1.040972140646288e+04, -8.538877160607024e+02, 1.048816831868499e+04
814, -2.000000000000187e-04, 3.300000000007353e-03, 1.805029924150952e-04, 1.321240471564086e-05, 1.255623650814670e+02, 1.080646601486574e+04, 1.225446293479253e+03, 1.095849338407352e+04
815, -1.500000000000538e-04, 3.300000000005614e-03, 1.801348493041458e-04, 8.408088362036419e-06, 1.195620390338418e+02, 8.096689241503592e+03, 1.104757056850256e+03, 8.277470085903338e+03
816, -1.000000000000948e-04, 3.300000000003875e-03, 1.798053592141650e-04, 3.605968665007318e-06, 1.092548030246710e+02, 5.390625152584839e+03, 9.442829904730255e+02, 5.608881727546054e+03
817, -5.000000000013977e-05, 3.300000000002137e-03, 1.795144649456632e-04, -1.195923148838702e-06, 9.432266182780529e+01, 2.688894165425896e+03, 7.438658955865824e+02, 2.990843889231026e+03
818, -2.179652942510546e-16, 3.300000000000398e-03, 1.792620953048222e-04, -5.999561079488488e-06, 7.444077720486382e+01, -7.873397098662849e+00, 5.033472525372371e+02, 1.010054181635031e+03
819, 4.999999999979350e-05, 3.299999999998659e-03, 1.790481649668669e-04, -1.080692438670867e-05, 4.927757918968030e+01, -2.699037135321703e+03, 2.225683886749762e+02, 2.784130119184318e+03
820, 9.999999999983644e-05, 3.299999999996922e-03, 1.788725743389619e-04, -1.561999762039140e-05, 1.849475720239786e+01, -5.383946471832025e+03, -9.862938029251112e+01, 5.406041273593692e+03
821, 1.499999999999061e-04, 3.299999999995182e-03, 1.787352094223604e-04, -2.044077064905372e-05, -1.825277366905698e+01, -8.061940576733632e+03, -4.604046084441567e+02, 8.096221531497040e+03
822, 1.999999999999538e-04, 3.299999999993444e-03, 1.786359416740605e-04, -2.527123868546549e-05, -6.131706026386712e+01, -1.073234842754770e+04, -8.629155708295684e+02, 1.080969026249485e+04
823, -2.000000000000206e-04, 3.200000000007042e-03, 1.708946976944053e-04, 1.328722320837313e-05, 1.238995438893228e+02, 1.113465030481889e+04, 1.238506137538494e+03, 1.128593027314067e+04
824, -1.500000000000580e-04, 3.200000000005365e-03, 1.705315999319691e-04, 8.578190551144670e-06, 1.174847414954647e+02, 8.343479596354644e+03, 1.117465080682717e+03, 8.524195221740913e+03
825, -1.000000000001024e-04, 3.200000000003689e-03, 1.702082953975192e-04, 3.871408982359522e-06, 1.069545046238875e+02, 5.555850200731988e+03, 9.560251893885844e+02, 5.774634270501232e+03
826, -5.000000000014997e-05, 3.200000000002012e-03, 1.699247338162222e-04, -8.351201834762749e-07, 9.199096750043179e+01, 2.772382340548753e+03, 7.540151574344439e+02, 3.075492374120837e+03
827, -2.307656561499616e-16, 3.200000000000335e-03, 1.696808509448306e-04, -5.543401187230702e-06, 7.226923423086350e+01, -6.293539521114667e+00, 5.112633286798203e+02, 1.025540284157909e+03
828, 4.999999999978330e-05, 3.199999999998658e-03, 1.694765684309180e-04, -1.025544385975164e-05, 4.745747058028860e+01, -2.779536588746834e+03, 2.275977936449298e+02, 2.863406788103815e+03
829, 9.999999999982882e-05, 3.199999999996980e-03, 1.693117936714528e-04, -1.497326365538627e-05, 1.721687606967032e+01, -5.546695460178172e+03, -9.715348056424523e+01, 5.567304166344236e+03
830, 1.499999999999017e-04, 3.199999999995303e-03, 1.691864196706524e-04, -1.969888168358988e-05, -1.879837537579351e+01, -8.307108245786369e+03, -4.631625163935494e+02, 8.339913583144218e+03
831, 1.999999999999519e-04, 3.199999999993626e-03, 1.691003248968891e-04, -2.443432473918128e-05, -6.094121616398650e+01, -1.106010241305833e+04, -8.706012010314638e+02, 1.113612737176690e+04
832, -2.000000000000225e-04, 3.100000000006703e-03, 1.614787689375667e-04, 1.333220132718580e-05, 1.219381229998578e+02, 1.146803993573453e+04, 1.250131467232152e+03, 1.161831920229415e+04
833, -1.500000000000624e-04, 3.100000000005093e-03, 1.611207356846805e-04, 8.721295000610438e-06, 1.151099456044282e+02, 8.594237976131019e+03, 1.129099606784764e+03, 8.774683803204978e+03
834, -1.000000000001100e-04, 3.100000000003483e-03, 1.608036522632335e-04, 4.112699319241553e-06, 1.043741782919428e+02, 5.723790842132608e+03, 9.670550223754670e+02, 5.942947526863806e+03
835, -5.000000000016015e-05, 3.100000000001875e-03, 1.605274758207301e-04, -4.956143024397004e-07, 8.941290451973327e+01, 2.857318163303238e+03, 7.638129950770808e+02, 3.161477611401963e+03
836, -2.436134518939148e-16, 3.100000000000265e-03, 1.602921495659020e-04, -5.105680342352715e-06, 6.990132839666069e+01, -4.549623436718548e+00, 5.191883242889879e+02, 1.041042270294980e+03
837, 4.999999999977311e-05, 3.099999999998656e-03, 1.600976026240019e-04, -9.719539209355595e-06, 4.550752534851915e+01, -2.861171326051913e+03, 2.329954314867736e+02, 2.943795072615172e+03
838, 9.999999999982122e-05, 3.099999999997047e-03, 1.599437498909504e-04, -1.433923728001707e-05, 1.589236621171801e+01, -5.711894937752566e+03, -9.495150608340904e+01, 5.730934527063145e+03
839, 1.499999999998973e-04, 3.099999999995438e-03, 1.598304918866726e-04, -1.896682693377582e-05, -1.929051282975888e+01, -8.556057537971095e+03, -4.648384191160555e+02, 8.587239967829344e+03
840, 1.999999999999499e-04, 3.099999999993829e-03, 1.597577146078570e-04, -2.360436658618516e-05, -6.039465854591185e+01, -1.139298513079126e+04, -8.768512253288930e+02, 1.146747919540599e+04
841, -2.000000000000244e-04, 3.000000000006373e-03, 1.522610231549002e-04, 1.334700606177755e-05, 1.196761599857306e+02, 1.180664099737302e+04, 1.260225047051623e+03, 1.195566040782324e+04
842, -1.500000000000668e-04, 3.000000000004845e-03, 1.519080605989275e-04, 8.837111295380537e-06, 1.124343994619093e+02, 8.848971460701487e+03, 1.139587118215577e+03, 9.028937646391420e+03
843, -1.000000000001176e-04, 3.000000000003318e-03, 1.515972208255143e-04, 4.329592188746664e-06, 1.015091108161997e+02, 5.894454138381318e+03, 9.773228701798088e+02, 6.113824667317295e+03
844, -5.000000000017031e-05, 3.000000000001789e-03, 1.513284689196509e-04, -1.776097274767078e-07, 8.658303545752437e+01, 2.943708315523101e+03, 7.732338365372915e+02, 3.248803953742748e+03
845, -2.564273663199779e-16, 3.000000000000262e-03, 1.511017560612991e-04, -4.686559162304225e-06, 6.733166856086052e+01, -2.635673755588186e+00, 5.271208477907898e+02, 1.056560921903489e+03
846, 4.999999999976296e-05, 2.999999999998735e-03, 1.509170193760935e-04, -9.199327107131678e-06, 4.342312007491375e+01, -2.943936454621599e+03, 2.387842230530075e+02, 3.025291531282076e+03
847, 9.999999999981362e-05, 2.999999999997206e-03, 1.507741817852993e-04, -1.371799087614056e-05, 1.451807546267469e+01, -5.879541509438215e+03, -9.197609406532101e+01, 5.896929438095736e+03
848, 1.499999999998930e-04, 2.999999999995678e-03, 1.506731518548943e-04, -1.824463414505613e-05, -1.973025802886104e+01, -8.808787085534746e+03, -4.653604003908806e+02, 8.838198975251444e+03
849, 1.999999999999481e-04, 2.999999999994151e-03, 1.506138236437649e-04, -2.278134698804897e-05, -5.967618038369233e+01, -1.173099809074979e+04, -8.815690651477000e+02, 1.180374564288359e+04
850, -2.000000000000263e-04, 2.900000000006043e-03, 1.432473684498031e-04, 1.333133094458611e-05, 1.171110768862554e+02, 1.215045821068761e+04, 1.268685972473277e+03, 1.229795509951013e+04
851, -1.500000000000711e-04, 2.900000000004594e-03, 1.428994689385694e-04, 8.925375528660018e-06, 1.094533062345929e+02, 9.107685289839190e+03, 1.148851226428667e+03, 9.286959426670892e+03
852, -1.000000000001252e-04, 2.900000000003146e-03, 1.425948814647956e-04, 4.521866591290697e-06, 9.835337981885073e+01, 6.067845776886834e+03, 9.867771775086385e+02, 6.287269381127240e+03
853, -5.000000000018052e-05, 2.900000000001698e-03, 1.423335795826376e-04, 1.187157986067045e-07, 8.349499410038618e+01, 3.031558654848274e+03, 7.822510486820207e+02, 3.337476016464946e+03
854, -2.692480570096190e-16, 2.900000000000249e-03, 1.421155229777752e-04, -4.286171781764099e-06, 6.455400611185780e+01, -5.460749729403460e-01, 5.350592973011443e+02, 1.072096929885924e+03
855, 4.999999999975274e-05, 2.899999999998802e-03, 1.419406573144815e-04, -8.694897726005921e-06, 4.119870295544399e+01, -3.027827039294660e+03, 2.449877322546875e+02, 3.107892366607147e+03
856, 9.999999999980604e-05, 2.899999999997354e-03, 1.418089140818067e-04, -1.310957029846174e-05, 1.308975613548932e+01, -6.049631376256153e+03, -8.817836233851600e+01, 6.065285584660215e+03
857, 1.499999999998886e-04, 2.899999999995905e-03, 1.417202104386429e-04, -1.753230449458774e-05, -2.011983777230944e+01, -9.065294625213517e+03, -4.646540944718457e+02, 9.092788386705141e+03
858, 1.999999999999462e-04, 2.899999999994458e-03, 1.416744490576948e-04, -2.196522208222731e-05, -5.878493625308079e+01, -1.207414070905177e+04, -8.846548327104841e+02, 1.214492614382973e+04
859, -2.000000000000283e-04, 2.800000000005697e-03, 1.344438041651264e-04, 1.328489771546423e-05, 1.142348242108208e+02, 1.249949025558912e+04, 1.275411106824530e+03, 1.264520644616493e+04
860, -1.500000000000755e-04, 2.800000000004316e-03, 1.341009453024110e-04, 8.985851985844826e-06, 1.061580887308367e+02, 9.370380198356464e+03, 1.156814037138195e+03, 9.548753120829764e+03
861, -1.000000000001328e-04, 2.800000000002934e-03, 1.338026040057290e-04, 4.689329711967313e-06, 9.489868695022233e+01, 6.243968547405845e+03, 9.953652696192869e+02, 6.463286178765477e+03
862, -5.000000000019071e-05, 2.800000000001552e-03, 1.335487628388322e-04, 3.932127147408871e-07, 8.014062779535095e+01, 3.120873145962836e+03, 7.908373562629702e+02, 3.427498963279958e+03
863, -2.820416426449479e-16, 2.800000000000171e-03, 1.333393905385293e-04, -3.904624150323188e-06, 6.156036541908657e+01, 1.723496934929244e+00, 5.430019923351507e+02, 1.087651187444653e+03
864, 4.999999999974258e-05, 2.799999999998790e-03, 1.331744418583960e-04, -8.206313042715807e-06, 3.882659817815784e+01, -3.112839189103006e+03, 2.516300575580912e+02, 3.191593329073325e+03
865, 9.999999999979847e-05, 2.799999999997408e-03, 1.330538574109107e-04, -1.251399318576799e-05, 1.160017869255012e+01, -6.222161891137825e+03, -8.350826173191157e+01, 6.235999042845167e+03
866, 1.499999999998843e-04, 2.799999999996027e-03, 1.329775635082572e-04, -1.682981091440579e-05, -2.046597920812690e+01, -9.325579680264758e+03, -4.626433426521637e+02, 9.351005103174382e+03
867, 1.999999999999443e-04, 2.799999999994645e-03, 1.329454720016925e-04, -2.115591972142996e-05, -5.772688515862910e+01, -1.242241551617908e+04, -8.860060105028211e+02, 1.249101883533424e+04
868, -2.000000000000301e-04, 2.700000000005420e-03, 1.258564207257605e-04, 1.320745815799894e-05, 1.110483981445542e+02, 1.285373911774259e+04, 1.280294632024953e+03, 1.299741451806848e+04
869, -1.500000000000799e-04, 2.700000000004097e-03, 1.255185645502633e-04, 9.018334968724813e-06, 1.025481122100192e+02, 9.637060441569554e+03, 1.163395435670826e+03, 9.814320206599528e+03
870, -1.000000000001404e-04, 2.700000000002773e-03, 1.252264476884684e-04, 4.831818727888360e-06, 9.114221072400824e+01, 6.422827769365713e+03, 1.003032833523179e+03, 6.641877857504914e+03
871, -5.000000000020087e-05, 2.700000000001450e-03, 1.249800622704992e-04, 6.457614353790062e-07, 7.651567175197329e+01, 3.211657841948578e+03, 7.989645233631157e+02, 3.518876761939310e+03
872, -2.948962146524792e-16, 2.700000000000125e-03, 1.247793866473456e-04, -3.541992249492725e-06, 5.834584735654778e+01, 4.179521180203551e+00, 5.509470131264052e+02, 1.103224562808076e+03
873, 4.999999999973239e-05, 2.699999999998801e-03, 1.246243852305195e-04, -7.733605063608936e-06, 3.630211218757688e+01, -3.198966301933534e+03, 2.587358065125213e+02, 3.276391091078180e+03
874, 9.999999999979085e-05, 2.699999999997478e-03, 1.245150083300588e-04, -1.193124719402221e-05, 1.004577848102895e+01, -6.397126586444502e+03, -7.791446490799950e+01, 6.409067043590121e+03
875, 1.499999999998800e-04, 2.699999999996155e-03, 1.244511919911971e-04, -1.613709633058496e-05, -2.076996831685403e+01, -9.589636011999850e+03, -4.592499162955339e+02, 9.612847616831305e+03
876, 1.999999999999424e-04, 2.699999999994831e-03, 1.244328578299713e-04, -2.035333771786175e-05, -5.650019188404542e+01, -1.277581691580011e+04, -8.855172589292902e+02, 1.284202402998598e+04
877, -2.000000000000321e-04, 2.600000000005380e-03, 1.174913999048519e-04, 1.309879602524193e-05, 1.075577265070391e+02, 1.321320847203232e+04, 1.283226152613090e+03, 1.335457819995406e+04
878, -1.500000000000841e-04, 2.600000000004088e-03, 1.171584919883003e-04, 9.022650687435690e-06, 9.862508760047058e+01, 9.907730674593440e+03, 1.168511490183687e+03, 1.008366147922182e+04
879, -1.000000000001480e-04, 2.600000000002797e-03, 1.168725612870186e-04, 4.949202676446555e-06, 8.708229747992777e+01, 6.604428760414034e+03, 1.009722951799170e+03, 6.823046729686072e+03
880, -5.000000000021105e-05, 2.600000000001504e-03, 1.166336100741809e-04, 8.762742019724278e-07, 7.261611143801088e+01, 3.303918601902217e+03, 8.066028072332344e+02, 3.611612955374138e+03
881, -3.077169053421203e-16, 2.600000000000212e-03, 1.164416268966919e-04, -3.198320252624902e-06, 5.490488394566091e+01, 6.828087082606885e+00, 5.588919508122930e+02, 1.118817335013939e+03
882, 4.999999999972220e-05, 2.599999999998920e-03, 1.162965864105412e-04, -7.276773991825303e-06, 3.361878826696034e+01, -3.286202508287047e+03, 2.663300748025576e+02, 3.362282004239215e+03
883, 9.999999999978321e-05, 2.599999999997628e-03, 1.161984492145897e-04, -1.136128816730236e-05, 8.419722189328127e+00, -6.574520407469649e+03, -7.134419068339093e+01, 6.584486367580362e+03
884, 1.499999999998756e-04, 2.599999999996335e-03, 1.161471616831003e-04, -1.545407183558139e-05, -2.103875565822250e+01, -9.857460199797189e+03, -4.543931371810897e+02, 9.878313586801443e+03
885, 1.999999999999405e-04, 2.599999999995043e-03, 1.161426557973264e-04, -1.955734201355583e-05, -5.511148728535375e+01, -1.313434370856927e+04, -8.830798774499242e+02, 1.319794058851984e+04
886, -2.000000000000340e-04, 2.500000000005436e-03, 1.093550151860226e-04, 1.295872884540343e-05, 1.037574629150035e+02, 1.357789155658308e+04, 1.284092350480829e+03, 1.371670012183696e+04
887, -1.500000000000885e-04, 2.500000000004174e-03, 1.090269836074502e-04, 8.998659087427658e-06, 9.438241031642565e+01, 1.018238780928455e+04, 1.172076268514909e+03, 1.035678058309982e+04
888, -1.000000000001556e-04, 2.500000000002911e-03, 1.087471832607353e-04, 5.041384297215555e-06, 8.271215044030748e+01, 6.788772109747693e+03, 1.015377277430461e+03, 7.006797002904692e+03
889, -5.000000000022121e-05, 2.500000000001650e-03, 1.085156271491826e-04, 1.084696932585049e-06, 6.843475992193794e+01, 3.397658639019072e+03, 8.137216842507671e+02, 3.705712287108943e+03
890, -3.205375960317614e-16, 2.500000000000388e-03, 1.083323146099565e-04, -2.873618673054513e-06, 5.123001221273103e+01, 9.674211339741419e+00, 5.668343217500291e+02, 1.134430023333946e+03
891, 4.999999999971200e-05, 2.499999999999127e-03, 1.081972311442523e-04, -6.835786377436371e-06, 3.076920124690287e+01, -3.374541684879186e+03, 2.744386208454509e+02, 3.449262016376120e+03
892, 9.999999999977564e-05, 2.499999999997865e-03, 1.081103482466366e-04, -1.080403829377340e-05, 6.715096466365367e+00, -6.754336728814244e+03, -6.374324881307609e+01, 6.762253662146019e+03
893, 1.499999999998713e-04, 2.499999999996604e-03, 1.080716232331187e-04, -1.478061485348083e-05, -2.127814037674750e+01, -1.012904563526751e+04, -4.479902416401374e+02, 1.014740088678818e+04
894, 1.999999999999386e-04, 2.499999999995341e-03, 1.080809990679315e-04, -1.876776486724343e-05, -5.356491635962630e+01, -1.349798992966674e+04, -8.785822626241693e+02, 1.355876805271147e+04
895, -2.000000000000358e-04, 2.400000000005491e-03, 1.014536314782575e-04, 1.278710987700743e-05, 9.965253508976252e+01, 1.394778649570309e+04, 1.282777346844434e+03, 1.408378092265713e+04
896, -1.500000000000929e-04, 2.400000000004260e-03, 1.011303859085984e-04, 8.946255790143522e-06, 8.982144229289224e+01, 1.046103281133628e+04, 1.174002026065645e+03, 1.063367990350471e+04
897, -1.000000000001632e-04, 2.400000000003029e-03, 1.008566416369671e-04, 5.108301963750855e-06, 7.802963283632653e+01, 6.975860687742515e+03, 1.019936234784642e+03, 7.193132346490986e+03
898, -5.000000000023145e-05, 2.400000000001797e-03, 1.006324230043084e-04, 1.271011147877518e-06, 6.396700203302021e+01, 3.492882604967768e+03, 8.202900491415891e+02, 3.801179457869914e+03
899, -3.333650629849805e-16, 2.400000000000566e-03, 1.004577407500296e-04, -2.567862443207007e-06, 4.731489434236369e+01, 1.272398126099074e+01, 5.747717754001824e+02, 1.150063870597852e+03
900, 4.999999999970184e-05, 2.399999999999334e-03, 1.003325918385903e-04, -6.410573200785267e-06, 2.774599450840958e+01, -3.463976722548577e+03, 2.830881262166367e+02, 3.537327109786599e+03
901, 9.999999999976805e-05, 2.399999999998102e-03, 1.002569592846073e-04, -1.025938419144020e-05, 4.924234863563242e+00, -6.936567865235624e+03, -5.505566107474550e+01, 6.942365380690138e+03
902, 1.499999999998670e-04, 2.399999999996872e-03, 1.002308119765916e-04, -1.411656722544019e-05, -2.149529341740845e+01, -1.040438447934679e+04, -4.399556890683274e+02, 1.042010709545078e+04
903, 1.999999999999366e-04, 2.399999999995640e-03, 1.002541044992288e-04, -1.798440292329675e-05, -5.186657220529378e+01, -1.386674823357151e+04, -8.719092549552605e+02, 1.392450567571643e+04
904, -2.000000000000378e-04, 2.300000000005451e-03, 9.379370529324250e-05, 1.258383016958915e-05, 9.524820807872129e+01, 1.432288833335206e+04, 1.279161666537614e+03, 1.445582103551524e+04
905, -1.500000000000972e-04, 2.300000000004251e-03, 9.347513599729766e-05, 8.865374126142210e-06, 8.494351813506910e+01, 1.074366407683720e+04, 1.174197974773793e+03, 1.091436152435639e+04
906, -1.000000000001708e-04, 2.300000000003051e-03, 9.320735405084033e-05, 5.149931697291565e-06, 7.303280279688170e+01, 7.165695851569603e+03, 1.023338195795483e+03, 7.382056175302500e+03
907, -5.000000000024163e-05, 2.300000000001851e-03, 9.299039575492125e-05, 1.435235967116426e-06, 5.920806561093218e+01, 3.589594249743224e+03, 8.262756176904934e+02, 3.898019009018734e+03
908, -3.461857536746216e-16, 2.300000000000652e-03, 9.282428387977475e-05, -2.280988933863925e-06, 4.315246420405856e+01, 1.598301149758208e+01, 5.827016188481596e+02, 1.165719900144727e+03
909, 4.999999999969163e-05, 2.299999999999453e-03, 9.270902748762754e-05, -6.001027906126827e-06, 2.454030328869567e+01, -3.554500727945883e+03, 2.923057434507485e+02, 3.626472844773259e+03
910, 9.999999999976044e-05, 2.299999999998253e-03, 9.264462175385398e-05, -9.727174956459031e-06, 3.036927554580870e+00, -7.121206292718785e+03, -4.522416741014865e+01, 7.124817356457833e+03
911, 1.499999999998626e-04, 2.299999999997052e-03, 9.263104778653489e-05, -1.346173327233930e-05, -2.170138338848324e+01, -1.068346931551018e+04, -4.302018521195095e+02, 1.069642884203353e+04
912, 1.999999999999347e-04, 2.299999999995853e-03, 9.266827244441051e-05, -1.720701529550103e-05, -5.002752549648176e+01, -1.424061157830266e+04, -8.629425247510522e+02, 1.429515144948985e+04
913, -2.000000000000396e-04, 2.200000000005174e-03, 8.638178483212732e-05, 1.234882059502997e-05, 9.054914460086707e+01, 1.470318843269706e+04, 1.273122422360343e+03, 1.483282136929044e+04
914, -1.500000000001016e-04, 2.200000000004032e-03, 8.606776163753719e-05, 8.755987186590670e-06, 7.974981387002595e+01, 1.103027733308553e+04, 1.172570927991928e+03, 1.119882776337700e+04
915, -1.000000000001784e-04, 2.200000000002889e-03, 8.580582776645440e-05, 5.166289214598363e-06, 6.771982890818003e+01, 7.358277336475676e+03, 1.025519724159423e+03, 7.573571917510842e+03
916, -5.000000000025179e-05, 2.200000000001748e-03, 8.559603211652112e-05, 1.577430149935230e-06, 5.415340213604327e+01, 3.687796635406141e+03, 8.316450242983874e+02, 3.996235344977899e+03
917, -3.590132206278407e-16, 2.200000000000606e-03, 8.543841013265179e-05, -2.012895920827073e-06, 3.873587284837708e+01, 1.945706314327595e+01, 5.906208243023560e+02, 1.181398960936577e+03
918, 4.999999999968146e-05, 2.199999999999464e-03, 8.533298362585574e-05, -5.607004377751505e-06, 2.114349139446222e+01, -3.646105833859507e+03, 3.021190457282373e+02, 3.716694941038698e+03
919, 9.999999999975283e-05, 2.199999999998322e-03, 8.527976059023808e-05, -9.207220149533496e-06, 1.043317738566202e+00, -7.308242623703113e+03, -3.419034475792131e+01, 7.309605795968456e+03
920, 1.499999999998582e-04, 2.199999999997180e-03, 8.527873501833464e-05, -1.281587779428026e-05, -2.190687807344830e+01, -1.096628982184751e+04, -4.186392068133374e+02, 1.097636338510609e+04
921, 1.999999999999328e-04, 2.199999999996038e-03, 8.532988671497722e-05, -1.643532157902544e-05, -4.805859419094872e+01, -1.461956963118854e+04, -8.515611007799432e+02, 1.467070411175922e+04
922, -2.000000000000416e-04, 2.100000000004828e-03, 7.922450994277899e-05, 1.208205400539915e-05, 8.556587018379378e+01, 1.508867898745697e+04, 1.264533534646074e+03, 1.521478174180203e+04
923, -1.500000000001059e-04, 2.100000000003754e-03, 7.891488121641490e-05, 8.618109951048277e-06, 7.424589343501407e+01, 1.132086909577279e+04, 1.169024932904952e+03, 1.148708016122357e+04
924, -1.000000000001860e-04, 2.100000000002678e-03, 7.865865963434159e-05, 5.157432046718369e-06, 6.209165508722322e+01, 7.553605296010734e+03, 1.026415479856702e+03, 7.767682510330921e+03
925, -5.000000000026199e-05, 2.100000000001603e-03, 7.845590734534109e-05, 1.697694205215723e-06, 4.880017239809786e+01, 3.787493296111390e+03, 8.363638304874441e+02, 4.095832528447858e+03
926, -3.718339113174818e-16, 2.100000000000528e-03, 7.830667313105372e-05, -1.763439483825912e-06, 3.405926421785398e+01, 2.315267704053815e+01, 5.985261681555837e+02, 1.197102021346502e+03
927, 4.999999999967128e-05, 2.099999999999452e-03, 7.821099222080108e-05, -5.228314844599631e-06, 1.754745845530147e+01, -3.738782907595390e+03, 3.125563253648730e+02, 3.807989449173526e+03
928, 9.999999999974523e-05, 2.099999999998377e-03, 7.816888610451171e-05, -8.699287703660206e-06, -1.066125031534057e+00, -7.497665561160479e+03, -2.189408382759399e+01, 7.496727319930706e+03
929, 1.499999999998539e-04, 2.099999999997302e-03, 7.818036234390930e-05, -1.217872397729175e-05, -2.212187003202098e+01, -1.125283295652861e+04, -4.051755359667394e+02, 1.125990854173076e+04
930, 1.999999999999309e-04, 2.099999999996226e-03, 7.824541438221317e-05, -1.566899975763339e-05, -4.596983972387807e+01, -1.500360823284513e+04, -8.376404398169135e+02, 1.505116315521965e+04
931, -2.000000000000435e-04, 2.000000000004496e-03, 7.232861224802676e-05, 1.178354740524369e-05, 8.030759245280001e+01, 1.547934744522578e+04, 1.253265260901220e+03, 1.560170258798756e+04
932, -1.500000000001103e-04, 2.000000000003499e-03, 7.202320380116983e-05, 8.451801461940297e-06, 6.843609657628053e+01, 1.161543215143382e+04, 1.163461331559162e+03, 1.177912080636875e+04
933, -1.000000000001936e-04, 2.000000000002501e-03, 7.177253609198953e-05, 5.123461701196804e-06, 5.614836625826229e+01, 7.751677459566967e+03, 1.025958190669987e+03, 7.964391305176562e+03
934, -5.000000000027220e-05, 2.000000000001505e-03, 7.157668519030283e-05, 1.796172544237180e-06, 4.314455158626470e+01, 3.888686224848121e+03, 8.403965084002609e+02, 4.196814974015294e+03
935, -3.846512138753339e-16, 2.000000000000507e-03, 7.143571389258029e-05, -1.532431863038851e-06, 2.911534187108737e+01, 2.707548105548153e+01, 6.064141942000406e+02, 1.212830103823815e+03
936, 4.999999999966107e-05, 1.999999999999510e-03, 7.134967153261440e-05, -4.864727746669230e-06, 1.374189741292003e+01, -3.832523340261656e+03, 3.236465317070306e+02, 3.900351854446958e+03
937, 9.999999999973761e-05, 1.999999999998513e-03, 7.131859379029484e-05, -8.203101800527288e-06, -3.304260761801061e+00, -7.689464212828293e+03, -8.273699537634741e+00, 7.686177764348607e+03
938, 1.499999999998495e-04, 1.999999999997515e-03, 7.134250249848097e-05, -1.154995128090718e-05, -2.236137401700216e+01, -1.154308633013939e+04, -3.897160891192496e+02, 1.154706101287660e+04
939, 1.999999999999290e-04, 1.999999999996517e-03, 7.142140544801146e-05, -1.490768409909551e-05, -4.377755050120209e+01, -1.539271389164168e+04, -8.210524853115545e+02, 1.543652666693281e+04
940, -2.000000000000454e-04, 1.900000000004165e-03, 6.570091508487381e-05, 1.145336419702042e-05, 7.478785305531665e+01, 1.587518078910523e+04, 1.239184521632745e+03, 1.599358402760909e+04
941, -1.500000000001146e-04, 1.900000000003247e-03, 6.539952907817929e-05, 8.257167048402714e-06, 6.232770753958789e+01, 1.191395876565647e+04, 1.155778835812752e+03, 1.207495166064740e+04
942, -1.000000000002012e-04, 1.900000000002328e-03, 6.515423309232367e-05, 5.064525877687984e-06, 4.989181435308228e+01, 7.952491106998444e+03, 1.024078731440109e+03, 8.163701646488002e+03
943, -5.000000000028235e-05, 1.900000000001409e-03, 6.496511780539218e-05, 1.873055684976835e-06, 3.718363026218663e+01, 3.991377328889213e+03, 8.437064266163320e+02, 4.299187125901416e+03
944, -3.974685164331859e-16, 1.900000000000491e-03, 6.483226072394092e-05, -1.319639266592339e-06, 2.389704005324484e+01, 3.123152365897795e+01, 6.142811179684102e+02, 1.228584129076980e+03
945, 4.999999999965091e-05, 1.899999999999572e-03, 6.475572598980259e-05, -4.515965555703812e-06, 9.716193975632905e+00, -3.927317465893997e+03, 3.354190709346661e+02, 3.993777391334318e+03
946, 9.999999999973007e-05, 1.899999999998654e-03, 6.473556418480193e-05, -7.718340706221648e-06, -5.684628836603451e+00, -7.883625854950365e+03, 6.733742861972701e+00, 7.877952737562884e+03
947, 1.499999999998452e-04, 1.899999999997735e-03, 6.477181213338685e-05, -1.092919328954527e-05, -2.264115922737756e+01, -1.183703471744651e+04, -3.721640967529886e+02, 1.183781734983851e+04
948, 1.999999999999271e-04, 1.899999999996817e-03, 6.486449270303212e-05, -1.415096302619067e-05, -4.149923981087613e+01, -1.578686975173704e+04, -8.016662114189983e+02, 1.582679270780905e+04
949, -2.000000000000473e-04, 1.800000000003828e-03, 5.934833351692358e-05, 1.109161647533089e-05, 6.901986854303391e+01, 1.627616122215994e+04, 1.222154885855813e+03, 1.639042650806269e+04
950, -1.500000000001189e-04, 1.800000000002982e-03, 5.905074732264852e-05, 8.034360619248689e-06, 5.592850183126893e+01, 1.221643818947029e+04, 1.145873612929587e+03, 1.237457478907440e+04
951, -1.000000000002088e-04, 1.800000000002135e-03, 5.881061603846121e-05, 4.980820748574328e-06, 4.332436771859761e+01, 8.156041682655123e+03, 1.020706148619071e+03, 8.365616916843972e+03
952, -5.000000000029254e-05, 1.800000000001289e-03, 5.862804565357088e-05, 1.928582522431395e-06, 3.091477197394556e+01, 4.095567616477979e+03, 8.462559026114772e+02, 4.402953435724002e+03
953, -4.102858189910380e-16, 1.800000000000442e-03, 5.850312909643274e-05, -1.124779610832925e-06, 1.839724287560443e+01, 3.562682253977869e+01, 6.221229043837689e+02, 1.244365095561182e+03
954, 4.999999999964072e-05, 1.799999999999596e-03, 5.843594603775608e-05, -4.181702525609544e-06, 5.459354504993826e+00, -4.023154792895602e+03, 3.479039394359374e+02, 4.088261311723653e+03
955, 9.999999999972246e-05, 1.799999999998750e-03, 5.842656269142710e-05, -7.244634530575803e-06, -8.221409369880575e+00, -8.080136038490667e+03, 2.319265751649687e+01, 8.072047904792493e+03
956, 1.499999999998409e-04, 1.799999999997903e-03, 5.847503161322596e-05, -1.031603547952653e-05, -2.297778515614050e+01, -1.213466021090039e+04, -3.524203114890598e+02, 1.213217422747803e+04
957, 1.999999999999252e-04, 1.799999999997057e-03, 5.858139149738576e-05, -1.339837688109775e-05, -3.915295094392400e+01, -1.618605493195096e+04, -7.793472557339785e+02, 1.622195956610450e+04
958, -2.000000000000492e-04, 1.700000000003484e-03, 5.327787422991922e-05, 1.069846740883727e-05, 6.302241976419123e+01, 1.668227045349859e+04, 1.202036672593665e+03, 1.679222956774427e+04
959, -1.500000000001233e-04, 1.700000000002704e-03, 5.298383928907124e-05, 7.783587023759337e-06, 4.924978946318106e+01, 1.252285883363971e+04, 1.133639130326309e+03, 1.267799169025562e+04
960, -1.000000000002164e-04, 1.700000000001925e-03, 5.274863965936037e-05, 4.872593307485314e-06, 3.645055869673388e+01, 8.362323875346137e+03, 1.015767590921449e+03, 8.570140120205737e+03
961, -5.000000000030273e-05, 1.700000000001145e-03, 5.257239736177644e-05, 1.963042663747069e-06, 2.433637708082756e+01, 4.201257621628496e+03, 8.480061418930727e+02, 4.508118094050681e+03
962, -4.231031215488901e-16, 1.700000000000365e-03, 5.245522147591762e-05, -9.475201981292284e-07, 1.260880725191555e+01, 4.026725358675981e+01, 6.299352090758183e+02, 1.260173980126251e+03
963, 4.999999999963053e-05, 1.699999999999585e-03, 5.239720793953237e-05, -3.861562383556255e-06, 9.592568532930272e-01, -4.120024652377913e+03, 3.611316432416775e+02, 4.183798828235442e+03
964, 9.999999999971485e-05, 1.699999999998805e-03, 5.239843934604595e-05, -6.781562932425118e-06, -1.093117532040287e+01, -8.278979923828932e+03, 4.116881826091998e+01, 8.268458719380622e+03
965, 1.499999999998365e-04, 1.699999999998025e-03, 5.245898473990293e-05, -9.710012938764462e-06, -2.339186252228183e+01, -1.243594457686868e+04, -3.303832723721335e+02, 1.243012780759239e+04
966, 1.999999999999232e-04, 1.699999999997246e-03, 5.257889940935286e-05, -1.264941567012518e-05, -3.676271217821113e+01, -1.659024849013949e+04, -7.539579149387150e+02, 1.662202459242440e+04
967, -2.000000000000511e-04, 1.600000000003144e-03, 4.749663551668989e-05, 1.027413366921678e-05, 5.681577223292402e+01, 1.709348643748271e+04, 1.178686384003486e+03, 1.719899281131088e+04
968, -1.500000000001277e-04, 1.600000000002436e-03, 4.720587614737337e-05, 7.505104472658545e-06, 4.230410534095040e+01, 1.283320629806567e+04, 1.118966113933815e+03, 1.298520387057433e+04
969, -1.000000000002240e-04, 1.600000000001727e-03, 4.697534790634461e-05, 4.740143777176338e-06, 2.927600600915821e+01, 8.571330660443262e+03, 1.009188282321772e+03, 8.777274159785693e+03
970, -5.000000000031292e-05, 1.600000000001018e-03, 4.680518958419600e-05, 1.976778824771249e-06, 1.744765297075401e+01, 4.308447128312941e+03, 8.489172534628794e+02, 4.614685093296697e+03
971, -4.359339766338982e-16, 1.600000000000309e-03, 4.669552715820914e-05, -7.874753322062456e-07, 6.525100863588250e+00, 4.515890091945244e+01, 6.377134089260726e+02, 1.276011809586105e+03
972, 4.999999999962034e-05, 1.599999999999600e-03, 4.664647358862909e-05, -3.555115958169854e-06, -3.795912275961427e+00, -4.217915094285647e+03, 3.751332322780538e+02, 4.280385525629615e+03
973, 9.999999999970728e-05, 1.599999999998891e-03, 4.665812861354284e-05, -6.328652762148378e-06, -1.383015010617078e+01, -8.480140054799213e+03, 6.072938298728741e+01, 8.467181091374840e+03
974, 1.499999999998322e-04, 1.599999999998182e-03, 4.673057854183720e-05, -9.110608026473799e-06, -2.390307133941519e+01, -1.274086512423932e+04, -3.059492387453233e+02, 1.273167481526494e+04
975, 1.999999999999214e-04, 1.599999999997473e-03, 4.686389604385000e-05, -1.190351673632402e-05, -3.435104235269614e+01, -1.699942317039042e+04, -7.253574084755752e+02, 1.702698581046110e+04
976, -2.000000000000531e-04, 1.500000000002802e-03, 4.201180716395982e-05, 9.818887916780023e-06, 5.042263544478942e+01, 1.750978384574710e+04, 1.151957251439065e+03, 1.761071593968801e+04
977, -1.500000000001320e-04, 1.500000000002160e-03, 4.172401934640897e-05, 7.199227009664588e-06, 3.510627077284039e+01, 1.314746412981197e+04, 1.101742689001841e+03, 1.329621286060739e+04
978, -1.000000000002316e-04, 1.500000000001518e-03, 4.149787378855508e-05, 4.583828072559368e-06, 2.180779488039002e+01, 8.783053588325176e+03, 1.000891670539011e+03, 8.987021998291284e+03
979, -5.000000000032311e-05, 1.500000000000877e-03, 4.133352680646793e-05, 1.970189284033182e-06, 1.024842399752561e+01, 4.417135043389227e+03, 8.489483940415769e+02, 4.722658486399023e+03
980, -4.487512791917503e-16, 1.500000000000236e-03, 4.123112203938515e-05, -6.442038730050872e-07, 1.391601736279426e-01, 5.030740709541692e+01, 6.454527494845063e+02, 1.291879971308342e+03
981, 4.999999999961016e-05, 1.499999999999595e-03, 4.119079024228576e-05, -3.261878744846917e-06, -8.819395017030047e+00, -4.316814246575514e+03, 3.899404369194769e+02, 4.378017110340505e+03
982, 9.999999999969963e-05, 1.499999999998952e-03, 4.121264907822254e-05, -5.885375640455574e-06, -1.693729501028702e+01, -8.683598730324997e+03, 8.194302467752874e+01, 8.668210834511607e+03
983, 1.499999999998278e-04, 1.499999999998311e-03, 4.129680291115812e-05, -8.517247967584664e-06, -2.453553624756137e+01, -1.304939876030453e+04, -2.790120479104544e+02, 1.303681145437443e+04
984, 1.999999999999195e-04, 1.499999999997670e-03, 4.144334259690402e-05, -1.116006237297243e-05, -3.194634213472455e+01, -1.741355078670281e+04, -6.934015118509456e+02, 1.743684018662721e+04
985, -2.000000000000549e-04, 1.400000000002461e-03, 3.683067033653931e-05, 9.333061347858150e-06, 4.386951343650048e+01, 1.793113487189297e+04, 1.121698935452757e+03, 1.802739848150642e+04
986, -1.500000000001364e-04, 1.400000000001890e-03, 3.654552046942621e-05, 6.866327045902722e-06, 2.767356606398903e+01, 1.346561384709957e+04, 1.081854186249959e+03, 1.361102027468569e+04
987, -1.000000000002392e-04, 1.400000000001320e-03, 3.632343919720164e-05, 4.404060319199097e-06, 1.405463529776330e+01, 8.997482998999028e+03, 9.907992808451733e+02, 9.199386828775363e+03
988, -5.000000000033329e-05, 1.400000000000748e-03, 3.616460113724757e-05, 1.943730390280935e-06, 2.739443168195749e+00, 4.527319877584125e+03, 8.480577072340194e+02, 4.832042591564723e+03
989, -4.615719698813914e-16, 1.400000000000178e-03, 3.606916837591846e-05, -5.172067377878098e-07, -6.555632395878320e+00, 5.571882714855906e+01, 6.531483354375632e+02, 1.307780218787159e+03
990, 4.999999999959998e-05, 1.399999999999606e-03, 3.603729025295333e-05, -2.981308417009068e-06, -1.412465553757875e+01, -4.416709020525515e+03, 4.055856445587655e+02, 4.476689396320102e+03
991, 9.999999999969204e-05, 1.399999999999035e-03, 3.606910315165973e-05, -5.451145485953501e-06, -2.027239722051036e+01, -8.889336150948428e+03, 1.048798130225285e+02, 8.871543888659342e+03
992, 1.499999999998235e-04, 1.399999999998463e-03, 3.616473029360866e-05, -7.929302405892897e-06, -2.531469641350077e+01, -1.336151908920989e+04, -2.494634064849121e+02, 1.334553391854900e+04
993, 1.999999999999176e-04, 1.399999999997893e-03, 3.632428153706107e-05, -1.041837741018442e-05, -2.957877453380979e+01, -1.783259839551468e+04, -6.579429140078628e+02, 1.785158433129683e+04
994, -2.000000000000568e-04, 1.300000000002126e-03, 3.196059746849331e-05, 8.817046305469034e-06, 3.718483201695994e+01, 1.835750715122925e+04, 1.087757451911549e+03, 1.844903994728680e+04
995, -1.500000000001407e-04, 1.300000000001629e-03, 3.167772109008275e-05, 6.506837946708229e-06, 2.002395687515786e+01, 1.378763291612878e+04, 1.059182983157964e+03, 1.392962780630431e+04
996, -1.000000000002468e-04, 1.300000000001133e-03, 3.145935472543961e-05, 4.201315421390787e-06, 6.025019361659588e+00, 9.214606156619338e+03, 9.788304424281898e+02, 9.414372135280961e+03
997, -5.000000000034346e-05, 1.300000000000637e-03, 3.130569208937532e-05, 1.897919114995821e-06, -5.079037338872922e+00, 4.638998839838096e+03, 8.462020288013957e+02, 4.942842383029721e+03
998, -4.743892724392434e-16, 1.300000000000140e-03, 3.121691451967977e-05, -4.059243587350659e-07, -1.356617284585013e+01, 6.140019175711654e+01, 6.607949854729375e+02, 1.323714473414302e+03
999, 4.999999999958981e-05, 1.299999999999644e-03, 3.119319075281977e-05, -2.712802290007274e-06, -1.972533840985693e+01, -4.517583494371351e+03, 4.221020661735118e+02, 4.576396902391785e+03
1000, 9.999999999968445e-05, 1.299999999999148e-03, 3.123467670502550e-05, -5.025315985765502e-06, -2.385610770438666e+01, -9.097329020889050e+03, 1.296116834128204e+02, 9.077175081499985e+03
1001, 1.499999999998191e-04, 1.299999999998652e-03, 3.134151527410271e-05, -7.346080887990111e-06, -2.626841888694253e+01, -1.367719659719061e+04, -2.171922431066582e+02, 1.365783767699221e+04
1002, 1.999999999999157e-04, 1.299999999998155e-03, 3.151383614682244e-05, -9.677726722177191e-06, -2.728309845568151e+01, -1.825653046907821e+04, -6.188308235927573e+02, 1.827121413733259e+04
1003, -2.000000000000587e-04, 1.200000000001781e-03, 2.740905207199934e-05, 8.271298970446259e-06, 3.040136685979201e+01, 1.878886445847437e+04, 1.049975534311842e+03, 1.887563858655066e+04
1004, -1.500000000001450e-04, 1.200000000001350e-03, 2.712805258439087e-05, 6.121256714758491e-06, 1.217545692152726e+01, 1.411349098368929e+04, 1.033608332518109e+03, 1.425203439252324e+04
1005, -1.000000000002543e-04, 1.200000000000919e-03, 2.691301949382285e-05, 3.976131717924904e-06, -2.275614705025419e+00, 9.434401405594328e+03, 9.649010940207158e+02, 9.631978492003363e+03
1006, -5.000000000035367e-05, 1.200000000000488e-03, 2.676416639684195e-05, 1.833335657455742e-06, -1.320979585261716e+01, 4.752164724379325e+03, 8.433348593503648e+02, 5.055061726433992e+03
1007, -4.872353741173022e-16, 1.200000000000057e-03, 2.668169468713453e-05, -3.097341395559336e-07, -2.090024161434189e+01, 6.736202356553918e+01, 6.683853661506957e+02, 1.339681386820121e+03
1008, 4.999999999957962e-05, 1.199999999999626e-03, 2.666579332396148e-05, -2.455694819616720e-06, -2.563376990570737e+01, -4.619411442164207e+03, 4.395230377787043e+02, 4.677126821574716e+03
1009, 9.999999999967686e-05, 1.199999999999196e-03, 2.671663862332907e-05, -4.607178095392928e-06, -2.770771047080916e+01, -9.307542208005179e+03, 1.562133718795117e+02, 9.285092286662790e+03
1010, 1.499999999998148e-04, 1.199999999998765e-03, 2.683439402990027e-05, -6.766830334732813e-06, -2.742675191741523e+01, -1.399639497474628e+04, -1.820828633249382e+02, 1.397371424807553e+04
1011, 1.999999999999137e-04, 1.199999999998334e-03, 2.701920992207815e-05, -8.937312682470017e-06, -2.510138030678445e+01, -1.868531174936940e+04, -5.759093901056661e+02, 1.869572511351511e+04
1012, -2.000000000000607e-04, 1.100000000001707e-03, 2.318358848519231e-05, 7.696342164630675e-06, 2.356109875914876e+01, 1.922516948353792e+04, 1.008194820400809e+03, 1.930719015667320e+04
1013, -1.500000000001494e-04, 1.100000000001301e-03, 2.290403594578619e-05, 5.710146911142852e-06, 4.142892585208756e+00, 1.444313642814755e+04, 1.005007025860939e+03, 1.457822660024635e+04
1014, -1.000000000002619e-04, 1.100000000000895e-03, 2.269192109958402e-05, 3.729113911980977e-06, -1.085121981409566e+01, 9.656819655752923e+03, 9.489202645351637e+02, 9.852190560076917e+03
1015, -5.000000000036384e-05, 1.100000000000489e-03, 2.254747807714444e-05, 1.750626194081411e-06, -2.166490445939394e+01, 4.866794315757015e+03, 8.393992325951300e+02, 5.168694016329850e+03
1016, -5.000628410705213e-16, 1.100000000000083e-03, 2.247092897041082e-05, -2.279479941217351e-07, -2.856885310336884e+01, 7.362308049655326e+01, 6.759022953937133e+02, 1.355661773071312e+03
1017, 4.999999999956943e-05, 1.099999999999677e-03, 2.246248379927696e-05, -2.209255372080883e-06, -3.185876086888038e+01, -4.722136569765498e+03, 4.578780660792161e+02, 4.778840363332284e+03
1018, 9.999999999966927e-05, 1.099999999999272e-03, 2.252234028296305e-05, -4.195957836235027e-06, -3.184160511239816e+01, -9.519905944556736e+03, 1.847641112241284e+02, 9.495257553990892e+03
1019, 1.499999999998105e-04, 1.099999999998866e-03, 2.265068355166379e-05, -6.190732639756645e-06, -2.882060379936479e+01, -1.431905922431768e+04, -1.440089710363375e+02, 1.429314080831463e+04
1020, 1.999999999999118e-04, 1.099999999998460e-03, 2.284768569776717e-05, -8.196272494355992e-06, -2.309112943500577e+01, -1.911891859731003e+04, -5.290124671726658e+02, 1.912511551454126e+04
1021, -2.000000000000626e-04, 1.000000000002109e-03, 1.929185155882266e-05, 7.092768208936437e-06, 1.672248853642554e+01, 1.966639120323113e+04, 9.622631960399714e+02, 1.974368968635457e+04
1022, -1.500000000001537e-04, 1.000000000001674e-03, 1.901328164007054e-05, 5.274142186591646e-06, -4.058107813897323e+00, 1.477647704412975e+04, 9.732569033779646e+02, 1.490815667269878e+04
1023, -1.000000000002696e-04, 1.000000000001239e-03, 1.880363593113555e-05, 3.460936777483294e-06, -1.971682985288294e+01, 9.881752289373790e+03, 9.307830920588335e+02, 1.007494513021534e+04
1024, -5.000000000037402e-05, 1.000000000000804e-03, 1.866316908156274e-05, 1.650506083832583e-06, -3.046807406795142e+01, 4.982830373226358e+03, 8.343101376788204e+02, 5.283697090577595e+03
1025, -5.128852258260569e-16, 1.000000000000369e-03, 1.859212403238149e-05, -1.598101060467470e-07, -3.659136102221487e+01, 8.021759801577468e+01, 6.832992343734946e+02, 1.371581462288389e+03
1026, 4.999999999955924e-05, 9.999999999999337e-04, 1.859073248150173e-05, -1.972686822818709e-06, -3.841251333414743e+01, -4.825642141440517e+03, 4.771806737569300e+02, 4.881431459505287e+03
1027, 9.999999999966167e-05, 9.999999999994987e-04, 1.865921510054342e-05, -3.790815058050739e-06, -3.627194969499760e+01, -9.734277475475006e+03, 2.153498269247077e+02, 9.707564749713780e+03
1028, 1.499999999998061e-04, 9.999999999990637e-04, 1.879778056573322e-05, -5.616902792172043e-06, -3.048975032461476e+01, -1.464510007383449e+04, -1.028204730898317e+02, 1.461605703008808e+04
1029, 1.999999999999099e-04, 9.999999999986283e-04, 1.900662443352336e-05, -7.453675217333158e-06, -2.133669875556507e+01, -1.955736245182559e+04, -4.779502973446376e+02, 1.955939795012981e+04
1030, -2.000000000000644e-04, 9.000000000025380e-04, 1.574157696342722e-05, 6.461241647443818e-06, 9.963012429640685e+00, 2.011252110068849e+04, 9.120442122729783e+02, 2.018514652590820e+04
1031, -1.500000000001581e-04, 9.000000000020734e-04, 1.546349014435578e-05, 4.813950824436747e-06, -1.238462301860341e+01, 1.511338916197439e+04, 9.382413950258594e+02, 1.524172628858494e+04
1032, -1.000000000002772e-04, 9.000000000016087e-04, 1.525583011774612e-05, 3.172350355202714e-06, -2.883453101069563e+01, 1.010907336529224e+04, 9.103607006923326e+02, 1.030010693805562e+04
1033, -5.000000000038420e-05, 9.000000000011442e-04, 1.511887079814223e-05, 1.533763943085584e-06, -3.961178269722245e+01, 5.100215790106404e+03, 8.279345878354403e+02, 5.399975018931974e+03
1034, -5.256991402521199e-16, 9.000000000006796e-04, 1.505287445794393e-05, -1.044950237277926e-07, -4.500106847377788e+01, 8.720288622358976e+01, 6.904755369762738e+02, 1.387264846483294e+03
1035, 4.999999999954906e-05, 9.000000000002148e-04, 1.505809511599169e-05, -1.745125630360797e-06, -4.536393433608782e+01, -4.929772610823104e+03, 4.974133215484923e+02, 4.984689375353018e+03
1036, 9.999999999965402e-05, 8.999999999997502e-04, 1.513477855098518e-05, -3.390844048907975e-06, -4.108643035918590e+01, -9.950478749012073e+03, 2.480622204854633e+02, 9.921804048957303e+03
1037, 1.499999999998018e-04, 8.999999999992857e-04, 1.528316099159139e-05, -5.044387981429982e-06, -3.251473400174382e+01, -1.497440979545445e+04, -5.832741004159908e+01, 1.494235043005328e+04
1038, 1.999999999999080e-04, 8.999999999988212e-04, 1.550346459915645e-05, -6.708518110560009e-06, -1.995430878419097e+01, -2.000072957331953e+04, -4.224916062719141e+02, 1.999863437341030e+04
1039, -2.000000000000664e-04, 8.000000000027327e-04, 1.254059619249081e-05, 5.802501012641465e-06, 3.216149737656451e+00, 2.056345228168766e+04, 8.573803757655952e+02, 2.063161928294854e+04
1040, -1.500000000001624e-04, 8.000000000022627e-04, 1.226245556802317e-05, 4.330360123222887e-06, -2.060859177478824e+01, 1.545402340461534e+04, 8.998099494547001e+02, 1.557892381405891e+04
1041, -1.000000000002848e-04, 8.000000000017928e-04, 1.205626146827733e-05, 2.864184491679875e-06, -3.781922609550520e+01, 1.033915332718926e+04, 8.875082048627830e+02, 1.052768932987768e+04
1042, -5.000000000039436e-05, 8.000000000013229e-04, 1.192230316980482e-05, 1.401265183796597e-06, -4.879392937684065e+01, 5.219319390630537e+03, 8.201461780684148e+02, 5.517569842425201e+03
1043, -5.385198309417610e-16, 8.000000000008525e-04, 1.186086139487179e-05, -6.110594622879435e-08, -5.383409028737606e+01, 9.466119551132692e+01, 6.973589478160220e+02, 1.402600748003763e+03
1044, 4.999999999953886e-05, 8.000000000003829e-04, 1.187221186414174e-05, -1.525641702062561e-06, -5.309255485864060e+01, -5.034763211794338e+03, 5.185734537352994e+02, 5.088488600935445e+03
1045, 9.999999999964645e-05, 7.999999999999128e-04, 1.195662989127612e-05, -2.995073771800998e-06, -4.674650603947930e+01, -1.016882260516049e+04, 2.829968795764951e+02, 1.013788801929657e+04
1046, 1.499999999997974e-04, 7.999999999994429e-04, 1.211438338675132e-05, -4.472166501908258e-06, -3.518638538741629e+01, -1.530718281877101e+04, -1.034200436013612e+01, 1.527201044032835e+04
1047, 1.999999999999061e-04, 7.999999999989728e-04, 1.234572735450253e-05, -5.959721360792249e-06, -1.892264067000565e+01, -2.044907639831408e+04, -3.623932259361028e+02, 2.044300608916887e+04
1048, -2.000000000000683e-04, 7.000000000024487e-04, 9.696858887254785e-06, 5.117360595980209e-06, -4.269331081406335e+00, 2.101848561471115e+04, 7.977902998797452e+02, 2.108321851523562e+04
1049, -1.500000000001667e-04, 7.000000000020254e-04, 9.418082285137597e-06, 3.824228692557196e-06, -2.814713411193520e+01, 1.579987119284608e+04, 8.575251378918880e+02, 1.592066460946229e+04
1050, -1.000000000002923e-04, 7.000000000016023e-04, 9.212777704615167e-06, 2.537335162936565e-06, -4.496751091853798e+01, 1.057522971454779e+04, 8.621326944727198e+02, 1.075926020873730e+04
1051, -5.000000000040459e-05, 7.000000000011791e-04, 9.081257514311871e-06, 1.253941565961617e-06, -5.656485417587373e+01, 5.342807849800728e+03, 8.113305918780380e+02, 5.637930020292578e+03
1052, -5.513337453678241e-16, 7.000000000007558e-04, 9.023826189621172e-06, -2.867221600069618e-08, -6.305898799953138e+01, 1.026808800833951e+02, 7.045469050319537e+02, 1.418807622418404e+03
1053, 4.999999999952868e-05, 7.000000000003326e-04, 9.040791865867172e-06, -1.313222987066592e-06, -6.303546582288209e+01, -5.143163470590591e+03, 5.411259166166515e+02, 5.194128374940496e+03
1054, 9.999999999963887e-05, 6.999999999999092e-04, 9.132453495424899e-06, -2.602448931814897e-06, -5.505211219008038e+01, -1.039256175881842e+04, 3.202429026829102e+02, 1.035733207737442e+04
1055, 1.499999999997930e-04, 6.999999999994860e-04, 9.299109475104944e-06, -3.899134263675456e-06, -3.920608876283427e+01, -1.564502659399010e+04, 4.100701305432722e+01, 1.560603600988574e+04
1056, 1.999999999999042e-04, 6.999999999990628e-04, 9.541042929208694e-06, -5.206122262230991e-06, -1.753313374071013e+01, -2.090191676359994e+04, -2.977157620566822e+02, 2.089287003499137e+04
1057, -2.000000000000702e-04, 6.000000000020976e-04, 7.218500269637359e-06, 4.406716739663787e-06, -1.625864707793312e+01, 2.147367366645136e+04, 7.312805682028254e+02, 2.153964428484822e+04
1058, -1.500000000001711e-04, 6.000000000017323e-04, 6.938424164898371e-06, 3.296427347348535e-06, -3.329478804837640e+01, 1.615766988173303e+04, 8.095721314896381e+02, 1.627172286767595e+04
1059, -1.000000000003000e-04, 6.000000000013669e-04, 6.733300115423786e-06, 2.192659490866134e-06, -4.557261099161769e+01, 1.083009015778682e+04, 8.345419365647695e+02, 1.100299421229215e+04
1060, -5.000000000041474e-05, 6.000000000010013e-04, 6.603503706457231e-06, 1.092712121785460e-06, -5.890071560306114e+01, 5.480697424034317e+03, 8.042210842909291e+02, 5.768382247939730e+03
1061, -5.641662945187267e-16, 6.000000000006360e-04, 6.549458705809167e-06, -6.143923687392882e-09, -7.237029693629142e+01, 1.112871018527399e+02, 7.159148237333903e+02, 1.443560244497887e+03
1062, 4.999999999951849e-05, 6.000000000002706e-04, 6.571527245203230e-06, -1.106685387419314e-06, -7.881996620585346e+01, -5.265060045127449e+03, 5.677080617658996e+02, 5.309072982149394e+03
1063, 9.999999999963128e-05, 5.999999999999052e-04, 6.670014693957711e-06, -2.211715135984779e-06, -7.069546428027479e+01, -1.063473803207100e+04, 3.600187279717941e+02, 1.058855274870255e+04
1064, 1.499999999997888e-04, 5.999999999995398e-04, 6.845157907825822e-06, -3.324037041816612e-06, -4.653524071734887e+01, -1.599500414739497e+04, 9.398197968011425e+01, 1.594957651216110e+04
1065, 1.999999999999023e-04, 5.999999999991742e-04, 7.097232337141085e-06, -4.446473414173398e-06, -1.207262081717454e+01, -2.135548949174774e+04, -2.300939475125156e+02, 2.134837737686523e+04
1066, -2.000000000000721e-04, 5.000000000017480e-04, 5.113950275724183e-06, 3.671607321568693e-06, -3.908005889433889e+01, 2.192126132152427e+04, 6.511639821643317e+02, 2.199892387529896e+04
1067, -1.500000000001754e-04, 5.000000000014432e-04, 4.831761165650308e-06, 2.747607815330850e-06, -3.316203895161607e+01, 1.654738297535681e+04, 7.506379879110217e+02, 1.664837236870585e+04
1068, -1.000000000003076e-04, 5.000000000011384e-04, 4.625704977981234e-06, 1.830593788403904e-06, -3.511630936161964e+01, 1.113371202397843e+04, 8.063731403767038e+02, 1.128466556463697e+04
1069, -5.000000000042491e-05, 5.000000000008338e-04, 4.496538464248734e-06, 9.181981374991386e-07, -5.210460157593434e+01, 5.654815413572168e+03, 8.088487839252280e+02, 5.931768832340594e+03
1070, -5.769852911424733e-16, 5.000000000005289e-04, 4.445050986433089e-06, 7.620136498532949e-09, -8.108751786249104e+01, 1.200309327579266e+02, 7.446150995509726e+02, 1.502749219629535e+03
1071, 4.999999999950832e-05, 5.000000000002242e-04, 4.471858048758313e-06, -9.043643905163429e-07, -1.027580439046305e+02, -5.422875111009610e+03, 6.079411734597008e+02, 5.457290123243580e+03
1072, 9.999999999962365e-05, 4.999999999999196e-04, 4.577070480457743e-06, -1.821013162620331e-06, -9.748079031583666e+01, -1.092585619915590e+04, 4.033215847541670e+02, 1.085837866339568e+04
1073, 1.499999999997844e-04, 4.999999999996149e-04, 4.760617048064979e-06, -2.745220727278215e-06, -6.021929184436908e+01, -1.637773573266573e+04, 1.427134742862161e+02, 1.632001260230662e+04
1074, 1.999999999999003e-04, 4.999999999993100e-04, 5.022450677725930e-06, -3.679488964430124e-06, 3.574373359532046e+00, -2.180227098902750e+04, -1.662324476180163e+02, 2.180837969393647e+04
1075, -2.000000000000740e-04, 4.000000000013997e-04, 3.391895574946531e-06, 2.913296656367419e-06, -8.257430103513207e+01, 2.234647300362097e+04, 5.411592182207714e+02, 2.245514587332628e+04
1076, -1.500000000001797e-04, 4.000000000011572e-04, 3.106306093891531e-06, 2.177603411934304e-06, -1.589228271897105e+01, 1.702235756714048e+04, 6.703486137956447e+02, 1.709091650562680e+04
1077, -1.000000000003152e-04, 4.000000000009148e-04, 2.897477019193905e-06, 1.450336301878653e-06, -2.522582523266192e+01, 1.152255371068101e+04, 7.863247925483581e+02, 1.165437424006847e+04
1078, -5.000000000043512e-05, 4.000000000006724e-04, 2.767037328954601e-06, 7.301589436121733e-07, -8.385658114422972e+01, 5.840084865557783e+03, 8.466298440231434e+02, 6.161185814039092e+03
1079, -5.898025937003254e-16, 4.000000000004300e-04, 2.717059029868210e-06, 1.387640949596274e-08, -8.876147784997283e+01, 1.268037209420143e+02, 8.172368516941874e+02, 1.648627502499682e+03
1080, 4.999999999949812e-05, 4.000000000001875e-04, 2.748454314652518e-06, -7.035044718771522e-07, -8.547561582098774e+01, -5.594351276818073e+03, 6.828554979131914e+02, 5.675638957196551e+03
1081, 9.999999999961606e-05, 3.999999999999452e-04, 2.861072423876991e-06, -1.427018608281129e-06, -1.203580416226871e+02, -1.130228305266081e+04, 4.577342382628657e+02, 1.121933730146270e+04
1082, 1.499999999997800e-04, 3.999999999997027e-04, 3.053614991100816e-06, -2.159981294226211e-06, -9.058302337368582e+01, -1.684684847837818e+04, 1.752039097116881e+02, 1.675992892701189e+04
1083, 1.999999999998984e-04, 3.999999999994603e-04, 3.325219990864434e-06, -2.903895496041159e-06, 3.869491086385938e+01, -2.222833172184619e+04, -1.236263202471537e+02, 2.226839933470859e+04
1084, -2.000000000000760e-04, 3.000000000010516e-04, 2.059429950308250e-06, 2.133534056438796e-06, -3.458365069946649e+01, 2.286584487554978e+04, 3.856015030512919e+02, 2.291341050045741e+04
1085, -1.500000000001842e-04, 3.000000000008717e-04, 1.768883238376538e-06, 1.584241119089278e-06, -1.800477928933628e+01, 1.758620605942159e+04, 5.871198885668175e+02, 1.764332956978331e+04
1086, -1.000000000003227e-04, 3.000000000006917e-04, 1.554187686045617e-06, 1.049298417077306e-06, -2.881319738858890e+02, 1.168252638272956e+04, 8.018143389613347e+02, 1.207759439737331e+04
1087, -5.000000000044532e-05, 3.000000000005118e-04, 1.421206106148626e-06, 5.283787709916280e-07, -2.370515038959970e+02, 5.898085241873796e+03, 9.309699533090986e+02, 6.411452495741673e+03
1088, -6.026207432911247e-16, 3.000000000003319e-04, 1.372057264299778e-06, 1.405141725926867e-08, -9.647848711457914e+01, 1.267479447296921e+02, 9.309961146706414e+02, 1.875325332309369e+03
1089, 4.999999999948792e-05, 3.000000000001520e-04, 1.407587367792125e-06, -5.010508988598933e-07, 5.425450150867323e+01, -5.651106553380136e+03, 8.061288612376968e+02, 5.928787374356031e+03
1090, 9.999999999960845e-05, 2.999999999999720e-04, 1.527720917821084e-06, -1.024326090877367e-06, 1.354938711146658e+02, -1.145509803213683e+04, 5.505288766034324e+02, 1.164277238649009e+04
1091, 1.499999999997756e-04, 2.999999999997920e-04, 1.731101457708791e-06, -1.563318037224338e-06, -9.003384209287560e+01, -1.740016363486633e+04, 2.072217090922226e+02, 1.731509043549988e+04
1092, 1.999999999998966e-04, 2.999999999996122e-04, 2.012681723670078e-06, -2.118585680962790e-06, -1.705257090916780e+01, -2.275046276765798e+04, -1.226263746213020e+02, 2.273473307704874e+04
1093, -2.000000000000778e-04, 2.000000000007014e-04, 1.113107565998580e-06, 1.332134104661666e-06, 2.734125505095192e+02, 2.357896626151291e+04, 2.996558046481389e+02, 2.331325820604021e+04
1094, -1.500000000001885e-04, 2.000000000005817e-04, 8.144532123778580e-07, 9.652327465397409e-07, -1.177696781722589e+03, 1.657095733728610e+04, 6.235235538337312e+02, 1.779240988525573e+04
1095, -1.000000000003304e-04, 2.000000000004620e-04, 6.001283170363851e-07, 6.331697167055383e-07, -8.704044997920760e+02, 1.098430027319961e+04, 8.463518918066550e+02, 1.197494348019441e+04
1096, -5.000000000045550e-05, 2.000000000003424e-04, 4.701900453712406e-07, 3.176799569615662e-07, -4.828875866447022e+02, 5.532148812253830e+03, 8.929650285795942e+02, 6.274568435290099e+03
1097, -6.154388928819240e-16, 2.000000000002227e-04, 4.237411101669592e-07, 9.884494585782381e-09, -1.068815246220352e+02, 1.095075356329708e+02, 8.752107237308613e+02, 1.763745862966668e+03
1098, 4.999999999947777e-05, 2.000000000001030e-04, 4.606080458996103e-07, -2.983732627349421e-07, 2.810738820316692e+02, -5.318038845951215e+03, 8.078535655148855e+02, 5.827570065981223e+03
1099, 9.999999999960084e-05, 1.999999999999833e-04, 5.816729119843512e-07, -6.152806043616023e-07, 7.051190278369836e+02, -1.078419463113600e+04, 6.740507429782600e+02, 1.156813321027647e+04
1100, 1.499999999997714e-04, 1.999999999998636e-04, 7.885675588430428e-07, -9.497642686589919e-07, 1.076694022685938e+03, -1.638734734512325e+04, 3.595191984401328e+02, 1.747883740735460e+04
1101, 1.999999999998946e-04, 1.999999999997439e-04, 1.081925887953141e-06, -1.320158672526160e-06, -3.122647266431443e+02, -2.345122628054472e+04, -6.027307451372383e+01, 2.313927555406566e+04
1102, -2.000000000000798e-04, 1.000000000003506e-04, 4.899052472920836e-07, 5.137784999674096e-07, -7.380444547487725e+03, 1.313721786742591e+04, 1.346552206978268e+03, 2.069365319021346e+04
1103, -1.500000000001928e-04, 1.000000000002906e-04, 2.300752283588558e-07, 3.697161828160467e-07, -3.439420954016110e+03, 1.108228764305643e+04, 1.087823456506795e+03, 1.468378221264522e+04
1104, -1.000000000003380e-04, 1.000000000002307e-04, 5.602720474512256e-08, 2.406293283124030e-07, -1.428757432284171e+03, 7.952716325688187e+03, 4.160863265832422e+02, 9.418309890643975e+03
1105, -5.000000000046567e-05, 1.000000000001708e-04, -4.543654845477793e-08, 1.205021087714109e-07, -5.425619121747252e+02, 4.136066606311102e+03, -8.014589831633543e+00, 4.678655976729809e+03
1106, -6.282434899455673e-16, 1.000000000001108e-04, -8.057037032121056e-08, 3.828955386828087e-09, -1.051745822117412e+02, 5.809915918017487e+01, -1.718100711111342e+02, 3.804380590437374e+02
1107, 4.999999999946757e-05, 1.000000000000509e-04, -5.121036649661005e-08, -1.130529521135160e-07, 3.373720198783394e+02, -4.027100705941162e+03, -6.349789648268120e+01, 4.366319972912340e+03
1108, 9.999999999959325e-05, 9.999999999999091e-05, 4.492842117159590e-08, -2.338352968273090e-07, 1.243613629089457e+03, -7.862740014616952e+03, 3.030708000308460e+02, 9.126504496441688e+03
1109, 1.499999999997670e-04, 9.999999999993101e-05, 2.146201131776407e-07, -3.641278567899667e-07, 3.309154088936644e+03, -1.100948452216564e+04, 9.137560411366435e+02, 1.443479172299358e+04
1110, 1.999999999998927e-04, 9.999999999987105e-05, 4.717951585480643e-07, -5.099098617800292e-07, 7.360964159455329e+03, -1.304690887481155e+04, 1.096693600839242e+03, 2.052540448320676e+04
