"PointID","x","y","Displacement_x","Displacement_y","Sxx","Syy","Sxy","Von_Mises_Stress"
0, -2.500000000000000e-04, 0.000000000000000e+00, 0.000000000000000e+00, 0.000000000000000e+00, 2.268634496721866e+04, 2.772576294918516e+04, 2.828155719478058e+03, 7.575591903701861e+03
1, 2.500000000000000e-04, 0.000000000000000e+00, 0.000000000000000e+00, 0.000000000000000e+00, -2.274168064727502e+04, -2.779711943999872e+04, 2.787191766333449e+03, 7.525371296902455e+03
2, 2.500000000000000e-04, 1.000000000000000e-02, 4.445775068868464e-04, -2.628867691631520e-05, 1.138918873576809e+01, 8.438248190965115e+00, 2.274734694085693e+00, 5.422704289639124e+00
3, -2.500000000000000e-04, 1.000000000000000e-02, 4.454820057239792e-04, 3.742199391665509e-06, 2.571953655291758e+00, 2.028381770788451e+01, 1.833757019296098e+00, 1.808758655655303e+01
4, -2.000000000000817e-04, 0.000000000000000e+00, 0.000000000000000e+00, 0.000000000000000e+00, 1.529932982087252e+04, 1.869826427651837e+04, 1.603869883926225e+03, 4.673579982415902e+03
5, -1.500000000001972e-04, 0.000000000000000e+00, 0.000000000000000e+00, 0.000000000000000e+00, 1.100043328034873e+04, 1.344587202614803e+04, 7.427269735553468e+02, 2.861248693917259e+03
6, -1.000000000003456e-04, 0.000000000000000e+00, 0.000000000000000e+00, 0.000000000000000e+00, 7.146033773738185e+03, 8.734645568119193e+03, 1.677908011734394e+02, 1.623669438364891e+03
7, -5.000000000047588e-05, 0.000000000000000e+00, 0.000000000000000e+00, 0.000000000000000e+00, 3.558027706258918e+03, 4.348653988580724e+03, -1.652452024585528e+02, 8.569211317503331e+02
8, -6.410887445906788e-16, 0.000000000000000e+00, 0.000000000000000e+00, 0.000000000000000e+00, 7.238375149581304e+01, 8.812313777084444e+01, -2.775627863838456e+02, 5.553486560900025e+02
9, 4.999999999945738e-05, 0.000000000000000e+00, 0.000000000000000e+00, 0.000000000000000e+00, -3.419551496305154e+03, -4.179519986464747e+03, -1.756974369809353e+02, 8.372756197824743e+02
10, 9.999999999958566e-05, 0.000000000000000e+00, 0.000000000000000e+00, 0.000000000000000e+00, -7.026662062037735e+03, -8.587557504565346e+03, 1.474094684930048e+02, 1.588493874117566e+03
11, 1.499999999997626e-04, 0.000000000000000e+00, 0.000000000000000e+00, 0.000000000000000e+00, -1.091386129722333e+04, -1.333823832528822e+04, 7.135397920219229e+02, 2.813211707888956e+03
12, 1.999999999998909e-04, 0.000000000000000e+00, 0.000000000000000e+00, 0.000000000000000e+00, -1.525662385923752e+04, -1.864777437882470e+04, 1.567815315369079e+03, 4.618666614827236e+03
13, 2.500000000000000e-04, 9.999999999981111e-05, 3.514293368918808e-07, -3.175014145051895e-07, 1.213977053325450e+03, -9.360393138081199e+03, 7.274137927962815e+02, 1.067397902605727e+04
14, 2.500000000000000e-04, 1.999999999996242e-04, 6.035762899719835e-07, -7.173376545892175e-07, -2.428374963488438e+03, -1.359330042610890e+04, -8.445564249248852e+01, 1.116620309720658e+04
15, 2.500000000000000e-04, 2.999999999994322e-04, 9.935952352114384e-07, -1.121975707990278e-06, -2.591233894453428e+03, -1.381387997693714e+04, -3.936400136668522e+01, 1.122292222155627e+04
16, 2.500000000000000e-04, 3.999999999992179e-04, 1.541567320588113e-06, -1.528969020505583e-06, -2.827785123200207e+03, -1.395185631765214e+04, -3.838272389328819e+01, 1.112433606437747e+04
17, 2.500000000000000e-04, 4.999999999990053e-04, 2.250782672407452e-06, -1.931507557493885e-06, -2.837401312579999e+03, -1.377381316872491e+04, -4.597821454679746e+01, 1.093679844708124e+04
18, 2.500000000000000e-04, 5.999999999988090e-04, 3.118720513905907e-06, -2.327931155945003e-06, -2.799028017097055e+03, -1.352119933483154e+04, -5.966913655149443e+01, 1.072283541747588e+04
19, 2.500000000000000e-04, 6.999999999986395e-04, 4.142153218110131e-06, -2.717935445128182e-06, -2.743963650135053e+03, -1.324713638508432e+04, -7.395396350298438e+01, 1.050421411886928e+04
20, 2.500000000000000e-04, 7.999999999985029e-04, 5.317826214333409e-06, -3.101717014682474e-06, -2.686826228600645e+03, -1.297250460393481e+04, -8.762918719486925e+01, 1.028717138666459e+04
21, 2.500000000000000e-04, 8.999999999983563e-04, 6.642581909992417e-06, -3.479555380475874e-06, -2.630226768834277e+03, -1.270096090763334e+04, -1.003512497214998e+02, 1.007273386860070e+04
22, 2.500000000000000e-04, 9.999999999981935e-04, 8.113329897234466e-06, -3.851723741855432e-06, -2.574575030164583e+03, -1.243282630801741e+04, -1.121312316522092e+02, 9.860801788380813e+03
23, 2.500000000000000e-04, 1.099999999998054e-03, 9.727024142079285e-06, -4.218473863850084e-06, -2.519709688864058e+03, -1.216778030968185e+04, -1.230190006281084e+02, 9.651207251030801e+03
24, 2.500000000000000e-04, 1.199999999997903e-03, 1.148065260701288e-05, -4.580040016851403e-06, -2.465517436204078e+03, -1.190563889519542e+04, -1.330601573032804e+02, 9.443871726275995e+03
25, 2.500000000000000e-04, 1.299999999997659e-03, 1.337123449097075e-05, -4.936642572263808e-06, -2.411949153533917e+03, -1.164633664055458e+04, -1.422907570185376e+02, 9.238771503753920e+03
26, 2.500000000000000e-04, 1.399999999997322e-03, 1.539581989223643e-05, -5.288489841441762e-06, -2.358989828236151e+03, -1.138986137413314e+04, -1.507425458237703e+02, 9.035902508270965e+03
27, 2.500000000000000e-04, 1.499999999997028e-03, 1.755148997315510e-05, -5.635778888752946e-06, -2.306634054867162e+03, -1.113621438956440e+04, -1.584455302180649e+02, 8.835265068522644e+03
28, 2.500000000000000e-04, 1.599999999996764e-03, 1.983535709222519e-05, -5.978696003311502e-06, -2.254879511674457e+03, -1.088539968781930e+04, -1.654287093411536e+02, 8.636859680598054e+03
29, 2.500000000000000e-04, 1.699999999996466e-03, 2.224456492222923e-05, -6.317417120150238e-06, -2.203723392810207e+03, -1.063741998442834e+04, -1.717205757670396e+02, 8.440686584872015e+03
30, 2.500000000000000e-04, 1.799999999996210e-03, 2.477628849688943e-05, -6.652108199288804e-06, -2.153162321034809e+03, -1.039227661023405e+04, -1.773490388956848e+02, 8.246745721608981e+03
31, 2.500000000000000e-04, 1.899999999995898e-03, 2.742773421176712e-05, -6.982925622345585e-06, -2.103195883880618e+03, -1.014997307964817e+04, -1.823411852421829e+02, 8.055036714358713e+03
32, 2.500000000000000e-04, 1.999999999995521e-03, 3.019613997548419e-05, -7.310016599680756e-06, -2.053819130389544e+03, -9.910508482009378e+03, -1.867238060136623e+02, 7.865559782163340e+03
33, 2.500000000000000e-04, 2.099999999995151e-03, 3.307877510768330e-05, -7.633519516411540e-06, -2.005031333884310e+03, -9.673884950271400e+03, -1.905228421500153e+02, 7.678314372510223e+03
34, 2.500000000000000e-04, 2.199999999994897e-03, 3.607294046420185e-05, -7.953564336411201e-06, -1.956829600982693e+03, -9.440102627689765e+03, -1.937637098342784e+02, 7.493300520680896e+03
35, 2.500000000000000e-04, 2.299999999994653e-03, 3.917596842866094e-05, -8.270272947898872e-06, -1.909210479805024e+03, -9.209160675594014e+03, -1.964713727772524e+02, 7.310518234864312e+03
36, 2.500000000000000e-04, 2.399999999994409e-03, 4.238522285796486e-05, -8.583759522813914e-06, -1.862174850276501e+03, -8.981061648654671e+03, -1.986700638907834e+02, 7.129966930166540e+03
37, 2.500000000000000e-04, 2.499999999994080e-03, 4.569809924011586e-05, -8.894130872525212e-06, -1.815721630821880e+03, -8.755806545848540e+03, -2.003830969654049e+02, 6.951646723617245e+03
38, 2.500000000000000e-04, 2.599999999993751e-03, 4.911202473654120e-05, -9.201486804715959e-06, -1.769846596303616e+03, -8.533393279143776e+03, -2.016337764854722e+02, 6.775558165216893e+03
39, 2.500000000000000e-04, 2.699999999993507e-03, 5.262445805670637e-05, -9.505920420659433e-06, -1.724550088324075e+03, -8.313823211585241e+03, -2.024446565106690e+02, 6.601700966321548e+03
40, 2.500000000000000e-04, 2.799999999993264e-03, 5.623288957168035e-05, -9.807518466201174e-06, -1.679831896729473e+03, -8.097097153341585e+03, -2.028375982513351e+02, 6.430075095889502e+03
41, 2.500000000000000e-04, 2.899999999993009e-03, 5.993484138057421e-05, -1.010636163143988e-05, -1.635689435400866e+03, -7.883213805638735e+03, -2.028339265751723e+02, 6.260681046323609e+03
42, 2.500000000000000e-04, 2.999999999992623e-03, 6.372786722350774e-05, -1.040252487457064e-05, -1.592125966221698e+03, -7.672176664489614e+03, -2.024543298660773e+02, 6.093518484113613e+03
43, 2.500000000000000e-04, 3.099999999992220e-03, 6.760955271610968e-05, -1.069607772197219e-05, -1.549136975605056e+03, -7.463982643942813e+03, -2.017189635172076e+02, 5.928588486412575e+03
44, 2.500000000000000e-04, 3.199999999991949e-03, 7.157751516535952e-05, -1.098708455699123e-05, -1.506722768075814e+03, -7.258632381619589e+03, -2.006478019437024e+02, 5.765891289651295e+03
45, 2.500000000000000e-04, 3.299999999991705e-03, 7.562940364529291e-05, -1.127560490095077e-05, -1.464883581764091e+03, -7.056126299240575e+03, -1.992600390045494e+02, 5.605427136116406e+03
46, 2.500000000000000e-04, 3.399999999991461e-03, 7.976289905163598e-05, -1.156169369301857e-05, -1.423619993325511e+03, -6.856465249322722e+03, -1.975740978376237e+02, 5.447196496561954e+03
47, 2.500000000000000e-04, 3.499999999991149e-03, 8.397571417663592e-05, -1.184540157721768e-05, -1.382928640236468e+03, -6.659646543291967e+03, -1.956083475347875e+02, 5.291200462175629e+03
48, 2.500000000000000e-04, 3.599999999990803e-03, 8.826559356372147e-05, -1.212677513314613e-05, -1.342811226788131e+03, -6.465671611655247e+03, -1.933805989038383e+02, 5.137439318081575e+03
49, 2.500000000000000e-04, 3.699999999990560e-03, 9.263031360137939e-05, -1.240585716314548e-05, -1.303272557327894e+03, -6.274544423138174e+03, -1.909077707144245e+02, 4.985912862402776e+03
50, 2.500000000000000e-04, 3.799999999990315e-03, 9.706768278447034e-05, -1.268268692354890e-05, -1.264307869419405e+03, -6.086260843329526e+03, -1.882062212182745e+02, 4.836622458846847e+03
51, 2.500000000000000e-04, 3.899999999990071e-03, 1.015755414819293e-04, -1.295730036731229e-05, -1.225917439800141e+03, -5.900820895232000e+03, -1.852923125281102e+02, 4.689568773558693e+03
52, 2.500000000000000e-04, 3.999999999989709e-03, 1.061517619880869e-04, -1.322973037896856e-05, -1.188102131557736e+03, -5.718225008739762e+03, -1.821817291565943e+02, 4.544752359823570e+03
53, 2.500000000000000e-04, 4.099999999989249e-03, 1.107942485875534e-04, -1.350000700067749e-05, -1.150861695077549e+03, -5.538472630758257e+03, -1.788896697727922e+02, 4.402173983239486e+03
54, 2.500000000000000e-04, 4.199999999988788e-03, 1.155009375375222e-04, -1.376815765196080e-05, -1.114196856433420e+03, -5.361564220376064e+03, -1.754308966034650e+02, 4.261834525438249e+03
55, 2.500000000000000e-04, 4.299999999988333e-03, 1.202697971020357e-04, -1.403420736063566e-05, -1.078109447200484e+03, -5.187501369067097e+03, -1.718196105857820e+02, 4.123734943207428e+03
56, 2.500000000000000e-04, 4.399999999988144e-03, 1.250988276571034e-04, -1.429817897400822e-05, -1.042596575177822e+03, -5.016281549510363e+03, -1.680699060391869e+02, 3.987876909898335e+03
57, 2.500000000000000e-04, 4.499999999988117e-03, 1.299860615280120e-04, -1.456009333892356e-05, -1.007662700604698e+03, -4.847908305353616e+03, -1.641951824185732e+02, 3.854260828811570e+03
58, 2.500000000000000e-04, 4.599999999988090e-03, 1.349295632294810e-04, -1.481996952061401e-05, -9.733079617687927e+02, -4.682381368538388e+03, -1.602081446380390e+02, 3.722887607118816e+03
59, 2.500000000000000e-04, 4.699999999988035e-03, 1.399274294754040e-04, -1.507782495487228e-05, -9.395297430757876e+02, -4.519698742042624e+03, -1.561211500367185e+02, 3.593759217743775e+03
60, 2.500000000000000e-04, 4.799999999987717e-03, 1.449777889990459e-04, -1.533367569282269e-05, -9.063332816236370e+02, -4.359864860691562e+03, -1.519467619744869e+02, 3.466876352210664e+03
61, 2.500000000000000e-04, 4.899999999987257e-03, 1.500788028223709e-04, -1.558753652483907e-05, -8.737160009358111e+02, -4.202877230756195e+03, -1.476964770080222e+02, 3.342240489764537e+03
62, 2.500000000000000e-04, 4.999999999986965e-03, 1.552286641424520e-04, -1.583942116220654e-05, -8.416792227120428e+02, -4.048736941040131e+03, -1.433815147271815e+02, 3.219852829517152e+03
63, 2.500000000000000e-04, 5.099999999987202e-03, 1.604255984003726e-04, -1.608934241314812e-05, -8.102236948757215e+02, -3.897444578485285e+03, -1.390127792052844e+02, 3.099714663533488e+03
64, 2.500000000000000e-04, 5.199999999987608e-03, 1.656678632923814e-04, -1.633731232871734e-05, -7.793508628073095e+02, -3.749001233489822e+03, -1.346006636623707e+02, 2.981827070560629e+03
65, 2.500000000000000e-04, 5.299999999988015e-03, 1.709537488401948e-04, -1.658334236229668e-05, -7.490599284612133e+02, -3.603406199060484e+03, -1.301552832122853e+02, 2.866191588759594e+03
66, 2.500000000000000e-04, 5.399999999988211e-03, 1.762815773402121e-04, -1.682744351080221e-05, -7.193518302779760e+02, -3.460660248301628e+03, -1.256864744405275e+02, 2.752809510692030e+03
67, 2.500000000000000e-04, 5.499999999988184e-03, 1.816497033992610e-04, -1.706962646261704e-05, -6.902283607039316e+02, -3.320764918090767e+03, -1.212035766702613e+02, 2.641682003523369e+03
68, 2.500000000000000e-04, 5.599999999988157e-03, 1.870565140215294e-04, -1.730990173234170e-05, -6.616896932427488e+02, -3.183720486258127e+03, -1.167154048912946e+02, 2.532810546383904e+03
69, 2.500000000000000e-04, 5.699999999988293e-03, 1.925004286166769e-04, -1.754827979593126e-05, -6.337362157720245e+02, -3.049527321323402e+03, -1.122305519788293e+02, 2.426196499224875e+03
70, 2.500000000000000e-04, 5.799999999988694e-03, 1.979798990078307e-04, -1.778477120427559e-05, -6.063688457014706e+02, -2.918186095161460e+03, -1.077573255718920e+02, 2.321840985028557e+03
71, 2.500000000000000e-04, 5.899999999989099e-03, 2.034934094380555e-04, -1.801938670376245e-05, -5.795880876725216e+02, -2.789697384033300e+03, -1.033038044248268e+02, 2.219745437183036e+03
72, 2.500000000000000e-04, 5.999999999989505e-03, 2.090394765721072e-04, -1.825213736562588e-05, -5.533953578949779e+02, -2.664062966170398e+03, -9.887763780599109e+01, 2.119911531563394e+03
73, 2.500000000000000e-04, 6.099999999989911e-03, 2.146166495866932e-04, -1.848303471308913e-05, -5.277903819212229e+02, -2.541283374630132e+03, -9.448607848075005e+01, 2.022341343046361e+03
74, 2.500000000000000e-04, 6.199999999990317e-03, 2.202235101780558e-04, -1.871209081960816e-05, -5.027758596102241e+02, -2.421361438752278e+03, -9.013573822427722e+01, 1.927036177582764e+03
75, 2.500000000000000e-04, 6.299999999990723e-03, 2.258586727076427e-04, -1.893931840735349e-05, -4.783473371190751e+02, -2.304294066631855e+03, -8.583345527574463e+01, 1.833998633368278e+03
76, 2.500000000000000e-04, 6.399999999990975e-03, 2.315207839066461e-04, -1.916473093541919e-05, -4.545119900689011e+02, -2.190087258527579e+03, -8.158584078986169e+01, 1.743228760133037e+03
77, 2.500000000000000e-04, 6.499999999990961e-03, 2.372085232676195e-04, -1.938834267320940e-05, -4.312682468963552e+02, -2.078738964360664e+03, -7.739836015515678e+01, 1.654727104244441e+03
78, 2.500000000000000e-04, 6.599999999990934e-03, 2.429206029879147e-04, -1.961016874643229e-05, -4.086113850914722e+02, -1.970245615261619e+03, -7.327644576114169e+01, 1.568495845978767e+03
79, 2.500000000000000e-04, 6.699999999991035e-03, 2.486557676630430e-04, -1.983022531292485e-05, -3.865499477696180e+02, -1.864614288540399e+03, -6.922629882262881e+01, 1.484534714061238e+03
80, 2.500000000000000e-04, 6.799999999991401e-03, 2.544127946827584e-04, -2.004852955107412e-05, -3.650798290773595e+02, -1.761841249449845e+03, -6.525269999014357e+01, 1.402845010991940e+03
81, 2.500000000000000e-04, 6.899999999991809e-03, 2.601904940499344e-04, -2.026509978369892e-05, -3.442035002391599e+02, -1.661928923487001e+03, -6.136016508942096e+01, 1.323427584158992e+03
82, 2.500000000000000e-04, 6.999999999992214e-03, 2.659877085885105e-04, -2.047995555119988e-05, -3.239140238323573e+02, -1.564872789737265e+03, -5.755327743920892e+01, 1.246285752808003e+03
83, 2.500000000000000e-04, 7.099999999992620e-03, 2.718033135257239e-04, -2.069311771564774e-05, -3.042181056146949e+02, -1.470679838247733e+03, -5.383733357916910e+01, 1.171420849927526e+03
84, 2.500000000000000e-04, 7.199999999993026e-03, 2.776362168030976e-04, -2.090460851539727e-05, -2.851237468467662e+02, -1.379356389525948e+03, -5.021596447927853e+01, 1.098831947414619e+03
85, 2.500000000000000e-04, 7.299999999993359e-03, 2.834853595507592e-04, -2.111445153475575e-05, -2.666143036932441e+02, -1.290889543536360e+03, -4.669224659927298e+01, 1.028523422448717e+03
86, 2.500000000000000e-04, 7.399999999993427e-03, 2.893497152114503e-04, -2.132267188097530e-05, -2.487033676116524e+02, -1.205291381870676e+03, -4.327081060039531e+01, 9.604947065049778e+02
87, 2.500000000000000e-04, 7.499999999993399e-03, 2.952282902318441e-04, -2.152929614622054e-05, -2.313871290204913e+02, -1.122557198398743e+03, -3.995479685150632e+01, 8.947455703837928e+02
88, 2.500000000000000e-04, 7.599999999993372e-03, 3.011201238669871e-04, -2.173435237651935e-05, -2.146676526682768e+02, -1.042686284509104e+03, -3.674618340623459e+01, 8.312737110334075e+02
89, 2.500000000000000e-04, 7.699999999993440e-03, 3.070242884072519e-04, -2.193787012662877e-05, -1.985361735575383e+02, -9.656701854514677e+02, -3.364683904597737e+01, 7.700798863206459e+02
90, 2.500000000000000e-04, 7.799999999993771e-03, 3.129398886625214e-04, -2.213988055063550e-05, -1.829902261385807e+02, -8.915088693898563e+02, -3.066023968178655e+01, 7.111672581214680e+02
91, 2.500000000000000e-04, 7.899999999994177e-03, 3.188660617439233e-04, -2.234041659973049e-05, -1.680445038929140e+02, -8.202150148281135e+02, -2.779066560649081e+01, 6.545346894648794e+02
92, 2.500000000000000e-04, 7.999999999994584e-03, 3.248019778336171e-04, -2.253951285467424e-05, -1.536906970415260e+02, -7.517811122756844e+02, -2.503962757966807e+01, 6.001833691400336e+02
93, 2.500000000000000e-04, 8.099999999994990e-03, 3.307468397852212e-04, -2.273720564823721e-05, -1.399278977145859e+02, -6.862079156653047e+02, -2.240907976860872e+01, 5.481154307593804e+02
94, 2.500000000000000e-04, 8.199999999995398e-03, 3.366998832096075e-04, -2.293353314849134e-05, -1.267583746514035e+02, -6.234982258181544e+02, -1.990111862437584e+01, 4.983319153206744e+02
95, 2.500000000000000e-04, 8.299999999995804e-03, 3.426603765254312e-04, -2.312853530749569e-05, -1.141833298195079e+02, -5.636522198414216e+02, -1.751737326991348e+01, 4.508322488050750e+02
96, 2.500000000000000e-04, 8.399999999996209e-03, 3.486276210247968e-04, -2.332225384620766e-05, -1.022013039451632e+02, -5.066663231962183e+02, -1.525867476314580e+01, 4.056146698775405e+02
97, 2.500000000000000e-04, 8.499999999996616e-03, 3.546009509404533e-04, -2.351473220641649e-05, -9.080266345801661e+01, -4.525305021599204e+02, -1.312538250741796e+01, 3.626791032797653e+02
98, 2.500000000000000e-04, 8.599999999997021e-03, 3.605797329685654e-04, -2.370601562747866e-05, -7.998742779888192e+01, -4.012450893711961e+02, -1.111889931319780e+01, 3.220264038967297e+02
99, 2.500000000000000e-04, 8.699999999997429e-03, 3.665633662204060e-04, -2.389615126560942e-05, -6.976175638364204e+01, -3.528146272343498e+02, -9.241436680079849e+00, 2.836556791331263e+02
100, 2.500000000000000e-04, 8.799999999997834e-03, 3.725512824935376e-04, -2.408518808099980e-05, -6.012298202661722e+01, -3.072362004216830e+02, -7.493291767723439e+00, 2.475672441815201e+02
101, 2.500000000000000e-04, 8.899999999997930e-03, 3.785429462143870e-04, -2.427317695030218e-05, -5.106332534172067e+01, -2.645072052449229e+02, -5.874788466835578e+00, 2.137670283889751e+02
102, 2.500000000000000e-04, 8.999999999997496e-03, 3.845378541550808e-04, -2.446017087273302e-05, -4.257981250312163e+01, -2.246316013968998e+02, -4.387962781010548e+00, 1.822631907678974e+02
103, 2.500000000000000e-04, 9.099999999997034e-03, 3.905355354199649e-04, -2.464622497946256e-05, -3.467686902258351e+01, -1.876176326954002e+02, -3.033977692747817e+00, 1.530610900110956e+02
104, 2.500000000000000e-04, 9.199999999996832e-03, 3.965355519393832e-04, -2.483139644049967e-05, -2.734461078895423e+01, -1.534552707447832e+02, -1.812074427514605e+00, 1.261627243262372e+02
105, 2.500000000000000e-04, 9.299999999997156e-03, 4.025374984664024e-04, -2.501574412309639e-05, -2.055626677622084e+01, -1.221145612190716e+02, -7.191125760222215e-01, 1.015684776972105e+02
106, 2.500000000000000e-04, 9.399999999997563e-03, 4.085410016789545e-04, -2.519932843638035e-05, -1.430326740902582e+01, -9.357817345135101e+01, 2.482386465540070e-01, 7.927646067857759e+01
107, 2.500000000000000e-04, 9.499999999997968e-03, 4.145457196763795e-04, -2.538221125799052e-05, -8.550830630096531e+00, -6.780707081911106e+01, 1.088837592774683e+00, 5.929624162248345e+01
108, 2.500000000000000e-04, 9.599999999998375e-03, 4.205513398725550e-04, -2.556445590920451e-05, -3.315158302283455e+00, -4.481464378970482e+01, 1.794475380598783e+00, 4.165438588296551e+01
109, 2.500000000000000e-04, 9.699999999998783e-03, 4.265575774450756e-04, -2.574612781927953e-05, 1.328571543648090e+00, -2.486734846899560e+01, 2.353332964139603e+00, 2.661538895957094e+01
110, 2.500000000000000e-04, 9.799999999999188e-03, 4.325641693340974e-04, -2.592730760893451e-05, 5.062875125152482e+00, -8.765613405717376e+00, 2.607703867623862e+00, 1.477929541261291e+01
111, 2.500000000000000e-04, 9.899999999999593e-03, 4.385708752152742e-04, -2.610810311018525e-05, 7.623583377652817e+00, 2.195016897680374e+00, 2.362866990765530e+00, 7.197353381047633e+00
112, 2.000000000000817e-04, 1.000000000000000e-02, 4.446677095527513e-04, -2.328550981605445e-05, 9.885616874408951e+00, 6.805356192759271e+00, 3.196320826174111e+00, 7.096046304968307e+00
113, 1.500000000001972e-04, 1.000000000000000e-02, 4.447579193751972e-04, -2.028243699518414e-05, 9.249714268886795e+00, 8.049829818948494e+00, 4.780642838282970e+00, 9.636280739066743e+00
114, 1.000000000003456e-04, 1.000000000000000e-02, 4.448481801848100e-04, -1.727945077697632e-05, 5.879332308106338e+00, 8.521048764253983e+00, 6.144152851759573e+00, 1.256905417673989e+01
115, 5.000000000047588e-05, 1.000000000000000e-02, 4.449385214689776e-04, -1.427651850134192e-05, 9.050536998618366e-01, 8.603480889294804e+00, 7.035179921088528e+00, 1.603872835605584e+01
116, 6.410887445906788e-16, 1.000000000000000e-02, 4.450289593900364e-04, -1.127359238396421e-05, -4.347709558963855e+00, 8.973367431199122e+00, 7.280343426047685e+00, 1.973485986224966e+01
117, -4.999999999945738e-05, 1.000000000000000e-02, 4.451194968375292e-04, -8.270616694288374e-06, -8.281992252907093e+00, 1.061556082922935e+01, 6.788046894610225e+00, 2.326860191472352e+01
118, -9.999999999958566e-05, 1.000000000000000e-02, 4.452101221414868e-04, -5.267540247374052e-06, -8.987575036686941e+00, 1.471468280605386e+01, 5.643850151108509e+00, 2.625279423140398e+01
119, -1.499999999997626e-04, 1.000000000000000e-02, 4.453008044702583e-04, -2.264338023833669e-06, -4.150646115776297e+00, 2.236012231037962e+01, 4.260289591654019e+00, 2.784638418474268e+01
120, -1.999999999998909e-04, 1.000000000000000e-02, 4.453914809085744e-04, 7.389541458960686e-07, 1.081103250035993e+01, 3.520719072700267e+01, 3.469188490349395e+00, 2.536362772447347e+01
121, -2.500000000000000e-04, 9.899999999999590e-03, 4.394753515073150e-04, 3.922120531996164e-06, -1.138744936994885e+01, 1.907365617544030e+01, -1.675528284234914e+00, 3.064487773139946e+01
122, -2.500000000000000e-04, 9.799999999999181e-03, 4.334685515922224e-04, 4.101399997880612e-06, 2.102457623233349e+00, 4.590545175476919e+01, 4.362241161440982e-01, 4.381168178471795e+01
123, -2.500000000000000e-04, 9.699999999999055e-03, 4.274618907930984e-04, 4.280198312408744e-06, 7.665356694754639e+00, 6.460847057801652e+01, 2.456990542548864e+00, 5.715474983609702e+01
124, -2.500000000000000e-04, 9.599999999999458e-03, 4.214555696034688e-04, 4.458441178781112e-06, 1.185691814933868e+01, 8.460706436999729e+01, 4.361672356447031e+00, 7.327128030891220e+01
125, -2.500000000000000e-04, 9.499999999999916e-03, 4.154498069477286e-04, 4.636012669138926e-06, 1.647809896296138e+01, 1.077929306666514e+02, 6.306868807987085e+00, 9.218191181418339e+01
126, -2.500000000000000e-04, 9.400000000000373e-03, 4.094448595889198e-04, 4.812803721706874e-06, 2.170677345555240e+01, 1.341080750789990e+02, 8.312818745692612e+00, 1.136242246558364e+02
127, -2.500000000000000e-04, 9.300000000000832e-03, 4.034410198462160e-04, 4.988707728145397e-06, 2.773529506143483e+01, 1.635623630055063e+02, 1.040283800877139e+01, 1.374113115461400e+02
128, -2.500000000000000e-04, 9.200000000001289e-03, 3.974386223760127e-04, 5.163620769209735e-06, 3.427831979848915e+01, 1.958153774762182e+02, 1.258701814418584e+01, 1.634868591239866e+02
129, -2.500000000000000e-04, 9.100000000001746e-03, 3.914380283713966e-04, 5.337439371603973e-06, 4.150636255092412e+01, 2.309590577879789e+02, 1.487966953459049e+01, 1.917757596632558e+02
130, -2.500000000000000e-04, 9.000000000002204e-03, 3.854396352702135e-04, 5.510058928649751e-06, 4.935940190693064e+01, 2.689291491650710e+02, 1.727595803687986e+01, 2.222717004374866e+02
131, -2.500000000000000e-04, 8.900000000002661e-03, 3.794438735329725e-04, 5.681372974305399e-06, 5.781318516139836e+01, 3.097045501891670e+02, 1.978127466181427e+01, 2.549793228568487e+02
132, -2.500000000000000e-04, 8.800000000003118e-03, 3.734512057204242e-04, 5.851273058364852e-06, 6.686601115062925e+01, 3.532830427722384e+02, 2.240085490353102e+01, 2.898998261547772e+02
133, -2.500000000000000e-04, 8.700000000003576e-03, 3.674621269946540e-04, 6.019648886428988e-06, 7.649495534518181e+01, 3.996448666049899e+02, 2.513726722065750e+01, 3.270372975067414e+02
134, -2.500000000000000e-04, 8.600000000004033e-03, 3.614771643204923e-04, 6.186388274321790e-06, 8.670000723888694e+01, 4.487923049584803e+02, 2.799298188587814e+01, 3.663949511214736e+02
135, -2.500000000000000e-04, 8.500000000004490e-03, 3.554968766360696e-04, 6.351377028785493e-06, 9.748966131949794e+01, 5.007346025963968e+02, 3.096986450204603e+01, 4.079742794521609e+02
136, -2.500000000000000e-04, 8.400000000004949e-03, 3.495218552597099e-04, 6.514499069140146e-06, 1.088829245507779e+02, 5.554930346157837e+02, 3.406490971048456e+01, 4.517767841607296e+02
137, -2.500000000000000e-04, 8.300000000005149e-03, 3.435527247944511e-04, 6.675636095398007e-06, 1.208561203330151e+02, 6.130520654565479e+02, 3.728007026136930e+01, 4.978112724224093e+02
138, -2.500000000000000e-04, 8.200000000005172e-03, 3.375901417428780e-04, 6.834668044549956e-06, 1.334489887619535e+02, 6.734507617200936e+02, 4.061109877052751e+01, 5.460759655682832e+02
139, -2.500000000000000e-04, 8.100000000005195e-03, 3.316347967026071e-04, 6.991472526925908e-06, 1.466254186827437e+02, 7.366660740555628e+02, 4.405848293032871e+01, 5.965840885116482e+02
140, -2.500000000000000e-04, 8.000000000005220e-03, 3.256874123891090e-04, 7.145925360827834e-06, 1.603865611555540e+02, 8.026983882032480e+02, 4.762480362716180e+01, 6.493357920578918e+02
141, -2.500000000000000e-04, 7.900000000005243e-03, 3.197487437226573e-04, 7.297900652550457e-06, 1.747882098728603e+02, 8.715987448749777e+02, 5.130267097999934e+01, 7.043243414000862e+02
142, -2.500000000000000e-04, 7.800000000005240e-03, 3.138195809506057e-04, 7.447270313860911e-06, 1.897485453998794e+02, 9.433013739573735e+02, 5.509273189426920e+01, 7.615659537146439e+02
143, -2.500000000000000e-04, 7.700000000005121e-03, 3.079007453484501e-04, 7.593904856509124e-06, 2.053047790815334e+02, 1.017838322411358e+03, 5.899378174754719e+01, 8.210553112766701e+02
144, -2.500000000000000e-04, 7.600000000005145e-03, 3.019930914665304e-04, 7.737672772296656e-06, 2.214517657360487e+02, 1.095205932996858e+03, 6.300497754633241e+01, 8.827937774973755e+02
145, -2.500000000000000e-04, 7.500000000005337e-03, 2.960975069629869e-04, 7.878441170162771e-06, 2.381541992675352e+02, 1.175371273295917e+03, 6.712550876539041e+01, 9.467835970053408e+02
146, -2.500000000000000e-04, 7.400000000005796e-03, 2.902149107015701e-04, 8.016075656698340e-06, 2.554807368210730e+02, 1.258396138849618e+03, 7.134938121816286e+01, 1.013016406790600e+03
147, -2.500000000000000e-04, 7.300000000006254e-03, 2.843462563406022e-04, 8.150439837842530e-06, 2.733964234366076e+02, 1.344258220470220e+03, 7.567224579038697e+01, 1.081503649313261e+03
148, -2.500000000000000e-04, 7.200000000006711e-03, 2.784925302664100e-04, 8.281395753119018e-06, 2.918956569924387e+02, 1.432953021914160e+03, 8.009384933179639e+01, 1.152246505243232e+03
149, -2.500000000000000e-04, 7.100000000007169e-03, 2.726547514220783e-04, 8.408804032326029e-06, 3.109994753597848e+02, 1.524498033909377e+03, 8.460950191146759e+01, 1.225240312288477e+03
150, -2.500000000000000e-04, 7.000000000007627e-03, 2.668339725965883e-04, 8.532523823773266e-06, 3.306818663391207e+02, 1.618873552354025e+03, 8.921493643465978e+01, 1.300490307326465e+03
151, -2.500000000000000e-04, 6.900000000008085e-03, 2.610312790754364e-04, 8.652412884529723e-06, 3.509544367093022e+02, 1.716089488431645e+03, 9.390731309898743e+01, 1.377994210167390e+03
152, -2.500000000000000e-04, 6.800000000008542e-03, 2.552477893913255e-04, 8.768327695344281e-06, 3.718041271466608e+02, 1.816133811881073e+03, 9.868298968088175e+01, 1.457752231352926e+03
153, -2.500000000000000e-04, 6.700000000009001e-03, 2.494846546496995e-04, 8.880123597660603e-06, 3.932490896591755e+02, 1.919023377394767e+03, 1.035359659956580e+02, 1.539761657573556e+03
154, -2.500000000000000e-04, 6.600000000009459e-03, 2.437430595320228e-04, 8.987654566297141e-06, 4.152802142994064e+02, 2.024751679484963e+03, 1.084613803174501e+02, 1.624023978064366e+03
155, -2.500000000000000e-04, 6.500000000009916e-03, 2.380242219467759e-04, 9.090773593579640e-06, 4.378722323506811e+02, 2.133296981459451e+03, 1.134553464871175e+02, 1.710541885624723e+03
156, -2.500000000000000e-04, 6.400000000010177e-03, 2.323293917858584e-04, 9.189332666578908e-06, 4.610522181304139e+02, 2.244682251495537e+03, 1.185136508232150e+02, 1.799310433929581e+03
157, -2.500000000000000e-04, 6.300000000010201e-03, 2.266598523647013e-04, 9.283182800310734e-06, 4.848194160116881e+02, 2.358907885095914e+03, 1.236291428403917e+02, 1.890329137952504e+03
158, -2.500000000000000e-04, 6.200000000010225e-03, 2.210169203345730e-04, 9.372174117827650e-06, 5.091686387889794e+02, 2.475970243481060e+03, 1.287952721669567e+02, 1.983598104644584e+03
159, -2.500000000000000e-04, 6.100000000010248e-03, 2.154019455129143e-04, 9.456155972980873e-06, 5.340864371881636e+02, 2.595857995095792e+03, 1.340068721248059e+02, 2.079118400693801e+03
160, -2.500000000000000e-04, 6.000000000010509e-03, 2.098163102427834e-04, 9.534977095508767e-06, 5.595859488892870e+02, 2.718582019023834e+03, 1.392577023674622e+02, 2.176886506350544e+03
161, -2.500000000000000e-04, 5.900000000010967e-03, 2.042614301298244e-04, 9.608485607016287e-06, 5.856702231677817e+02, 2.844145366690496e+03, 1.445395938767160e+02, 2.276900689688096e+03
162, -2.500000000000000e-04, 5.800000000011424e-03, 1.987387542622059e-04, 9.676529144218976e-06, 6.123267939684009e+02, 2.972538206894527e+03, 1.498445293254796e+02, 2.379161920841420e+03
163, -2.500000000000000e-04, 5.700000000011876e-03, 1.932497647069891e-04, 9.738954967273970e-06, 6.395457828511459e+02, 3.103752654038553e+03, 1.551661320651871e+02, 2.483670996361538e+03
164, -2.500000000000000e-04, 5.600000000012062e-03, 1.877959761270270e-04, 9.795610101904424e-06, 6.673300592760639e+02, 3.237790853526173e+03, 1.604980148017702e+02, 2.590426054879416e+03
165, -2.500000000000000e-04, 5.500000000012085e-03, 1.823789359585152e-04, 9.846341457114662e-06, 6.956917910886401e+02, 3.374662606720712e+03, 1.658315568886912e+02, 2.699423096153857e+03
166, -2.500000000000000e-04, 5.400000000012110e-03, 1.770002250647518e-04, 9.890995920358576e-06, 7.246249701334243e+02, 3.514363098844180e+03, 1.711570007859460e+02, 2.810661435045984e+03
167, -2.500000000000000e-04, 5.300000000012160e-03, 1.716614574743414e-04, 9.929420482390800e-06, 7.541227721427128e+02, 3.656887041704014e+03, 1.764653490559143e+02, 2.924140981948623e+03
168, -2.500000000000000e-04, 5.200000000012475e-03, 1.663642801357160e-04, 9.961462368125442e-06, 7.841839003150644e+02, 3.802233810207460e+03, 1.817476803821632e+02, 3.039860874431376e+03
169, -2.500000000000000e-04, 5.100000000012934e-03, 1.611103729452201e-04, 9.986969168280626e-06, 8.148092896325888e+02, 3.950404565659736e+03, 1.869944177292235e+02, 3.157819720011154e+03
170, -2.500000000000000e-04, 5.000000000013221e-03, 1.559014488738885e-04, 1.000578898338611e-05, 8.459974805803902e+02, 4.101398626800566e+03, 1.921952561969027e+02, 3.278016578486144e+03
171, -2.500000000000000e-04, 4.900000000012981e-03, 1.507392539725232e-04, 1.001777055791591e-05, 8.777426671134914e+02, 4.255211517146527e+03, 1.973403147069525e+02, 3.400451239494257e+03
172, -2.500000000000000e-04, 4.800000000012570e-03, 1.456255671151779e-04, 1.002276346474262e-05, 9.100502324151282e+02, 4.411847698906342e+03, 2.024189641178478e+02, 3.525121167344812e+03
173, -2.500000000000000e-04, 4.700000000012160e-03, 1.405622003501024e-04, 1.002061824481784e-05, 9.429221360512662e+02, 4.571309034881477e+03, 2.074188374465381e+02, 3.652024340569679e+03
174, -2.500000000000000e-04, 4.600000000011960e-03, 1.355509991282846e-04, 1.001118656319812e-05, 9.763428420428403e+02, 4.733583302274124e+03, 2.123281714462048e+02, 3.781162372281537e+03
175, -2.500000000000000e-04, 4.500000000011985e-03, 1.305938415917892e-04, 9.994321383391672e-06, 1.010314525480480e+03, 4.898672957420937e+03, 2.171360657128539e+02, 3.912534163349308e+03
176, -2.500000000000000e-04, 4.400000000012010e-03, 1.256926387564116e-04, 9.969877133571881e-06, 1.044844289309056e+03, 5.066584024833948e+03, 2.218300840042601e+02, 4.046137027459300e+03
177, -2.500000000000000e-04, 4.300000000011870e-03, 1.208493349418210e-04, 9.937709912008920e-06, 1.079926855760870e+03, 5.237312078653820e+03, 2.263967019368074e+02, 4.181970080969029e+03
178, -2.500000000000000e-04, 4.200000000011467e-03, 1.160659075614750e-04, 9.897677670994461e-06, 1.115558763373426e+03, 5.410854324189304e+03, 2.308226216402991e+02, 4.320032440318961e+03
179, -2.500000000000000e-04, 4.100000000011056e-03, 1.113443670371493e-04, 9.849640409981586e-06, 1.151740511923883e+03, 5.587211443743528e+03, 2.350938675262412e+02, 4.460322734198819e+03
180, -2.500000000000000e-04, 4.000000000010646e-03, 1.066867569390851e-04, 9.793460359215818e-06, 1.188467534044306e+03, 5.766380248353566e+03, 2.391961212015445e+02, 4.602840857277799e+03
181, -2.500000000000000e-04, 3.900000000010236e-03, 1.020951538235514e-04, 9.729002182957912e-06, 1.225738431717425e+03, 5.948360278878031e+03, 2.431151750796043e+02, 4.747586446258204e+03
182, -2.500000000000000e-04, 3.800000000009824e-03, 9.757166721122350e-05, 9.656133186821610e-06, 1.263557232965869e+03, 6.133155125006017e+03, 2.468360228918472e+02, 4.894557765411509e+03
183, -2.500000000000000e-04, 3.700000000009415e-03, 9.311843987017460e-05, 9.574723560371468e-06, 1.301919871143931e+03, 6.320761592094002e+03, 2.503426561272122e+02, 5.043754355820313e+03
184, -2.500000000000000e-04, 3.600000000009160e-03, 8.873764767956824e-05, 9.484646590430042e-06, 1.340824331945951e+03, 6.511178387344223e+03, 2.536189726553556e+02, 5.195175780600343e+03
185, -2.500000000000000e-04, 3.500000000009170e-03, 8.443149961665060e-05, 9.385778892465266e-06, 1.380269178709668e+03, 6.704404877994746e+03, 2.566484370898813e+02, 5.348821797877035e+03
186, -2.500000000000000e-04, 3.400000000009196e-03, 8.020223774663954e-05, 9.278000637851346e-06, 1.420255244402765e+03, 6.900441995725928e+03, 2.594141737265304e+02, 5.504691606575139e+03
187, -2.500000000000000e-04, 3.300000000009092e-03, 7.605213731038748e-05, 9.161195826675133e-06, 1.460782150997801e+03, 7.099289069316175e+03, 2.618984837570915e+02, 5.662784079505524e+03
188, -2.500000000000000e-04, 3.200000000008720e-03, 7.198350677146901e-05, 9.035252554165788e-06, 1.501847057464173e+03, 7.300943564876299e+03, 2.640830242595364e+02, 5.823098803651520e+03
189, -2.500000000000000e-04, 3.100000000008311e-03, 6.799868774134072e-05, 8.900063249382321e-06, 1.543448943926765e+03, 7.505404731499115e+03, 2.659492650382278e+02, 5.985635543471129e+03
190, -2.500000000000000e-04, 3.000000000007901e-03, 6.410005498172515e-05, 8.755524942614364e-06, 1.585588044504446e+03, 7.712672578428334e+03, 2.674781645067893e+02, 6.150393740225173e+03
191, -2.500000000000000e-04, 2.900000000007490e-03, 6.029001647032195e-05, 8.601539554816056e-06, 1.628263728399358e+03, 7.922746139293351e+03, 2.686498894287002e+02, 6.317372861673915e+03
192, -2.500000000000000e-04, 2.800000000007079e-03, 5.657101342925418e-05, 8.438014181651817e-06, 1.671473578906993e+03, 8.135623239460068e+03, 2.694441489423305e+02, 6.486573165518560e+03
193, -2.500000000000000e-04, 2.700000000006744e-03, 5.294552023583993e-05, 8.264861364100937e-06, 1.715218806758251e+03, 8.351304608904040e+03, 2.698404934648551e+02, 6.657994468388685e+03
194, -2.500000000000000e-04, 2.600000000006672e-03, 4.941604450001601e-05, 8.081999404182832e-06, 1.759500973994740e+03, 8.569790390990496e+03, 2.698176275591484e+02, 6.831635832786391e+03
195, -2.500000000000000e-04, 2.500000000006697e-03, 4.598512718522177e-05, 7.889352706017479e-06, 1.804316991622970e+03, 8.791076807971180e+03, 2.693533846310353e+02, 7.007497250415933e+03
196, -2.500000000000000e-04, 2.400000000006722e-03, 4.265534247392941e-05, 7.686852062279569e-06, 1.849667544366184e+03, 9.015163546899692e+03, 2.684254223176232e+02, 7.185578737423261e+03
197, -2.500000000000000e-04, 2.300000000006651e-03, 3.942929781835919e-05, 7.474434971855576e-06, 1.895553333335906e+03, 9.242049764222036e+03, 2.670108449913010e+02, 7.365880054304070e+03
198, -2.500000000000000e-04, 2.200000000006315e-03, 3.630963399104365e-05, 7.252046003092497e-06, 1.941973906402395e+03, 9.471733591538712e+03, 2.650858861719557e+02, 7.548401355525186e+03
199, -2.500000000000000e-04, 2.100000000005904e-03, 3.329902505217149e-05, 7.019637100508050e-06, 1.988930874174716e+03, 9.704214624692164e+03, 2.626265449115563e+02, 7.733142579790400e+03
200, -2.500000000000000e-04, 2.000000000005494e-03, 3.040017841789165e-05, 6.777167967922582e-06, 2.036424133737579e+03, 9.939490553994232e+03, 2.596079621286723e+02, 7.920103788397645e+03
201, -2.500000000000000e-04, 1.900000000005083e-03, 2.761583483896810e-05, 6.524606415548730e-06, 2.084454695834597e+03, 1.017755979293934e+04, 2.560047792675070e+02, 8.109285042518484e+03
202, -2.500000000000000e-04, 1.800000000004675e-03, 2.494876842885633e-05, 6.261928735681445e-06, 2.133023664225967e+03, 1.041842077190482e+04, 2.517908984612420e+02, 8.300686710033382e+03
203, -2.500000000000000e-04, 1.700000000004264e-03, 2.240178667172492e-05, 5.989120058144652e-06, 2.182132514749551e+03, 1.066207162898619e+04, 2.469399118796189e+02, 8.494308957265264e+03
204, -2.500000000000000e-04, 1.600000000003854e-03, 1.997773045009220e-05, 5.706174777065390e-06, 2.231782060100734e+03, 1.090850931828122e+04, 2.414245131321454e+02, 8.690151845337145e+03
205, -2.500000000000000e-04, 1.500000000003443e-03, 1.767947402447623e-05, 5.413096930949108e-06, 2.281974418596288e+03, 1.115773180273555e+04, 2.352168315481670e+02, 8.888215623705177e+03
206, -2.500000000000000e-04, 1.400000000003032e-03, 1.550992506298641e-05, 5.109900603385757e-06, 2.332711747343948e+03, 1.140973663499933e+04, 2.282883624395575e+02, 9.088500597833316e+03
207, -2.500000000000000e-04, 1.300000000002622e-03, 1.347202466010427e-05, 4.796610346435167e-06, 2.383995889121778e+03, 1.166452055610963e+04, 2.206099462063448e+02, 9.291007108383385e+03
208, -2.500000000000000e-04, 1.200000000002211e-03, 1.156874731661657e-05, 4.473261607683248e-06, 2.435830907562121e+03, 1.192208229678107e+04, 2.121519221245934e+02, 9.495735841508185e+03
209, -2.500000000000000e-04, 1.100000000002113e-03, 9.803100917631262e-06, 4.139901120289129e-06, 2.488229414233436e+03, 1.218243161851956e+04, 2.028848469145906e+02, 9.702690627965841e+03
210, -2.500000000000000e-04, 1.000000000002544e-03, 8.178126754011577e-06, 3.796587074720815e-06, 2.541232670949988e+03, 1.244562013789449e+04, 1.927814481257660e+02, 9.911889317498111e+03
211, -2.500000000000000e-04, 9.000000000030026e-04, 6.696900044590014e-06, 3.443388511043765e-06, 2.594931685309388e+03, 1.271178764360158e+04, 1.818208426813055e+02, 1.012338924254943e+04
212, -2.500000000000000e-04, 8.000000000032027e-04, 5.362532615244930e-06, 3.080383442418596e-06, 2.649438944092094e+03, 1.298115106575394e+04, 1.699806364276574e+02, 1.033730376026242e+04
213, -2.500000000000000e-04, 7.000000000028719e-04, 4.178182376410020e-06, 2.707657371870437e-06, 2.704261721987334e+03, 1.325319786893163e+04, 1.571882732269460e+02, 1.055361958975537e+04
214, -2.500000000000000e-04, 6.000000000024631e-04, 3.147073412434185e-06, 2.325321933459837e-06, 2.756686914450270e+03, 1.352401057471605e+04, 1.429985366433644e+02, 1.077112125690022e+04
215, -2.500000000000000e-04, 5.000000000020526e-04, 2.272518638614972e-06, 1.933608491830229e-06, 2.792139441297674e+03, 1.377258298332620e+04, 1.261029550651269e+02, 1.098333957413593e+04
216, -2.500000000000000e-04, 4.000000000016421e-04, 1.557782190584062e-06, 1.533292355572907e-06, 2.779847616693942e+03, 1.394641352781974e+04, 1.010397487749047e+02, 1.116839426107651e+04
217, -2.500000000000000e-04, 3.000000000012316e-04, 1.005366918816912e-06, 1.126549878698913e-06, 2.542772695258160e+03, 1.380612661764732e+04, 6.610800131704315e+01, 1.126412991102072e+04
218, -2.500000000000000e-04, 2.000000000008210e-04, 6.118597510951255e-07, 7.207943994636051e-07, 2.384142950393208e+03, 1.359049008942447e+04, -1.089487835343988e+01, 1.120636832314428e+04
219, -2.500000000000000e-04, 1.000000000004105e-04, 3.565943699163564e-07, 3.189301976039096e-07, -1.220095529337515e+03, 9.385936952160386e+03, 7.877054274070815e+02, 1.072239918861702e+04
220, -1.999999999998928e-04, 9.899999999999593e-03, 4.393845992471536e-04, 9.185938812913414e-07, -2.865091646096771e+00, 2.813331801089560e+01, 1.838197759393901e+00, 3.121565769406886e+01
221, -1.499999999997670e-04, 9.899999999999591e-03, 4.392938742717129e-04, -2.084679836958824e-06, -1.519336104724812e+00, 2.609794006519771e+01, 5.718889819012556e+00, 2.989208500746965e+01
222, -9.999999999959327e-05, 9.899999999999591e-03, 4.392032228947182e-04, -5.087766933449396e-06, 2.294648213185582e-01, 2.245432009511661e+01, 8.346163767186530e+00, 2.779528719866119e+01
223, -4.999999999946756e-05, 9.899999999999593e-03, 4.391126619208080e-04, -8.090694567574266e-06, 2.052067560038722e+00, 1.835842482486554e+01, 1.013012902062991e+01, 2.600721713576068e+01
224, 6.282680539010377e-16, 9.899999999999593e-03, 4.390221917254071e-04, -1.109351044188818e-05, 3.615473111404566e+00, 1.415583892518270e+01, 1.093474606731334e+01, 2.427702612996001e+01
225, 5.000000000046569e-05, 9.899999999999590e-03, 4.389318067833512e-04, -1.409627703410550e-05, 4.899966057200128e+00, 1.012251547271492e+01, 1.068696354849881e+01, 2.200272214852659e+01
226, 1.000000000003380e-04, 9.899999999999590e-03, 4.388414983947579e-04, -1.709906145624613e-05, 5.916085194130153e+00, 6.507242340748668e+00, 9.416837726278551e+00, 1.884295087888970e+01
227, 1.500000000001929e-04, 9.899999999999593e-03, 4.387512541038205e-04, -2.010192705969317e-05, 6.627313525665008e+00, 3.602876410963242e+00, 7.231518111733498e+00, 1.477588023307255e+01
228, 2.000000000000797e-04, 9.899999999999593e-03, 4.386610556807108e-04, -2.310492769467196e-05, 6.835232886971443e+00, 1.721398412167601e+00, 4.293691052428160e+00, 9.994720328778532e+00
229, -1.999999999998947e-04, 9.799999999999184e-03, 4.333776522395365e-04, 1.097979332321455e-06, -1.359035656712024e+00, 3.784431065426466e+01, 3.857500273473782e+00, 3.995526993298594e+01
230, -1.499999999997712e-04, 9.799999999999181e-03, 4.332868524517351e-04, -1.905147837650926e-06, 6.513861111582067e-01, 3.280623129331587e+01, 8.644560960047084e+00, 3.650818819739495e+01
231, -9.999999999960086e-05, 9.799999999999184e-03, 4.331961601119893e-04, -4.908039170093374e-06, 1.901690332200191e+00, 2.635401732003804e+01, 1.213772485471091e+01, 3.445596833227607e+01
232, -4.999999999947776e-05, 9.799999999999184e-03, 4.331055833684994e-04, -7.910760099515344e-06, 3.391518682639270e+00, 1.998836822295296e+01, 1.435384001996238e+01, 3.316001067458370e+01
233, 6.154473632113966e-16, 9.799999999999184e-03, 4.330151217991328e-04, -1.091337433321339e-05, 4.927699448858226e+00, 1.398852806151777e+01, 1.528076482525508e+01, 3.187641306243540e+01
234, 5.000000000045551e-05, 9.799999999999184e-03, 4.329247688814982e-04, -1.391595101312195e-05, 6.267125813472262e+00, 8.408135942951098e+00, 1.486012518823123e+01, 2.979726844551607e+01
235, 1.000000000003303e-04, 9.799999999999184e-03, 4.328345142158664e-04, -1.691856244992009e-05, 7.243635002533205e+00, 3.309230717564865e+00, 1.308550787886339e+01, 2.646510160322006e+01
236, 1.500000000001885e-04, 9.799999999999188e-03, 4.327443436851812e-04, -1.992128044485007e-05, 7.703151395277008e+00, -1.184020872274296e+00, 1.000762021717290e+01, 2.189958174390105e+01
237, 2.000000000000778e-04, 9.799999999999188e-03, 4.326542379205617e-04, -2.292417345032652e-05, 7.437008532838534e+00, -4.855203814047979e+00, 5.693770594033582e+00, 1.675632951128842e+01
238, -1.999999999998966e-04, 9.699999999999027e-03, 4.273708294843523e-04, 1.276999620723075e-06, -1.661228524241665e-03, 5.004989771549521e+01, 6.265825050507305e+00, 5.159651933009545e+01
239, -1.499999999997756e-04, 9.699999999998999e-03, 4.272799047897603e-04, -1.725873510021578e-06, 1.351587373344498e+00, 4.138926273638333e+01, 1.169445496689119e+01, 4.636870233645396e+01
240, -9.999999999960846e-05, 9.699999999998973e-03, 4.271891282590923e-04, -4.728490165630747e-06, 2.875020012842334e+00, 3.247116713079871e+01, 1.563390195913769e+01, 4.305354208540146e+01
241, -4.999999999948794e-05, 9.699999999998947e-03, 4.270985041513235e-04, -7.730924216280595e-06, 4.315922416430958e+00, 2.340474812782079e+01, 1.803706819387959e+01, 4.081331379785853e+01
242, 6.026266725217555e-16, 9.699999999998920e-03, 4.270080320594195e-04, -1.073325329958481e-05, 5.695946835562394e+00, 1.457019304292971e+01, 1.887373333840173e+01, 3.877658425216643e+01
243, 5.000000000044535e-05, 9.699999999998892e-03, 4.269177061910000e-04, -1.373555640342802e-05, 6.868802920197948e+00, 6.151082366551812e+00, 1.812686997795311e+01, 3.626084366894401e+01
244, 1.000000000003228e-04, 9.699999999998864e-03, 4.268275158684718e-04, -1.673791407477524e-05, 7.666535034660527e+00, -1.720226801326874e+00, 1.578915232120132e+01, 3.294390113289466e+01
245, 1.500000000001842e-04, 9.699999999998836e-03, 4.267374456943363e-04, -1.974040751292707e-05, 7.935277045218077e+00, -8.883087538752733e+00, 1.186955213771694e+01, 2.909299673597217e+01
246, 2.000000000000759e-04, 9.699999999998809e-03, 4.266474750317105e-04, -2.274311814406379e-05, 7.568487249257961e+00, -1.508072872503465e+01, 6.379148821848196e+00, 2.599540619061953e+01
247, -1.999999999998985e-04, 9.599999999999352e-03, 4.213643104203612e-04, 1.455556968830870e-06, 6.320936985906762e-01, 6.406328702176512e+01, 8.680240322572754e+00, 6.576399147430455e+01
248, -1.499999999997800e-04, 9.599999999999241e-03, 4.212732323667386e-04, -1.546961632683438e-06, 1.885401836261863e+00, 5.207782810882825e+01, 1.472117726374134e+01, 5.819047942102723e+01
249, -9.999999999961608e-05, 9.599999999999132e-03, 4.211823474742423e-04, -4.549199632784479e-06, 3.315685931142815e+00, 3.979131764948175e+01, 1.899469693066630e+01, 5.266560315047526e+01
250, -4.999999999949810e-05, 9.599999999999024e-03, 4.210916613814195e-04, -7.551243385268331e-06, 4.764041090416897e+00, 2.744647211602629e+01, 2.148031868998240e+01, 4.858095348307148e+01
251, 5.898059818321144e-16, 9.599999999998917e-03, 4.210011737504518e-04, -1.055318116466960e-05, 6.070144329815816e+00, 1.524184631026496e+01, 2.215897039760580e+01, 4.525704357938171e+01
252, 5.000000000043517e-05, 9.599999999998809e-03, 4.209108790218445e-04, -1.355510283249570e-05, 7.122525440342317e+00, 3.406386685544508e+00, 2.101954452412508e+01, 4.220301760836085e+01
253, 1.000000000003152e-04, 9.599999999998698e-03, 4.208207664888433e-04, -1.655709917516674e-05, 7.792205654558316e+00, -7.858857073673447e+00, 1.805822132663307e+01, 3.936182407421826e+01
254, 1.500000000001798e-04, 9.599999999998591e-03, 4.207308203971221e-04, -1.955926179390165e-05, 7.961669133722671e+00, -1.834588562356485e+01, 1.327458307156622e+01, 3.737573624964907e+01
255, 2.000000000000740e-04, 9.599999999998483e-03, 4.206410200351199e-04, -2.256168295588778e-05, 7.538972633540763e+00, -2.782313316454109e+01, 6.665548747621900e+00, 3.779148960946671e+01
256, -1.999999999999004e-04, 9.499999999999719e-03, 4.153583192150616e-04, 1.633559204665680e-06, 8.810683771170140e-01, 7.996533894976331e+01, 1.108656475067589e+01, 8.213385126664429e+01
257, -1.499999999997843e-04, 9.499999999999528e-03, 4.152670660542284e-04, -1.368487762068381e-06, 2.183229485534105e+00, 6.423347813132341e+01, 1.771025588447529e+01, 7.144820509277083e+01
258, -9.999999999962368e-05, 9.499999999999330e-03, 4.151760596204293e-04, -4.370226660070753e-06, 3.606935626735311e+00, 4.813631853311178e+01, 2.228992484633958e+01, 6.300975274229029e+01
259, -4.999999999950831e-05, 9.499999999999136e-03, 4.150853058310268e-04, -7.371756863022243e-06, 5.017956528477175e+00, 3.193430833762385e+01, 2.482349636496111e+01, 5.647401067605083e+01
260, 5.769988436696294e-16, 9.499999999998942e-03, 4.149948047782369e-04, -1.037317849486832e-05, 6.281342183069291e+00, 1.586272914497401e+01, 2.530816403729212e+01, 5.151519818332937e+01
261, 5.000000000042495e-05, 9.499999999998747e-03, 4.149045510157203e-04, -1.337459248333280e-05, 7.266282010776359e+00, 1.415455712114100e-01, 2.374198544765569e+01, 4.801551167404180e+01
262, 1.000000000003075e-04, 9.499999999998551e-03, 4.148145338432743e-04, -1.637610046448091e-05, 7.857264376961237e+00, -1.500645667463065e+01, 2.012568038122815e+01, 4.629170318269152e+01
263, 1.500000000001755e-04, 9.499999999998359e-03, 4.147247374684962e-04, -1.937780458828359e-05, 7.945248647020012e+00, -2.936258319806625e+01, 1.446265248601275e+01, 4.720749500562296e+01
264, 2.000000000000721e-04, 9.499999999998164e-03, 4.146351411833178e-04, -2.237980739450216e-05, 7.436800599053496e+00, -4.270630702808232e+01, 6.761530849646182e+00, 5.193461697393555e+01
265, -1.999999999999023e-04, 9.400000000000087e-03, 4.093531176468008e-04, 1.810917342809591e-06, 9.910965807569614e-01, 9.778813673869135e+01, 1.351363327105964e+01, 1.004994533322223e+02
266, -1.499999999997887e-04, 9.399999999999811e-03, 4.092616724201291e-04, -1.190520248706698e-06, 2.367417951012582e+00, 7.775780608798954e+01, 2.069055309575829e+01, 8.600061960868425e+01
267, -9.999999999963125e-05, 9.399999999999530e-03, 4.091705355998333e-04, -4.191621155703709e-06, 3.825146400921611e+00, 5.735163814578357e+01, 2.555464719200298e+01, 7.400841364969094e+01
268, -4.999999999951849e-05, 9.399999999999249e-03, 4.090797129403763e-04, -7.192497254557389e-06, 5.232027712487881e+00, 3.681665737828916e+01, 2.811939561887220e+01, 6.450108891335410e+01
269, 5.641646004528322e-16, 9.399999999998968e-03, 4.089892044999866e-04, -1.019326065073958e-05, 6.464546399644225e+00, 1.639560699478373e+01, 2.839275116349707e+01, 5.764736974982804e+01
270, 5.000000000041476e-05, 9.399999999998687e-03, 4.088990048341409e-04, -1.319402374125797e-05, 7.401836572695435e+00, -3.678243737726784e+00, 2.638157622082305e+01, 5.391399109012233e+01
271, 1.000000000003000e-04, 9.399999999998406e-03, 4.088091031662858e-04, -1.619489920823458e-05, 7.926762100448007e+00, -2.317901204849645e+01, 2.209353850018408e+01, 5.403764390905295e+01
272, 1.500000000001711e-04, 9.399999999998125e-03, 4.087194835542927e-04, -1.919599993382555e-05, 7.927973259866031e+00, -4.188492288734830e+01, 1.553902596435069e+01, 5.871260456031753e+01
273, 2.000000000000702e-04, 9.399999999997844e-03, 4.086301250376832e-04, -2.219743878710735e-05, 7.289938673583091e+00, -5.958619726608871e+01, 6.732433417244749e+00, 6.821818083980250e+01
274, -1.999999999999042e-04, 9.300000000000464e-03, 4.033490024031617e-04, 1.987546070672233e-06, 1.164951768002812e+00, 1.175846431511542e+02, 1.598272765967763e+01, 1.207283515812334e+02
275, -1.499999999997930e-04, 9.300000000000100e-03, 4.032573515340445e-04, -1.013125544186779e-06, 2.602206954092162e+00, 9.271103868938259e+01, 2.367650165932924e+01, 1.017934599077748e+02
276, -9.999999999963886e-05, 9.299999999999729e-03, 4.031660781789066e-04, -4.013431414751623e-06, 4.078140086754905e+00, 6.746464323401565e+01, 2.880596869441381e+01, 8.565619715427420e+01
277, -4.999999999952863e-05, 9.299999999999361e-03, 4.030751877207959e-04, -7.013495596510476e-06, 5.478822830119968e+00, 4.209658392221736e+01, 3.138868280581483e+01, 7.267639273198790e+01
278, 5.513303572360351e-16, 9.299999999998993e-03, 4.029846799737422e-04, -1.001344203738008e-05, 6.683055912088152e+00, 1.684626317089768e+01, 3.143926864949582e+01, 6.369459344910054e+01
279, 5.000000000040461e-05, 9.299999999998625e-03, 4.028945492837428e-04, -1.301339467219913e-05, 7.571458584573599e+00, -8.052008546381860e+00, 2.897100315036251e+01, 6.001140574378594e+01
280, 1.000000000002923e-04, 9.299999999998258e-03, 4.028047846392172e-04, -1.601347742863669e-05, 8.026635548380336e+00, -3.236899145796289e+01, 2.399749435421201e+01, 6.273217374168821e+01
281, 1.500000000001668e-04, 9.299999999997890e-03, 4.027153697736685e-04, -1.901381416862249e-05, 7.931974636576288e+00, -5.588082702699523e+01, 1.653395802887047e+01, 7.187183543333310e+01
282, 2.000000000000683e-04, 9.299999999997520e-03, 4.026262832397215e-04, -2.201452859515074e-05, 7.173215337896141e+00, -7.836563608623248e+01, 6.598257965024739e+00, 8.655081244939993e+01
283, -1.999999999999061e-04, 9.200000000000841e-03, 3.973463090520480e-04, 2.163359438652452e-06, 1.254143870593026e+00, 1.391911403401085e+02, 1.851501500298870e+01, 1.428210002670291e+02
284, -1.499999999997973e-04, 9.200000000000397e-03, 3.972544395537633e-04, -8.363712779948031e-07, 2.774864167326040e+00, 1.089811810294915e+02, 2.669308661582603e+01, 1.188691096700343e+02
285, -9.999999999964642e-05, 9.199999999999951e-03, 3.971630241582919e-04, -3.835707353901990e-06, 4.302215701417390e+00, 7.841867170509428e+01, 3.206496258407709e+01, 9.800967479090025e+01
286, -4.999999999953884e-05, 9.199999999999505e-03, 3.970720676553480e-04, -6.834784633621024e-06, 5.719626003117707e+00, 4.774472087060585e+01, 3.464867345072806e+01, 8.104462280868563e+01
287, 5.385367716007061e-16, 9.199999999999058e-03, 3.969815693819517e-04, -9.833738760271961e-06, 6.910887462132584e+00, 1.719859654282758e+01, 3.446199119295282e+01, 6.968753336186930e+01
288, 5.000000000039439e-05, 9.199999999998614e-03, 3.968915232583540e-04, -1.283270519765790e-05, 7.758887871660933e+00, -1.298456484124625e+01, 3.152208065966820e+01, 6.636909752973237e+01
289, 1.000000000002848e-04, 9.199999999998171e-03, 3.968019178415599e-04, -1.583181923429736e-05, 8.146661360242334e+00, -4.257307542761124e+01, 2.584621605950193e+01, 7.241960534418128e+01
290, 1.500000000001625e-04, 9.199999999997726e-03, 3.967127363757615e-04, -1.883121595708788e-05, 7.957855276576871e+00, -7.133776885636604e+01, 1.745260247014053e+01, 8.663815174942259e+01
291, 2.000000000000664e-04, 9.199999999997280e-03, 3.966239568333289e-04, -2.183103019390199e-05, 7.076805942528841e+00, -9.905106131906513e+01, 6.361014593270539e+00, 1.068876711137337e+02
292, -1.999999999999080e-04, 9.100000000001274e-03, 3.913454013772362e-04, 2.338270732318222e-06, 1.411905393700618e+00, 1.626978827059546e+02, 2.112992126187040e+01, 1.667305034110443e+02
293, -1.499999999998017e-04, 9.100000000000802e-03, 3.912533023009001e-04, -6.603268309319904e-07, 2.994437368587725e+00, 1.266452296132755e+02, 2.976315075071566e+01, 1.372330098525068e+02
294, -9.999999999965405e-05, 9.100000000000334e-03, 3.911617408023584e-04, -3.658501114735957e-06, 4.560231967005361e+00, 9.026849995556006e+01, 3.535103666679246e+01, 1.111066621551810e+02
295, -4.999999999954905e-05, 9.099999999999862e-03, 3.910707210794344e-04, -6.656399595166780e-06, 5.989921299814439e+00, 5.380329282258703e+01, 3.791357196792205e+01, 8.964303795522494e+01
296, 5.257025283839090e-16, 9.099999999999390e-03, 3.909802419100625e-04, -9.654169496252430e-06, 7.166348640889638e+00, 1.748555244118719e+01, 3.746993930255940e+01, 7.564701826524306e+01
297, 5.000000000038422e-05, 9.099999999998916e-03, 3.908902966800987e-04, -1.265195778822827e-05, 7.972770896669091e+00, -1.845003171986907e+01, 3.403914982947733e+01, 7.302615546889321e+01
298, 1.000000000002772e-04, 9.099999999998446e-03, 3.908008734079621e-04, -1.564991118702932e-05, 8.292451884005324e+00, -5.377038513998014e+01, 2.764030485694376e+01, 8.311282421988159e+01
299, 1.500000000001581e-04, 9.099999999997978e-03, 3.907119547672809e-04, -1.864817614099608e-05, 8.008574905271864e+00, -8.824381819616957e+01, 1.829298286950993e+01, 1.029711419127279e+02
300, 2.000000000000645e-04, 9.099999999997506e-03, 3.906235181006766e-04, -2.164689880432067e-05, 7.003981642113249e+00, -1.216395967775839e+02, 6.017770120233886e+00, 1.292053578513859e+02
301, -1.999999999999099e-04, 9.000000000001736e-03, 3.853466777170692e-04, 2.512192382661000e-06, 1.592015422070336e+00, 1.880543694302641e+02, 2.382671620265358e+01, 1.924553430858290e+02
302, -1.499999999998060e-04, 9.000000000001264e-03, 3.852543390501092e-04, -4.850630973276782e-07, 3.239856571183822e+00, 1.456835403127765e+02, 3.288848362138248e+01, 1.568974584164149e+02
303, -9.999999999966160e-05, 9.000000000000792e-03, 3.851626282438758e-04, -3.481866908062202e-06, 4.841841831674719e+00, 1.030136216949288e+02, 3.866833813624663e+01, 1.249746368604272e+02
304, -4.999999999955923e-05, 9.000000000000320e-03, 3.850715488685715e-04, -6.478378120579616e-06, 6.281254309441497e+00, 6.028052396634943e+01, 4.118699528734869e+01, 9.849566207036627e+01
305, 5.128818376942679e-16, 8.999999999999852e-03, 3.849810990973894e-04, -9.474755492432341e-06, 7.440825559264461e+00, 1.771880098625682e+01, 4.046468096366202e+01, 8.157939936553629e+01
306, 5.000000000037403e-05, 8.999999999999380e-03, 3.848912717216762e-04, -1.247115748916119e-05, 8.203704508403456e+00, -2.443734694089056e+01, 3.652131928870263e+01, 8.000415795485200e+01
307, 1.000000000002695e-04, 8.999999999998908e-03, 3.848020541625110e-04, -1.546774228781354e-05, 8.453093206645230e+00, -6.595428617361532e+01, 2.937681884824147e+01, 9.480742612690001e+01
308, 1.500000000001538e-04, 8.999999999998436e-03, 3.847134284785663e-04, -1.846466777474185e-05, 8.072002390302760e+00, -1.065989324170278e+02, 1.905125335435130e+01, 1.208355258484598e+02
309, 2.000000000000626e-04, 8.999999999997964e-03, 3.846253713680547e-04, -2.146209153826413e-05, 6.942587696165119e+00, -1.461388203303010e+02, 5.564889072849398e+00, 1.534854698169761e+02
310, -1.999999999999118e-04, 8.900000000002187e-03, 3.793505693743413e-04, 2.685034557631687e-06, 1.780356063049549e+00, 2.152550983980905e+02, 2.661103773959010e+01, 2.200092155645387e+02
311, -1.499999999998104e-04, 8.900000000001712e-03, 3.792579818566714e-04, -3.106532441822563e-07, 3.494624294551251e+00, 1.660918924782388e+02, 3.607439019208660e+01, 1.778856883836406e+02
312, -9.999999999966923e-05, 8.900000000001240e-03, 3.791661192586515e-04, -3.305861367445642e-06, 5.134548870428405e+00, 1.166568831696137e+02, 4.202089578719317e+01, 1.396433091077830e+02
313, -4.999999999956943e-05, 8.900000000000770e-03, 3.790749844865737e-04, -6.300760394269223e-06, 6.583590765997483e+00, 6.718410633618237e+01, 4.447159074721331e+01, 1.076257962652204e+02
314, 5.000475944774707e-16, 8.900000000000293e-03, 3.789845750759440e-04, -9.295520585096732e-06, 7.725466043405158e+00, 1.790800515892327e+01, 4.344699231365309e+01, 8.748856306540632e+01
315, 5.000000000036387e-05, 8.899999999999823e-03, 3.788948831901690e-04, -1.229031189262352e-05, 8.443572062374555e+00, -3.093729681164277e+01, 3.896737843164468e+01, 8.731940884255101e+01
316, 1.000000000002620e-04, 8.899999999999349e-03, 3.788058956221908e-04, -1.528530397003861e-05, 8.621205670579497e+00, -7.911783762255790e+01, 3.105293408563280e+01, 1.074954816692388e+02
317, 1.500000000001494e-04, 8.899999999998874e-03, 3.787175937957839e-04, -1.828066617419198e-05, 8.141546224393885e+00, -1.263997721810136e+02, 1.972381161942938e+01, 1.402051401962859e+02
318, 2.000000000000606e-04, 8.899999999998404e-03, 3.786299537650518e-04, -2.127656757125640e-05, 6.887900702691006e+00, -1.725490261825647e+02, 5.000054871621290e+00, 1.797153664128405e+02
319, -1.999999999999137e-04, 8.800000000002590e-03, 3.733575398644831e-04, 2.856705336005107e-06, 1.980190442944767e+00, 2.443071129194911e+02, 2.948787256274954e+01, 2.494002322975300e+02
320, -1.499999999998147e-04, 8.800000000002060e-03, 3.732646950992499e-04, -1.371727271475079e-07, 3.759011307712058e+00, 1.878795657247171e+02, 3.932535055331868e+01, 2.002156620831420e+02
321, -9.999999999967683e-05, 8.800000000001532e-03, 3.731726790126937e-04, -3.130543500662364e-06, 5.434902261104991e+00, 1.312068722949704e+02, 4.541261802881500e+01, 1.551380415988411e+02
322, -4.999999999957961e-05, 8.800000000001001e-03, 3.730814938540187e-04, -6.123589026290987e-06, 6.892746395582108e+00, 7.452320713305843e+01, 4.777025244243151e+01, 1.170549755167112e+02
323, 4.872540088421418e-16, 8.800000000000474e-03, 3.729911365136212e-04, -9.116491037458121e-06, 8.016425893123445e+00, 1.806257187142430e+01, 4.641859125798815e+01, 9.337915991548664e+01
324, 5.000000000035368e-05, 8.799999999999947e-03, 3.729015985158199e-04, -1.210943096573563e-05, 8.689530169010116e+00, -3.794092423265666e+01, 4.137788001897493e+01, 9.498902619336964e+01
325, 1.000000000002544e-04, 8.799999999999419e-03, 3.728128660151739e-04, -1.510258994427017e-05, 8.795465148554575e+00, -9.325315360790030e+01, 3.266832601502918e+01, 1.211725987531719e+02
326, 1.500000000001451e-04, 8.799999999998892e-03, 3.727249197953488e-04, -1.809614880999760e-05, 8.217705771827514e+00, -1.476398516468095e+02, 2.031012351562939e+01, 1.610639086616993e+02
327, 2.000000000000587e-04, 8.799999999998365e-03, 3.726377352707290e-04, -2.109028810525058e-05, 6.840146338952520e+00, -2.008664783135331e+02, 4.323438525886478e+00, 2.078865325298323e+02
328, -1.999999999999156e-04, 8.700000000002964e-03, 3.673680851751250e-04, 3.027110706575993e-06, 2.178686959844139e+00, 2.752046436288207e+02, 3.246076317505366e+01, 2.806385176675460e+02
329, -1.499999999998191e-04, 8.700000000002345e-03, 3.672749755419668e-04, 3.530079511495607e-08, 4.021028458798419e+00, 2.110437492177079e+02, 4.264572079345836e+01, 2.239040797270023e+02
330, -9.999999999968445e-05, 8.700000000001731e-03, 3.671828050410204e-04, -2.955974586283812e-06, 5.733680817460886e+00, 1.466644396998097e+02, 4.884785578852037e+01, 1.714815758607877e+02
331, -4.999999999958977e-05, 8.700000000001117e-03, 3.670915752764191e-04, -5.946908915117589e-06, 7.201230948271274e+00, 8.230057768175749e+01, 5.108686057641595e+01, 1.268044998176840e+02
332, 4.743926605710325e-16, 8.700000000000502e-03, 3.670012824954909e-04, -8.937695385489709e-06, 8.307671820659777e+00, 1.818622480893955e+01, 4.938269999956605e+01, 9.925819888619183e+01
333, 5.000000000034347e-05, 8.699999999999888e-03, 3.669119175797144e-04, -1.192852690313180e-05, 8.936638943729914e+00, -4.544444602424067e+01, 4.375543958672159e+01, 1.030313368640950e+02
334, 1.000000000002468e-04, 8.699999999999274e-03, 3.668234660403986e-04, -1.491959608184705e-05, 8.971635211971842e+00, -1.083571322336650e+02, 3.422522206424396e+01, 1.358363094746746e+02
335, 1.500000000001407e-04, 8.699999999998657e-03, 3.667359080169197e-04, -1.791109524078613e-05, 8.296104617263584e+00, -1.703174726131424e+02, 2.081227566047241e+01, 1.833995999006328e+02
336, 2.000000000000568e-04, 8.699999999998044e-03, 3.666492182769567e-04, -2.090321639976777e-05, 6.793651254353239e+00, -2.310909823003159e+02, 3.537009627932319e+00, 2.379897910202695e+02
337, -1.999999999999175e-04, 8.600000000003331e-03, 3.613827331658176e-04, 3.196154610452941e-06, 2.376111512817829e+00, 3.079505884824156e+02, 3.553317702507641e+01, 3.137294816449753e+02
338, -1.499999999998235e-04, 8.600000000002632e-03, 3.612893519345481e-04, 2.066875633689140e-07, 4.280663900571373e+00, 2.355879453114129e+02, 4.604015046771216e+01, 2.489615236417719e+02
339, -9.999999999969208e-05, 8.600000000001931e-03, 3.611970269660050e-04, -2.782218033996428e-06, 6.029854036281900e+00, 1.630330213864661e+02, 5.233120770517576e+01, 1.886907940454937e+02
340, -4.999999999959999e-05, 8.600000000001230e-03, 3.611057592374746e-04, -5.770767103573414e-06, 7.507362564800356e+00, 9.051966327275048e+01, 5.442561529550436e+01, 1.368927772747857e+02
341, 4.615584173542353e-16, 8.600000000000526e-03, 3.610155443591801e-04, -8.759164305876967e-06, 8.596806143738196e+00, 1.828202383620971e+01, 5.234298799426899e+01, 1.051330443315674e+02
342, 5.000000000033329e-05, 8.599999999999825e-03, 3.609263725703871e-04, -1.174761402466823e-05, 9.181729498897070e+00, -5.344550686405655e+01, 4.610319640130596e+01, 1.114638488844290e+02
343, 1.000000000002392e-04, 8.599999999999124e-03, 3.608382287362617e-04, -1.473632035864477e-05, 9.145566940321334e+00, -1.244284294036578e+02, 3.572628431894244e+01, 1.514842634211654e+02
344, 1.500000000001364e-04, 8.599999999998423e-03, 3.607510923463531e-04, -1.772548711470260e-05, 8.371639917794926e+00, -1.944322136778900e+02, 2.123243886472493e+01, 2.072020001685243e+02
345, 2.000000000000548e-04, 8.599999999997722e-03, 3.606649375136206e-04, -2.071531780298797e-05, 6.742710555756705e+00, -2.632226919400707e+02, 2.642016540742212e+00, 2.700171097362912e+02
346, -1.999999999999195e-04, 8.500000000003703e-03, 3.554020437198848e-04, 3.363739092761357e-06, 2.577151791438240e+00, 3.425491143777764e+02, 3.870699756385442e+01, 3.486744355217908e+02
347, -1.499999999998278e-04, 8.500000000002915e-03, 3.553083851194758e-04, 3.769058940858170e-07, 4.542923552235422e+00, 2.615165824269101e+02, 4.951096185411932e+01, 2.753920890844868e+02
348, -9.999999999969967e-05, 8.500000000002127e-03, 3.552159065805756e-04, -2.609339206508623e-06, 6.327524323233643e+00, 1.803168827592864e+02, 5.586533397134556e+01, 2.067753346216834e+02
349, -4.999999999961013e-05, 8.500000000001340e-03, 3.551246084643390e-04, -5.595212613250973e-06, 7.813905275112177e+00, 9.918420435973425e+01, 5.778917647291578e+01, 1.473325735351301e+02
350, 4.487512791917503e-16, 8.500000000000552e-03, 3.550344857526084e-04, -8.580930471211872e-06, 8.885420782904532e+00, 1.835316560457154e+01, 5.530193320310352e+01, 1.110083485869882e+02
351, 5.000000000032310e-05, 8.499999999999765e-03, 3.549455280465986e-04, -1.156670865602849e-05, 9.425351877448463e+00, -6.194154525789212e+01, 4.842330570471941e+01, 1.203017046771039e+02
352, 1.000000000002316e-04, 8.499999999998977e-03, 3.548577195660062e-04, -1.455276276263539e-05, 9.316943106227288e+00, -1.414651421054275e+02, 3.717322543161924e+01, 1.681149368043621e+02
353, 1.500000000001320e-04, 8.499999999998190e-03, 3.547710391482689e-04, -1.753930809690793e-05, 8.443402739455550e+00, -2.199827720470383e+02, 2.157180838539585e+01, 2.324648123816910e+02
354, 2.000000000000531e-04, 8.499999999997402e-03, 3.546854602486087e-04, -2.052655966938040e-05, 6.687938187855377e+00, -2.972595111524552e+02, 1.639194537231187e+00, 3.039651292424909e+02
355, -1.999999999999213e-04, 8.400000000004074e-03, 3.494266091241987e-04, 3.529764333799811e-06, 2.794308059262562e+00, 3.790131750739571e+02, 4.198035826479870e+01, 3.854737835676816e+02
356, -1.499999999998322e-04, 8.400000000003200e-03, 3.493326683559477e-04, 5.458722609394961e-07, 4.817236270071874e+00, 2.888389099174320e+02, 5.305740329788390e+01, 3.031973998574275e+02
357, -9.999999999970726e-05, 8.400000000002326e-03, 3.492400381050831e-04, -2.437405326858740e-06, 6.633444514142933e+00, 1.985225627754381e+02, 5.945027165549757e+01, 2.257404990398204e+02
358, -4.999999999962035e-05, 8.400000000001451e-03, 3.491487181296933e-04, -5.420296342722629e-06, 8.126012066223385e+00, 1.082992727514472e+02, 6.117820595443142e+01, 1.581321399700931e+02
359, 4.359305885021092e-16, 8.400000000000581e-03, 3.490587027930135e-04, -8.403028444379988e-06, 9.177637694895555e+00, 1.840379781613205e+01, 5.826057180438683e+01, 1.168858372022853e+02
360, 5.000000000031294e-05, 8.399999999999703e-03, 3.489699810665516e-04, -1.138582901944148e-05, 9.671199138915576e+00, -7.092892309319910e+01, 5.071699297217620e+01, 1.295578373097935e+02
361, 1.000000000002240e-04, 8.399999999998832e-03, 3.488825365307618e-04, -1.436892517670455e-05, 9.489623353939795e+00, -1.594638291485021e+02, 3.856730935342382e+01, 1.857283460205945e+02
362, 1.500000000001277e-04, 8.399999999997958e-03, 3.487963473753554e-04, -1.735254373671366e-05, 8.515910424106057e+00, -2.469657224006412e+02, 2.183157909509432e+01, 2.591859102920922e+02
363, 2.000000000000511e-04, 8.399999999997083e-03, 3.487113864003724e-04, -2.033691122285662e-05, 6.633651468134588e+00, -3.331989276928392e+02, 5.301242456837016e-01, 3.398342330991140e+02
364, -1.999999999999233e-04, 8.300000000004210e-03, 3.434570547160399e-04, 3.694128479760797e-06, 3.008421826437761e+00, 4.173308720812955e+02, 4.535418310326345e+01, 4.241357099856677e+02
365, -1.499999999998365e-04, 8.300000000003279e-03, 3.433628277714057e-04, 7.135011630018405e-07, 5.091258953035705e+00, 3.175474430179438e+02, 5.667959428608306e+01, 3.323840739177249e+02
366, -9.999999999971485e-05, 8.300000000002344e-03, 3.432700485126127e-04, -2.266485540513160e-06, 6.941040610109368e+00, 2.176466079928748e+02, 6.308622443046556e+01, 2.455938170590974e+02
367, -4.999999999963053e-05, 8.300000000001409e-03, 3.431787160813537e-04, -5.246071088674201e-06, 8.440208018207773e+00, 1.178635189246901e+02, 6.459309762304211e+01, 1.693001299819232e+02
368, 4.231098978124681e-16, 8.300000000000474e-03, 3.430888242198375e-04, -8.225494670495328e-06, 9.471751812606538e+00, 1.843370506713461e+01, 6.121961897228142e+01, 1.227667853883192e+02
369, 5.000000000030276e-05, 8.299999999999542e-03, 3.430003612714795e-04, -1.120499520522585e-05, 9.918581682299109e+00, -8.040733143483570e+01, 5.298533394124838e+01, 1.392427844877666e+02
370, 1.000000000002164e-04, 8.299999999998609e-03, 3.429133101812980e-04, -1.418481133375309e-05, 9.663538649474148e+00, -1.784240690208399e+02, 3.990999126982572e+01, 2.043237082958614e+02
371, 1.500000000001233e-04, 8.299999999997672e-03, 3.428276484957017e-04, -1.716518140998842e-05, 8.589433897572462e+00, -2.753808897843909e+02, 2.201357269294856e+01, 2.873630704576877e+02
372, 2.000000000000492e-04, 8.299999999996739e-03, 3.427433483620037e-04, -2.014634348959423e-05, 6.578816874916622e+00, -3.710422699336954e+02, -6.835754073645184e-01, 3.776235616376015e+02
373, -1.999999999999252e-04, 8.200000000004194e-03, 3.374940380598953e-04, 3.856727747375052e-06, 3.248899457280565e+00, 4.575303036696425e+02, 4.882565014953865e+01, 4.646583375591748e+02
374, -1.499999999998408e-04, 8.200000000003217e-03, 3.373995219410772e-04, 8.797052059022061e-07, 5.384163455509352e+00, 3.476614106143820e+02, 6.037590624827337e+01, 3.629527712304415e+02
375, -9.999999999972244e-05, 8.200000000002240e-03, 3.373065973326688e-04, -2.096650888007406e-06, 7.261050213722385e+00, 2.377008314143214e+02, 6.677183605692399e+01, 2.663388914924572e+02
376, -4.999999999964069e-05, 8.200000000001265e-03, 3.372152627735757e-04, -5.072591536242304e-06, 8.762194010312257e+00, 1.278841649982129e+02, 6.803296712186157e+01, 1.808424243192383e+02
377, 4.102892071228270e-16, 8.200000000000287e-03, 3.371255113938201e-04, -8.048367479146965e-06, 9.770168211865602e+00, 1.844706974093164e+01, 6.417862190782407e+01, 1.286501871747369e+02
378, 5.000000000029257e-05, 8.199999999999309e-03, 3.370373309157928e-04, -1.102422918467015e-05, 1.016745360850721e+01, -9.037486790925314e+01, 5.522829877986002e+01, 1.493633769056212e+02
379, 1.000000000002088e-04, 8.199999999998328e-03, 3.369507036554286e-04, -1.400042684318104e-05, 9.836526678762048e+00, -1.983459610625452e+02, 4.120163919578905e+01, 2.238978528075682e+02
380, 1.500000000001190e-04, 8.199999999997352e-03, 3.368656065215976e-04, -1.697721036151355e-05, 8.659712298418370e+00, -3.052304510416608e+02, 2.211845435632881e+01, 3.169920168302565e+02
381, 2.000000000000473e-04, 8.199999999996377e-03, 3.367820110129305e-04, -1.995482935579007e-05, 6.518947772760640e+00, -4.107925317533102e+02, -2.001277196984564e+00, 4.173306739096888e+02
382, -1.999999999999271e-04, 8.100000000004175e-03, 3.315382503728563e-04, 4.017456358399309e-06, 3.486369718284699e+00, 4.995940664450660e+02, 5.239419998903426e+01, 5.070537008261705e+02
383, -1.499999999998452e-04, 8.100000000003150e-03, 3.314434427695760e-04, 1.044394993920510e-06, 5.676087410034619e+00, 3.791700050079306e+02, 6.414468407999259e+01, 3.949124820330603e+02
384, -9.999999999973005e-05, 8.100000000002133e-03, 3.313503772270188e-04, -1.927974367597364e-06, 7.580847570959165e+00, 2.586791139941238e+02, 7.050583009707472e+01, 2.879837282060028e+02
385, -4.999999999965090e-05, 8.100000000001112e-03, 3.312590516703258e-04, -4.899914302052585e-06, 9.083976256425338e+00, 1.383580860783034e+02, 7.149666906268537e+01, 1.927664136162615e+02
386, 3.974685164331859e-16, 8.100000000000092e-03, 3.311694586091414e-04, -7.871687113285989e-06, 1.006765007361687e+01, 1.844242521507909e+01, 6.713661296023514e+01, 1.345341445795814e+02
387, 5.000000000028236e-05, 8.099999999999071e-03, 3.310815851422596e-04, -1.084355483080423e-05, 1.041427944695533e+01, -1.008321047403755e+02, 5.744511550587533e+01, 1.599234916348710e+02
388, 1.000000000002012e-04, 8.099999999998051e-03, 3.309954129579999e-04, -1.381577920760431e-05, 1.000622670620709e+01, -2.192296196233489e+02, 4.244168612321002e+01, 2.444468451961532e+02
389, 1.500000000001146e-04, 8.099999999997031e-03, 3.309109183329362e-04, -1.678862171824682e-05, 8.725737718738365e+00, -3.365140673635307e+02, 2.214588604076946e+01, 3.480693667753112e+02
390, 2.000000000000454e-04, 8.099999999996011e-03, 3.308280721284687e-04, -1.976234355900432e-05, 6.454856447711741e+00, -4.524491797653282e+02, -3.422684644054884e+00, 4.589550887977054e+02
391, -1.999999999999291e-04, 8.000000000004158e-03, 3.255904152636625e-04, 4.176206432696565e-06, 3.723147443103940e+00, 5.435249680740849e+02, 5.606204582482147e+01, 5.513236957403331e+02
392, -1.499999999998495e-04, 8.000000000003093e-03, 3.254953147458830e-04, 1.207479147730477e-06, 5.967255445129922e+00, 4.120742734046350e+02, 6.798782468022311e+01, 4.282666076814264e+02
393, -9.999999999973761e-05, 8.000000000002028e-03, 3.254021135661966e-04, -1.760530916838197e-06, 7.901339899687436e+00, 2.805837008502494e+02, 7.428869901681749e+01, 3.105332722592182e+02
394, -4.999999999966106e-05, 8.000000000000966e-03, 3.253108090175555e-04, -4.728097909846020e-06, 9.406149713951265e+00, 1.492875143843065e+02, 7.498402967271127e+01, 2.050785581329093e+02
395, 3.846478257435448e-16, 7.999999999999901e-03, 3.252213929852580e-04, -7.695495699799809e-06, 1.036465900612922e+01, 1.842186689339858e+01, 7.009315116060174e+01, 1.404176554334622e+02
396, 5.000000000027218e-05, 7.999999999998840e-03, 3.251338519456212e-04, -1.066299788073092e-05, 1.065954596629877e+01, -1.117771979262974e+02, 5.963534407999841e+01, 1.709276259391102e+02
397, 1.000000000001936e-04, 7.999999999997775e-03, 3.250481669648831e-04, -1.363087777333038e-05, 1.017334688889773e+01, -2.410735163862357e+02, 4.362988834204455e+01, 2.659685224468315e+02
398, 1.500000000001103e-04, 7.999999999996709e-03, 3.249643136966160e-04, -1.659940842597109e-05, 8.788492552668238e+00, -3.692307111936090e+02, 2.209607552707374e+01, 3.805935688050469e+02
399, 2.000000000000435e-04, 7.999999999995648e-03, 3.248822623791789e-04, -1.956886261554989e-05, 6.387372500689125e+00, -4.960121302157039e+02, -4.946837247005071e+00, 5.024969105623163e+02
400, -1.999999999999309e-04, 7.900000000004136e-03, 3.196512888094873e-04, 4.332868565859719e-06, 3.998815708131012e+00, 5.893557740638861e+02, 5.982295815384079e+01, 5.974595500823514e+02
401, -1.499999999998538e-04, 7.900000000003030e-03, 3.195558950447870e-04, 1.368864636383750e-06, 6.287578819371113e+00, 4.464006003621164e+02, 7.190008769114931e+01, 4.630096782697580e+02
402, -9.999999999974523e-05, 7.900000000001926e-03, 3.194625645133221e-04, -1.594397201093334e-06, 8.239747714647173e+00, 3.034310081730000e+02, 7.811660131681704e+01, 3.339860683563811e+02
403, -4.999999999967128e-05, 7.900000000000816e-03, 3.193712939084990e-04, -4.557202654646244e-06, 9.738910212096158e+00, 1.606832269088972e+02, 7.849233404524658e+01, 2.177805610208277e+02
404, 3.718271350539037e-16, 7.899999999999709e-03, 3.192820745125878e-04, -7.519837157028576e-06, 1.066719894468540e+01, 1.839254683402430e+01, 7.304643192673231e+01, 1.462969783314688e+02
405, 5.000000000026201e-05, 7.899999999998603e-03, 3.191948921981068e-04, -1.048258586701216e-05, 1.090694118571351e+01, -1.232053000129722e+02, 6.179797695597279e+01, 1.823788723036148e+02
406, 1.000000000001860e-04, 7.899999999997496e-03, 3.191097274258904e-04, -1.344573367499282e-05, 1.034041301728929e+01, -2.638743109294902e+02, 4.476599666195695e+01, 2.884609031701901e+02
407, 1.500000000001060e-04, 7.899999999996389e-03, 3.190265552426686e-04, -1.640956520561841e-05, 8.849758936730105e+00, -4.033782662481282e+02, 2.196951626114711e+01, 4.145631234526335e+02
408, 2.000000000000416e-04, 7.899999999995286e-03, 3.189453452778201e-04, -1.937436481786220e-05, 6.317329507622361e+00, -5.414804225092547e+02, -6.572371859886239e+00, 5.479554374237038e+02
409, -1.999999999999328e-04, 7.800000000004094e-03, 3.137216616523571e-04, 4.487331337180120e-06, 4.253392123477809e+00, 6.370449133606901e+02, 6.367633272142457e+01, 6.454795200043944e+02
410, -1.499999999998583e-04, 7.800000000002947e-03, 3.136259747690737e-04, 1.528456452527273e-06, 6.592488681511412e+00, 4.821189654119004e+02, 7.587955214014885e+01, 4.991555426954362e+02
411, -9.999999999975283e-05, 7.800000000001799e-03, 3.135325217670238e-04, -1.429651812257528e-06, 8.568481054201122e+00, 3.272039894984920e+02, 8.198812334774166e+01, 3.583528941168046e+02
412, -4.999999999968147e-05, 7.800000000000654e-03, 3.134412987184612e-04, -4.387290723303773e-06, 1.006463232712084e+01, 1.725354195939902e+02, 8.202061951632629e+01, 2.308815384964423e+02
413, 3.590064443642627e-16, 7.799999999999507e-03, 3.133522962981275e-04, -7.344757265226117e-06, 1.096394521665246e+01, 1.834896445671411e+01, 7.599601983183473e+01, 1.521713462853587e+02
414, 5.000000000025183e-05, 7.799999999998360e-03, 3.132654997760122e-04, -1.030234815822171e-05, 1.114911931469661e+01, -1.351194204380060e+02, 6.393313687176821e+01, 1.942788451747768e+02
415, 1.000000000001784e-04, 7.799999999997211e-03, 3.131808890127711e-04, -1.326035986118222e-05, 1.050264097385547e+01, -2.876335577109763e+02, 4.585074803599067e+01, 3.119204343227308e+02
416, 1.500000000001016e-04, 7.799999999996065e-03, 3.130984384561674e-04, -1.621908857429425e-05, 8.906803235596918e+00, -4.389570682349993e+02, 2.176759674463604e+01, 4.499748442310737e+02
417, 2.000000000000397e-04, 7.799999999994919e-03, 3.130181171376942e-04, -1.917883024299580e-05, 6.243114600578721e+00, -5.888538646116971e+02, -8.297525488099943e+00, 5.953283215037550e+02
418, -1.999999999999347e-04, 7.700000000003952e-03, 3.078023560932876e-04, 4.639481341626051e-06, 4.516927451259562e+00, 6.866186403312388e+02, 6.762270314197426e+01, 6.953805193091850e+02
419, -1.499999999998626e-04, 7.700000000002785e-03, 3.077063771726862e-04, 1.686157672396056e-06, 6.900769990364992e+00, 5.192475942643141e+02, 7.992849803678654e+01, 5.367061836212316e+02
420, -9.999999999976044e-05, 7.700000000001617e-03, 3.076128094521554e-04, -1.266375241679192e-06, 8.896786358983718e+00, 3.519135013218817e+02, 8.590467446843805e+01, 3.836390479683361e+02
421, -4.999999999969162e-05, 7.700000000000449e-03, 3.075216484076596e-04, -4.218426172578936e-06, 1.038748368436932e+01, 1.848506170230291e+02, 8.557006379876141e+01, 2.443897055287709e+02
422, 3.461857536746216e-16, 7.699999999999279e-03, 3.074328841217244e-04, -7.170303648284653e-06, 1.125610908679428e+01, 1.829481382842158e+01, 7.894301135564243e+01, 1.580428408123195e+02
423, 5.000000000024164e-05, 7.699999999998113e-03, 3.073465012729281e-04, -1.012231594531194e-05, 1.138535004681970e+01, -1.475179359689213e+02, 6.604195238016273e+01, 2.066311017328590e+02
424, 1.000000000001708e-04, 7.699999999996944e-03, 3.072624791300140e-04, -1.307477108924032e-05, 1.065762806532977e+01, -3.123514391735747e+02, 4.688535003961899e+01, 3.363447661431608e+02
425, 1.500000000000973e-04, 7.699999999995776e-03, 3.071807915481191e-04, -1.602797685476303e-05, 8.955182083131604e+00, -4.759693081333444e+02, 2.149169170857060e+01, 4.868257721831232e+02
426, 2.000000000000377e-04, 7.699999999994609e-03, 3.071014069665406e-04, -1.898224076637435e-05, 6.160177027233054e+00, -6.381349063062686e+02, -1.012074298058134e+01, 6.446129630729123e+02
427, -1.999999999999367e-04, 7.600000000003967e-03, 3.018942274935446e-04, 4.789203690668928e-06, 4.785427506584284e+00, 7.380744849237601e+02, 7.166031944238429e+01, 7.471637352402139e+02
428, -1.499999999998669e-04, 7.600000000002791e-03, 3.017979584220762e-04, 1.841869701036275e-06, 7.211543649883225e+00, 5.577878580681676e+02, 8.404479996611119e+01, 5.756634360490478e+02
429, -9.999999999976803e-05, 7.600000000001615e-03, 3.017042845347501e-04, -1.104649691471211e-06, 9.223810569359337e+00, 3.775608068015381e+02, 8.986591484966704e+01, 4.098483541511598e+02
430, -4.999999999970180e-05, 7.600000000000435e-03, 3.016132007453678e-04, -4.050674787483797e-06, 1.070735575972436e+01, 1.976304344783332e+02, 8.914117494091511e+01, 2.583115050419369e+02
431, 3.333650629849805e-16, 7.599999999999259e-03, 3.015246965641597e-04, -6.996525658222205e-06, 1.154463959210695e+01, 1.823219012864772e+01, 8.188849548477678e+01, 1.639134713903040e+02
432, 5.000000000023146e-05, 7.599999999998081e-03, 3.014387560929929e-04, -9.942522139840828e-06, 1.161805613940224e+01, -1.603980180507162e+02, 6.812592822605998e+01, 2.194404205392194e+02
433, 1.000000000001632e-04, 7.599999999996904e-03, 3.013553580210513e-04, -1.288898382740565e-05, 1.080985569460826e+01, -3.380239882226912e+02, 4.787163762077552e+01, 3.617344681062316e+02
434, 1.500000000000929e-04, 7.599999999995727e-03, 3.012744756221116e-04, -1.583623007098889e-05, 9.002269442359292e+00, -5.144091996151168e+02, 2.114386590574248e+01, 5.251169566893316e+02
435, 2.000000000000358e-04, 7.599999999994550e-03, 3.011960767538275e-04, -1.878457997395491e-05, 6.078142052505996e+00, -6.893164613084741e+02, -1.203897094479012e+01, 6.958113262007258e+02
436, -1.999999999999386e-04, 7.500000000004145e-03, 2.959981641651533e-04, 4.936381601987199e-06, 5.036702431787830e+00, 7.913954059475503e+02, 7.578994659530471e+01, 8.008348610135971e+02
437, -1.499999999998712e-04, 7.500000000002950e-03, 2.959016074951765e-04, 1.995492178796776e-06, 7.505873826377183e+00, 5.977241000229237e+02, 8.823083495287547e+01, 6.160326902693753e+02
438, -9.999999999977570e-05, 7.500000000001755e-03, 2.958078367269233e-04, -9.445590925096365e-07, 9.539223596977287e+00, 4.041373648444377e+02, 9.387391768491233e+01, 4.369862043154286e+02
439, -4.999999999971198e-05, 7.500000000000564e-03, 2.957168462097932e-04, -3.884104051513841e-06, 1.101834675054154e+01, 2.108700826058482e+02, 9.273606074194630e+01, 2.726547710422744e+02
440, 3.205443722953394e-16, 7.499999999999370e-03, 2.956286248862197e-04, -6.823474324280441e-06, 1.182613885164373e+01, 1.815847073959724e+01, 8.483476423286285e+01, 1.697876536056756e+02
441, 5.000000000022125e-05, 7.499999999998177e-03, 2.955431562878631e-04, -9.763001311451996e-06, 1.184517400546379e+01, -1.737611716498044e+02, 7.018772444016132e+01, 2.327122304389156e+02
442, 1.000000000001556e-04, 7.499999999996980e-03, 2.954604185325831e-04, -1.270301618153512e-05, 1.095784573901222e+01, -3.646523090409821e+02, 4.881277891397001e+01, 3.880898580420104e+02
443, 1.500000000000885e-04, 7.499999999995787e-03, 2.953803843211759e-04, -1.564384986517472e-05, 9.046407296461688e+00, -5.542781473057998e+02, 2.072793268181014e+01, 5.648478933225147e+02
444, 2.000000000000339e-04, 7.499999999994593e-03, 2.953030209350825e-04, -1.858583304585478e-05, 5.992735426267288e+00, -7.424018831234034e+02, -1.404855418146836e+01, 7.489218601245831e+02
445, -1.999999999999404e-04, 7.400000000004559e-03, 2.901150860900375e-04, 5.080896910108482e-06, 5.317231332957803e+00, 8.466166486394586e+02, 8.000721285743381e+01, 8.563815306258750e+02
446, -1.499999999998756e-04, 7.400000000003323e-03, 2.900182454710274e-04, 2.146923289078004e-06, 7.820242574775506e+00, 6.390838479388144e+02, 9.248411285522074e+01, 6.578046700804683e+02
447, -9.999999999978329e-05, 7.400000000002085e-03, 2.899243880940312e-04, -7.861888746733297e-07, 9.865407720086850e+00, 4.316598369495802e+02, 9.792725726131104e+01, 4.650478807476990e+02
448, -4.999999999972218e-05, 7.400000000000849e-03, 2.898335077787299e-04, -3.718782989821865e-06, 1.133404601756466e+01, 2.245798256359051e+02, 9.635414598323290e+01, 2.874199859398549e+02
449, 3.077507866600104e-16, 7.399999999999613e-03, 2.897455929247503e-04, -6.651202251108477e-06, 1.210816521611721e+01, 1.807967112222605e+01, 8.778201610346520e+01, 1.756655580571866e+02
450, 5.000000000021107e-05, 7.399999999998373e-03, 2.896606265144898e-04, -9.583789632539056e-06, 1.206993702271195e+01, -1.876043591491790e+02, 7.222823598404013e+01, 2.464497856464979e+02
451, 1.000000000001480e-04, 7.399999999997137e-03, 2.895785861114510e-04, -1.251688788342354e-05, 1.110141761398963e+01, -3.922357178609163e+02, 4.971028998573576e+01, 4.154097935472470e+02
452, 1.500000000000842e-04, 7.399999999995899e-03, 2.894994438570679e-04, -1.545083952408728e-05, 9.084364571461272e+00, -5.955776584471364e+02, 2.024579249963369e+01, 6.060162791020518e+02
453, 2.000000000000320e-04, 7.399999999994663e-03, 2.894231664649366e-04, -1.838598684131497e-05, 5.900058380616457e+00, -7.973932384983302e+02, -1.614746717231024e+01, 8.039422140894026e+02
454, -1.999999999999424e-04, 7.300000000004963e-03, 2.842459474411735e-04, 5.222629903819104e-06, 5.595942065863866e+00, 9.037170486343700e+02, 8.430711317539723e+01, 9.138119496875246e+02
455, -1.499999999998800e-04, 7.300000000003675e-03, 2.841488271264879e-04, 2.296059697138298e-06, 8.135114975356700e+00, 6.818537262239554e+02, 9.679909475873028e+01, 7.009829000248002e+02
456, -9.999999999979085e-05, 7.300000000002383e-03, 2.840548940922529e-04, -6.296259950533171e-07, 1.019147184846894e+01, 4.601211175103591e+02, 1.020219306595125e+02, 4.940350021885206e+02
457, -4.999999999973237e-05, 7.300000000001096e-03, 2.839641416231763e-04, -3.554782172004297e-06, 1.164808406459657e+01, 2.387558770487146e+02, 9.999274054397243e+01, 3.026088932600854e+02
458, 2.949029909160572e-16, 7.299999999999806e-03, 2.838765575842907e-04, -6.479763608000311e-06, 1.238702435794895e+01, 1.799404754359070e+01, 9.072865651571853e+01, 1.815439207508565e+02
459, 5.000000000020089e-05, 7.299999999998517e-03, 2.837921244204793e-04, -9.404924859697463e-06, 1.229030205174190e+01, -2.019280431163335e+02, 7.424676782553595e+01, 2.606526990781121e+02
460, 1.000000000001404e-04, 7.299999999997227e-03, 2.837108191545289e-04, -1.233062026599757e-05, 1.123979995888524e+01, -4.207737482790055e+02, 5.056420275790413e+01, 4.436920782065667e+02
461, 1.500000000000799e-04, 7.299999999995936e-03, 2.836326133834078e-04, -1.525720394725387e-05, 9.117239432714314e+00, -6.383060436325845e+02, 1.969813280811894e+01, 6.486208239021896e+02
462, 2.000000000000302e-04, 7.299999999994650e-03, 2.835574732733645e-04, -1.818502980634550e-05, 5.803887878614333e+00, -8.542876930231934e+02, -1.833427546337593e+01, 8.608728768902170e+02
463, -1.999999999999443e-04, 7.200000000005343e-03, 2.783917353199374e-04, 5.361459031999448e-06, 5.872033075412631e+00, 9.626996417595840e+02, 8.868914132622027e+01, 9.731300673070372e+02
464, -1.499999999998843e-04, 7.200000000003976e-03, 2.782943402394578e-04, 2.442796355936897e-06, 8.445834688986096e+00, 7.260331691901172e+02, 1.011750895745337e+02, 7.455717119352759e+02
465, -9.999999999979844e-05, 7.200000000002606e-03, 2.782003431866114e-04, -4.749590576062039e-07, 1.051358315037270e+01, 4.895207675492213e+02, 1.061566660370539e+02, 5.239511749028940e+02
466, -4.999999999974257e-05, 7.200000000001237e-03, 2.781097369095385e-04, -3.392173774222199e-06, 1.195769729670285e+01, 2.533981617859704e+02, 1.036506898827011e+02, 3.182253288873040e+02
467, 2.821094052807283e-16, 7.199999999999870e-03, 2.780225087432426e-04, -6.309214146727733e-06, 1.266070890706307e+01, 1.790167539226289e+01, 9.367391866963828e+01, 1.874211297730409e+02
468, 5.000000000019069e-05, 7.199999999998501e-03, 2.779386406048380e-04, -9.226446316249639e-06, 1.250476700663258e+01, -2.167322210653548e+02, 7.624307778082421e+01, 2.753209478740906e+02
469, 1.000000000001328e-04, 7.199999999997132e-03, 2.778581089893861e-04, -1.214423621517862e-05, 1.137175559048383e+01, -4.502667697354831e+02, 5.137487274218468e+01, 4.729351311355883e+02
470, 1.500000000000756e-04, 7.199999999995762e-03, 2.777808849651293e-04, -1.506294956889471e-05, 9.143300001082601e+00, -6.824648840229197e+02, 1.908602391978408e+01, 6.926608011467406e+02
471, 2.000000000000282e-04, 7.199999999994395e-03, 2.777069341683187e-04, -1.798295189560727e-05, 5.701264581931689e+00, -9.130887046872697e+02, -2.060678679506945e+01, 9.197138502152558e+02
472, -1.999999999999461e-04, 7.100000000005715e-03, 2.725534695262033e-04, 5.497261349899530e-06, 6.162524034581779e+00, 1.023578478608177e+03, 9.314947144277733e+01, 1.034331920004973e+03
473, -1.499999999998886e-04, 7.100000000004259e-03, 2.724558054183084e-04, 2.587026728842906e-06, 8.764532048183796e+00, 7.716335847278181e+02, 1.056091051611374e+02, 7.915695319478051e+02
474, -9.999999999980600e-05, 7.100000000002804e-03, 2.723617567422002e-04, -3.222781724717185e-07, 1.083853266147091e+01, 5.198662078396424e+02, 1.103293179167679e+02, 5.547967264369997e+02
475, -4.999999999975274e-05, 7.100000000001348e-03, 2.722713157345113e-04, -3.231031482252781e-06, 1.226703973721175e+01, 2.685119450939255e+02, 1.073265578187338e+02, 3.342714638944570e+02
476, 2.692616095367750e-16, 7.099999999999895e-03, 2.721844692199591e-04, -6.139611123835882e-06, 1.293235045598105e+01, 1.780675707847958e+01, 9.661715794755372e+01, 1.932957854671737e+02
477, 5.000000000018050e-05, 7.099999999998441e-03, 2.721011986074404e-04, -9.048394819995866e-06, 1.271662783209037e+01, -2.320129288315171e+02, 7.821739623525616e+01, 2.904555046819704e+02
478, 1.000000000001252e-04, 7.099999999996985e-03, 2.720214798851087e-04, -1.195776009584790e-05, 1.150179107535760e+01, -4.807103235736208e+02, 5.214352175297088e+01, 5.031387018014310e+02
479, 1.500000000000712e-04, 7.099999999995530e-03, 2.719452836155893e-04, -1.486808428101172e-05, 9.169531295338004e+00, -7.280482491635337e+02, 1.841176253983876e+01, 7.381368625288935e+02
480, 2.000000000000263e-04, 7.099999999994075e-03, 2.718725749307893e-04, -1.777974451248466e-05, 5.601178536083410e+00, -9.737892531164365e+02, -2.296149929031651e+01, 9.804664907130411e+02
481, -1.999999999999481e-04, 7.000000000006086e-03, 2.667322033897223e-04, 5.629912432083645e-06, 6.446773639771266e+00, 1.086338858157927e+03, 9.768452017162703e+01, 1.097422423741018e+03
482, -1.499999999998929e-04, 7.000000000004546e-03, 2.666342765729385e-04, 2.728642804601006e-06, 9.077404243192987e+00, 8.186459317022795e+02, 1.100983093601671e+02, 8.389801854323747e+02
483, -9.999999999981362e-05, 7.000000000003004e-03, 2.665401892802588e-04, -1.716749344415215e-07, 1.115733472384200e+01, 5.511524560803566e+02, 1.145378865009816e+02, 5.865751792100343e+02
484, -4.999999999976293e-05, 7.000000000001462e-03, 2.664499332461355e-04, -3.071430464541428e-06, 1.256945448558749e+01, 2.840940492912883e+02, 1.110191702471901e+02, 3.507515220692540e+02
485, 2.564544713742900e-16, 6.999999999999921e-03, 2.663634947985667e-04, -5.971013273090561e-06, 1.319636312070597e+01, 1.770680880032575e+01, 9.955801185767271e+01, 1.991671032586426e+02
486, 5.000000000017032e-05, 6.999999999998381e-03, 2.662808548519998e-04, -8.870812659674773e-06, 1.292024935825013e+01, -2.477728965588165e+02, 8.017021688665903e+01, 3.060555031865180e+02
487, 1.000000000001176e-04, 6.999999999996837e-03, 2.662019889020989e-04, -1.177121773820143e-05, 1.162303109723736e+01, -5.121083200526357e+02, 5.287156233190287e+01, 5.342996692783337e+02
488, 1.500000000000668e-04, 6.999999999995296e-03, 2.661268670204406e-04, -1.467261743975924e-05, 9.186341654721062e+00, -7.750623458729158e+02, 1.767780541534495e+01, 7.850452363437613e+02
489, 2.000000000000244e-04, 6.999999999993755e-03, 2.660554538490178e-04, -1.757540051459836e-05, 5.491094041576879e+00, -1.036397796269342e+03, -2.539543535307738e+01, 1.043126153588533e+03
490, -1.999999999999499e-04, 6.900000000006458e-03, 2.609290229321553e-04, 5.759286424375565e-06, 6.734982810405654e+00, 1.150990520054774e+03, 1.022917791399309e+02, 1.162400605141294e+03
491, -1.499999999998973e-04, 6.900000000004828e-03, 2.608308404171428e-04, 2.867535138299206e-06, 9.389723373771872e+00, 8.670762797192458e+02, 1.146408186197974e+02, 8.878042003229242e+02
492, -9.999999999982122e-05, 6.900000000003202e-03, 2.607367281816124e-04, -2.324236984150194e-08, 1.147242272862681e+01, 5.833832372322402e+02, 1.187810647300818e+02, 6.192880953965076e+02
493, -4.999999999977310e-05, 6.900000000001573e-03, 2.606466774827054e-04, -2.913447319323574e-06, 1.286633910478004e+01, 3.001473170620544e+02, 1.147278189179085e+02, 3.676686688184479e+02
494, 2.436337806846489e-16, 6.899999999999946e-03, 2.605606741704401e-04, -5.803480757026067e-06, 1.345379564860272e+01, 1.760427943395783e+01, 1.024963764814277e+02, 2.050347660347940e+02
495, 5.000000000016015e-05, 6.899999999998319e-03, 2.604786986832007e-04, -8.693743554399094e-06, 1.311691071520369e+01, -2.640096557820222e+02, 8.210203547361547e+01, 3.221212671870403e+02
496, 1.000000000001100e-04, 6.899999999996692e-03, 2.604007260423384e-04, -1.158463641005870e-05, 1.173755009696094e+01, -5.444578408946853e+02, 5.356006217082763e+01, 5.664168376728591e+02
497, 1.500000000000625e-04, 6.899999999995065e-03, 2.603267258468572e-04, -1.447655985218418e-05, 9.197310304919625e+00, -8.235032225905140e+02, 1.688568275027214e+01, 8.333850746276361e+02
498, 2.000000000000225e-04, 6.899999999993437e-03, 2.602566622680300e-04, -1.736991424305928e-05, 5.377993440783186e+00, -1.100907966766582e+03, -2.790593556593495e+01, 1.107692913542004e+03
499, -1.999999999999519e-04, 6.800000000006828e-03, 2.551450472768551e-04, 5.885256167676120e-06, 7.018037957040534e+00, 1.217525860695260e+03, 1.069683718922196e+02, 1.229267309925516e+03
500, -1.499999999999017e-04, 6.800000000005111e-03, 2.550466166733398e-04, 3.003592960921347e-06, 9.695215540944815e+00, 9.169195353324125e+02, 1.192346520912242e+02, 9.380424166626756e+02
501, -9.999999999982880e-05, 6.800000000003401e-03, 2.549524937836705e-04, 1.229251697652915e-07, 1.178060866730405e+01, 6.165564082876947e+02, 1.230576700060656e+02, 6.529368487041988e+02
502, -4.999999999978328e-05, 6.800000000001686e-03, 2.548626694005649e-04, -2.757159972695964e-06, 1.315614003449470e+01, 3.166712205039915e+02, 1.184520683460900e+02, 3.850259394563856e+02
503, 2.308130899950078e-16, 6.799999999999972e-03, 2.547771289137620e-04, -5.637075065523301e-06, 1.370430428916740e+01, 1.749972247910256e+01, 1.054326488998127e+02, 2.108994523827913e+02
504, 5.000000000014997e-05, 6.799999999998255e-03, 2.546958523049810e-04, -8.517232546292517e-06, 1.330738184951525e+01, -2.807218296675786e+02, 8.401414722568717e+01, 3.386542262568145e+02
505, 1.000000000001024e-04, 6.799999999996542e-03, 2.546188141420122e-04, -1.139804469317887e-05, 1.184736913391308e+01, -5.777567337186997e+02, 5.421127778851864e+01, 5.994901572657303e+02
506, 1.500000000000582e-04, 6.799999999994830e-03, 2.545459835728761e-04, -1.427992362704044e-05, 9.206053730744458e+00, -8.733678000236121e+02, 1.603875126669285e+01, 8.831565962498358e+02
507, 2.000000000000206e-04, 6.799999999993115e-03, 2.544773243213024e-04, -1.716328131234736e-05, 5.264955516894119e+00, -1.167317490579236e+03, -3.048865259132450e+01, 1.174166864053028e+03
508, -1.999999999999538e-04, 6.700000000007203e-03, 2.493814282242875e-04, 6.007693309731303e-06, 7.307482579570120e+00, 1.285953615290315e+03, 1.117095687436846e+02, 1.298018506683068e+03
509, -1.499999999999060e-04, 6.700000000005407e-03, 2.492827578347180e-04, 3.136704314401918e-06, 1.000361576873739e+01, 9.681836100264476e+02, 1.238765933432858e+02, 9.896921455225644e+02
510, -9.999999999983645e-05, 6.700000000003612e-03, 2.491886392294823e-04, 2.667321127816217e-07, 1.208751038830526e+01, 6.506771628427913e+02, 1.273654987472711e+02, 6.875206362768362e+02
511, -4.999999999979346e-05, 6.700000000001816e-03, 2.490990627636991e-04, -2.602647591097343e-06, 1.344172164748630e+01, 3.336690897008584e+02, 1.221908950123883e+02, 4.028250569988215e+02
512, 2.179923993053667e-16, 6.700000000000018e-03, 2.490140133937811e-04, -5.471858942747643e-06, 1.394885716962668e+01, 1.739512210067514e+01, 1.083669494260529e+02, 2.167612964844273e+02
513, 5.000000000013978e-05, 6.699999999998221e-03, 2.489334706700807e-04, -8.341325940299817e-06, 1.349116527903180e+01, -2.979085513863895e+02, 8.590779881862115e+01, 3.556548651863873e+02
514, 1.000000000000948e-04, 6.699999999996424e-03, 2.488574087301454e-04, -1.121147243743836e-05, 1.195057175203803e+01, -6.120052808274030e+02, 5.482757230511261e+01, 6.335180792271256e+02
515, 1.500000000000538e-04, 6.699999999994629e-03, 2.487857962924603e-04, -1.408272214465146e-05, 9.208640559604035e+00, -9.246580135871141e+02, 1.514042872826986e+01, 9.343574573232073e+02
516, 2.000000000000187e-04, 6.699999999992831e-03, 2.487185966499700e-04, -1.695549862845481e-05, 5.146564557558420e+00, -1.235629280767248e+03, -3.313943102875428e+01, 1.242544802370170e+03
517, -1.999999999999557e-04, 6.600000000007607e-03, 2.436393509849795e-04, 6.126468368314731e-06, 7.597415592343538e+00, 1.356271648077532e+03, 1.165104706363505e+02, 1.368656620354838e+03
518, -1.499999999999103e-04, 6.600000000005753e-03, 2.435404496180346e-04, 3.266756056434552e-06, 1.030932663497069e+01, 1.020866901540335e+03, 1.285620401112730e+02, 1.042755678396863e+03
519, -9.999999999984406e-05, 6.600000000003900e-03, 2.434463507487923e-04, 4.080816893956909e-07, 1.238873348816492e+01, 6.857445317916574e+02, 1.317016826317442e+02, 7.230417442589772e+02
520, -4.999999999980367e-05, 6.600000000002050e-03, 2.433570443226908e-04, -2.449990551634131e-06, 1.371983178782101e+01, 3.511405917329095e+02, 1.259428589494211e+02, 4.210690966140072e+02
521, 2.051717086157256e-16, 6.600000000000198e-03, 2.432725148880203e-04, -5.307896352511952e-06, 1.418511848042436e+01, 1.729066625161080e+01, 1.112991068846283e+02, 2.226198760223865e+02
522, 5.000000000012958e-05, 6.599999999998345e-03, 2.431927415872501e-04, -8.166071269750595e-06, 1.366669868521805e+01, -3.155691681222976e+02, 8.778395098436346e+01, 3.731224252094702e+02
523, 1.000000000000872e-04, 6.599999999996491e-03, 2.431176981501069e-04, -1.102495073109063e-05, 1.204635811728767e+01, -6.472023333967575e+02, 5.541093134356258e+01, 6.684985583473048e+02
524, 1.500000000000495e-04, 6.599999999994639e-03, 2.430473528870970e-04, -1.388497003622197e-05, 9.205580637569582e+00, -9.773717420853600e+02, 1.419359740323659e+01, 9.869856364406344e+02
525, 2.000000000000168e-04, 6.599999999992787e-03, 2.429816686829238e-04, -1.674656435927717e-05, 5.025368705804354e+00, -1.305839943655165e+03, -3.585445897998962e+01, 1.312825211544253e+03
526, -1.999999999999576e-04, 6.500000000008018e-03, 2.379200338735432e-04, 6.241450548586038e-06, 7.871809879845273e+00, 1.428469553657223e+03, 1.213686809981934e+02, 1.441186794462931e+03
527, -1.499999999999147e-04, 6.500000000006126e-03, 2.378209107445181e-04, 3.393633790843893e-06, 1.059842559752060e+01, 1.074960307350868e+03, 1.332901406413200e+02, 1.097238015062484e+03
528, -9.999999999985163e-05, 6.500000000004228e-03, 2.377268475053395e-04, 5.468759096869614e-07, 1.267503596118203e+01, 7.217529562900302e+02, 1.360657622672344e+02, 7.595044856637375e+02
529, -4.999999999981387e-05, 6.500000000002332e-03, 2.376378337084058e-04, -2.299270424763051e-06, 1.398431067661494e+01, 3.690824377395930e+02, 1.297080885584993e+02, 4.397629279437194e+02
530, 1.923510179260846e-16, 6.500000000000438e-03, 2.375538535098187e-04, -5.145252436351645e-06, 1.440887318855975e+01, 1.718445773070097e+01, 1.142299356262183e+02, 2.284767310739333e+02
531, 5.000000000011942e-05, 6.499999999998543e-03, 2.374748856615419e-04, -7.991517237081306e-06, 1.383090300130023e+01, -3.337048463764004e+02, 8.964418428242911e+01, 3.910567940826095e+02
532, 1.000000000000796e-04, 6.499999999996646e-03, 2.374009035042087e-04, -1.083851182698540e-05, 1.213221238695114e+01, -6.833488369837371e+02, 5.596373416116697e+01, 7.044300165373425e+02
533, 1.500000000000451e-04, 6.499999999994751e-03, 2.373318749599616e-04, -1.368668309482325e-05, 9.194268151963428e+00, -1.031510365189865e+03, 1.320151362475586e+01, 1.041039506314284e+03
534, 2.000000000000149e-04, 6.499999999992855e-03, 2.372677625256621e-04, -1.653647781777166e-05, 4.898355530051617e+00, -1.377951637924348e+03, -3.862960012430528e+01, 1.385006530100089e+03
535, -1.999999999999595e-04, 6.400000000008258e-03, 2.322247274268347e-04, 6.352508101546908e-06, 8.149253851748540e+00, 1.502560343333306e+03, 1.262808537901433e+02, 1.515602824126863e+03
536, -1.499999999999190e-04, 6.400000000006336e-03, 2.321253923838429e-04, 3.517222120049730e-06, 1.088595050720076e+01, 1.130474650587000e+03, 1.380588697061924e+02, 1.153134798436237e+03
537, -9.999999999985919e-05, 6.400000000004416e-03, 2.320313812513066e-04, 6.830157674891693e-07, 1.295606068158732e+01, 7.587095869720844e+02, 1.404566192158733e+02, 7.969068763042030e+02
538, -4.999999999982406e-05, 6.400000000002495e-03, 2.319426832203935e-04, -2.150569810890348e-06, 1.424149770001250e+01, 3.874996560541396e+02, 1.334862940396658e+02, 4.589074150236528e+02
539, 1.795438797635995e-16, 6.400000000000575e-03, 2.318592820833255e-04, -4.983993374902878e-06, 1.462459175674965e+01, 1.708034148818157e+01, 1.171600585889394e+02, 2.343329853456365e+02
540, 5.000000000010922e-05, 6.399999999998654e-03, 2.317811562289573e-04, -7.817713589415844e-06, 1.398750207834128e+01, -3.523122170336293e+02, 9.149009651042816e+01, 4.094596869771900e+02
541, 1.000000000000720e-04, 6.399999999996736e-03, 2.317082786358787e-04, -1.065218902461892e-05, 1.221204434703526e+01, -7.204413378189456e+02, 5.648861405625014e+01, 7.413129113075224e+02
542, 1.500000000000408e-04, 6.399999999994814e-03, 2.316406168652255e-04, -1.348787815640686e-05, 9.179672953678150e+00, -1.087069803529088e+03, 1.216783996808053e+01, 1.096519557512174e+03
543, 2.000000000000129e-04, 6.399999999992895e-03, 2.315781330533240e-04, -1.632523936758426e-05, 4.771627364211824e+00, -1.451959758653546e+03, -4.145986459315606e+01, 1.459089446366311e+03
544, -1.999999999999615e-04, 6.300000000008254e-03, 2.265547154221356e-04, 6.459508459182763e-06, 8.427103573823700e+00, 1.578541119129302e+03, 1.312406295637550e+02, 1.591902771288784e+03
545, -1.499999999999234e-04, 6.300000000006307e-03, 2.264551787940283e-04, 3.637404815207283e-06, 1.117187109114576e+01, 1.187409284666652e+03, 1.428629662201513e+02, 1.210443621803046e+03
546, -9.999999999986685e-05, 6.300000000004357e-03, 2.263612367222436e-04, 8.164013838938392e-07, 1.323247718421879e+01, 7.966148103607827e+02, 1.448707019373973e+02, 8.352472454623802e+02
547, -4.999999999983422e-05, 6.300000000002410e-03, 2.262728780603565e-04, -2.003972214963723e-06, 1.449179035821891e+01, 4.063927795781593e+02, 1.372755614656424e+02, 4.785025647312638e+02
548, 1.667096365468024e-16, 6.300000000000461e-03, 2.261900862658428e-04, -4.824186276711322e-06, 1.483224877237254e+01, 1.697876130924652e+01, 1.200890711362106e+02, 2.401877339530526e+02
549, 5.000000000009904e-05, 6.299999999998514e-03, 2.261128393932287e-04, -7.644711017490033e-06, 1.413592973296159e+01, -3.713911418886975e+02, 9.332272002504031e+01, 4.283312307603312e+02
550, 1.000000000000644e-04, 6.299999999996569e-03, 2.260411100871908e-04, -1.046601657599949e-05, 1.228456147970297e+01, -7.584802631453538e+02, 5.698800380278175e+01, 7.791462925465268e+02
551, 1.500000000000364e-04, 6.299999999994618e-03, 2.259748655752056e-04, -1.328857301474077e-05, 9.159513594441464e+00, -1.144051361030404e+03, 1.109644692724063e+01, 1.153424399729188e+03
552, 2.000000000000111e-04, 6.299999999992672e-03, 2.259140676600010e-04, -1.611285032005320e-05, 4.641463535607883e+00, -1.527866867843748e+03, -4.434041608965346e+01, 1.535072009953655e+03
553, -1.999999999999633e-04, 6.200000000008235e-03, 2.209113149070918e-04, 6.562318143480914e-06, 8.703175492087382e+00, 1.656412636621768e+03, 1.362422593960190e+02, 1.670088105842800e+03
554, -1.499999999999277e-04, 6.200000000006244e-03, 2.208115873921111e-04, 3.754064754425418e-06, 1.145234660070929e+01, 1.245763429545252e+03, 1.476976675599285e+02, 1.269165967669439e+03
555, -9.999999999987445e-05, 6.200000000004252e-03, 2.207177317090374e-04, 9.469319938686089e-07, 1.350105734029530e+01, 8.354679042893160e+02, 1.493046125950395e+02, 8.745267101992564e+02
556, -4.999999999984441e-05, 6.200000000002263e-03, 2.206297364000820e-04, -1.859562029268023e-06, 1.473280716393073e+01, 4.257614742036290e+02, 1.410739131835928e+02, 4.985498581407467e+02
557, 1.538618408028491e-16, 6.200000000000271e-03, 2.205475846139043e-04, -4.665899142663661e-06, 1.503003726549325e+01, 1.687964560006795e+01, 1.230163679308964e+02, 2.460396881940596e+02
558, 5.000000000008886e-05, 6.199999999998280e-03, 2.204712540973359e-04, -7.472561112011433e-06, 1.427472390089616e+01, -3.909415739427295e+02, 9.514275779829607e+01, 4.476704429420764e+02
559, 1.000000000000568e-04, 6.199999999996288e-03, 2.204007171879860e-04, -1.028002964329905e-05, 1.234846115477852e+01, -7.974655991940002e+02, 5.746385158079791e+01, 8.179285966956867e+02
560, 1.500000000000321e-04, 6.199999999994299e-03, 2.203359408066231e-04, -1.308878638472530e-05, 9.132433878080946e+00, -1.202455266980389e+03, 9.990414766964477e+00, 1.211752446013780e+03
561, 2.000000000000091e-04, 6.199999999992307e-03, 2.202768864487963e-04, -1.589931292924742e-05, 4.507596492083053e+00, -1.605672647872404e+03, -4.726680602992955e+01, 1.612952889315358e+03
562, -1.999999999999653e-04, 6.100000000008216e-03, 2.152958760056598e-04, 6.660802800117846e-06, 8.968801170805733e+00, 1.736169345034835e+03, 1.412816201247005e+02, 1.750161050722030e+03
563, -1.499999999999321e-04, 6.100000000006179e-03, 2.151959686085676e-04, 3.867083944683165e-06, 1.172039968614101e+01, 1.305532994883938e+03, 1.525600880796832e+02, 1.329304086126264e+03
564, -9.999999999988203e-05, 6.100000000004146e-03, 2.151022169629457e-04, 1.074505984638378e-06, 1.375713236303156e+01, 8.752665594557844e+02, 1.537563578746920e+02, 9.147472674554676e+02
565, -4.999999999985460e-05, 6.100000000002112e-03, 2.150146093229182e-04, -1.717424477511958e-06, 1.496171086359561e+01, 4.456048034040180e+02, 1.448803238400712e+02, 5.190517373988785e+02
566, 1.410275975860520e-16, 6.100000000000079e-03, 2.149331285513242e-04, -4.509200795602927e-06, 1.521659935596864e+01, 1.678312846287335e+01, 1.259420281918032e+02, 2.518889276520558e+02
567, 5.000000000007866e-05, 6.099999999998046e-03, 2.148577521126059e-04, -7.301316280127228e-06, 1.440387904780513e+01, -4.109624615883633e+02, 9.695149304025914e+01, 4.674771564014081e+02
568, 1.000000000000492e-04, 6.099999999996011e-03, 2.147884520650164e-04, -1.009426420061551e-05, 1.240522730806708e+01, -8.373953495832649e+02, 5.791871207519487e+01, 8.576592151423769e+02
569, 1.500000000000277e-04, 6.099999999993980e-03, 2.147251950524136e-04, -1.288853778846390e-05, 9.101935410658839e+00, -1.262278270414196e+03, 8.853659570526801e+00, 1.271503510382261e+03
570, 2.000000000000072e-04, 6.099999999991945e-03, 2.146679422960576e-04, -1.568463023964549e-05, 4.374916110840800e+00, -1.685373312493089e+03, -5.023366512513767e+01, 1.692732335757114e+03
571, -1.999999999999672e-04, 6.000000000008407e-03, 2.097097814684336e-04, 6.754827424630116e-06, 9.232853308860228e+00, 1.817817166062066e+03, 1.463536127806197e+02, 1.832117555243861e+03
572, -1.499999999999365e-04, 6.000000000006308e-03, 2.096097055921542e-04, 3.976343727245464e-06, 1.198318405733812e+01, 1.366723111230608e+03, 1.574466280702729e+02, 1.390855144520892e+03
573, -9.999999999988962e-05, 6.000000000004209e-03, 2.095160759990606e-04, 1.199021060045217e-06, 1.400514804739166e+01, 9.160144445388175e+02, 1.582234532517999e+02, 9.559076396768962e+02
574, -4.999999999986476e-05, 6.000000000002106e-03, 2.094288806847391e-04, -1.577645478946765e-06, 1.518092836037678e+01, 4.659253037475469e+02, 1.486935067696432e+02, 5.400088219325550e+02
575, 1.282204594235670e-16, 6.000000000000007e-03, 2.093481022567490e-04, -4.354160762551659e-06, 1.539296407414938e+01, 1.669089234716101e+01, 1.288660556194585e+02, 2.577353793747985e+02
576, 5.000000000006848e-05, 5.999999999997906e-03, 2.092737179280479e-04, -7.131029638713125e-06, 1.452338449229445e+01, -4.314528660616645e+02, 9.875030336840622e+01, 4.877512744417759e+02
577, 1.000000000000416e-04, 5.999999999995806e-03, 2.092056995085723e-04, -9.908756934537700e-06, 1.245389786353770e+01, -8.782693870445845e+02, 5.835541216864226e+01, 8.983370118140543e+02
578, 1.500000000000234e-04, 5.999999999993707e-03, 2.091440133964209e-04, -1.268784745963546e-05, 9.065760119205663e+00, -1.323521444438445e+03, 7.690525500200984e+00, 1.332675967548244e+03
579, 2.000000000000053e-04, 5.999999999991606e-03, 2.090886205688541e-04, -1.546880600872324e-05, 4.239685950952506e+00, -1.766971231773992e+03, -5.323522508001304e+01, 1.774408090554515e+03
580, -1.999999999999690e-04, 5.900000000008779e-03, 2.041544472092489e-04, 6.844256528376685e-06, 9.496697883429761e+00, 1.901356988619679e+03, 1.514509605213188e+02, 1.915955357892236e+03
581, -1.499999999999408e-04, 5.900000000006594e-03, 2.040542145589399e-04, 4.081724926284097e-06, 1.224252056378793e+01, 1.429335661347077e+03, 1.623512410011350e+02, 1.453817275820274e+03
582, -9.999999999989724e-05, 5.900000000004408e-03, 2.039607253181852e-04, 1.320374370029407e-06, 1.424624593653519e+01, 9.577134054881167e+02, 1.627017103176680e+02, 9.980068473279664e+02
583, -4.999999999987495e-05, 5.900000000002220e-03, 2.038739672561515e-04, -1.440311536335153e-06, 1.539099990678497e+01, 4.867246529599295e+02, 1.525110709645885e+02, 5.614213387176203e+02
584, 1.153862162067698e-16, 5.900000000000033e-03, 2.037939227605233e-04, -4.200849175300472e-06, 1.555935025038187e+01, 1.660449846803688e+01, 1.317877610984765e+02, 2.635775943364559e+02
585, 5.000000000005830e-05, 5.899999999997847e-03, 2.037205688277878e-04, -6.961754925337874e-06, 1.463340961287898e+01, -4.524112485533192e+02, 1.005401155203166e+02, 5.084918603448194e+02
586, 1.000000000000340e-04, 5.899999999995659e-03, 2.036538770537822e-04, -9.723545165605964e-06, 1.249483115815266e+01, -9.200860866241438e+02, 5.877642661972219e+01, 9.399605531704003e+02
587, 1.500000000000191e-04, 5.899999999993472e-03, 2.035938136244045e-04, -1.248673627948016e-05, 9.024806995661208e+00, -1.386182831219368e+03, 6.504964158014623e+00, 1.395268293902054e+03
588, 2.000000000000034e-04, 5.899999999991286e-03, 2.035403393063319e-04, -1.525184465805493e-05, 4.104098848199442e+00, -1.850463588677525e+03, -5.626601793620780e+01, 1.857978677679618e+03
589, -1.999999999999710e-04, 5.800000000009150e-03, 1.986313224828954e-04, 6.928954081952741e-06, 9.752765976114603e+00, 1.986785432073977e+03, 1.565668783502571e+02, 2.001677024997639e+03
590, -1.499999999999452e-04, 5.800000000006880e-03, 1.985309449096610e-04, 4.183107827264962e-06, 1.249106666052171e+01, 1.493367659062962e+03, 1.672686090902116e+02, 1.518193213090270e+03
591, -9.999999999990477e-05, 5.800000000004606e-03, 1.984376144748286e-04, 1.438462524095041e-06, 1.447481791333169e+01, 1.000361639971500e+03, 1.671875035509192e+02, 1.041047295410881e+03
592, -4.999999999988512e-05, 5.800000000002332e-03, 1.983513187553213e-04, -1.305509693190688e-06, 1.558782824831371e+01, 5.080019724047223e+02, 1.563311077482144e+02, 5.832918226449121e+02
593, 1.025655255171287e-16, 5.800000000000059e-03, 1.982720399525564e-04, -4.049336706748886e-06, 1.571282591988279e+01, 1.652371029159455e+01, 1.347068903134969e+02, 2.694150009282969e+02
594, 5.000000000004811e-05, 5.799999999997786e-03, 1.981997548798228e-04, -6.793546419137756e-06, 1.473190592459704e+01, -4.738374348954200e+02, 1.023222764503226e+02, 5.296974549884216e+02
595, 1.000000000000264e-04, 5.799999999995513e-03, 1.981344349519154e-04, -9.538666756758147e-06, 1.252666465765805e+01, -9.628450349922058e+02, 5.918466412901792e+01, 9.825279896013766e+02
596, 1.500000000000147e-04, 5.799999999993240e-03, 1.980760461754658e-04, -1.228522567282458e-05, 8.978244201389856e+00, -1.450261932177137e+03, 5.301438473224223e+00, 1.459278696259482e+03
597, 2.000000000000015e-04, 5.799999999990969e-03, 1.980245491397238e-04, -1.503375115014710e-05, 3.967357208707028e+00, -1.935850241865785e+03, -5.932002152344435e+01, 1.943442249590477e+03
598, -1.999999999999729e-04, 5.700000000009518e-03, 1.931418894745510e-04, 7.008783572356816e-06, 9.995230800380966e+00, 2.074099943487982e+03, 1.616963643309444e+02, 2.089284835031008e+03
599, -1.499999999999495e-04, 5.700000000007160e-03, 1.930413789338362e-04, 4.280372221729384e-06, 1.272315034346747e+01, 1.558816906796849e+03, 1.721954390400161e+02, 1.583985789282487e+03
600, -9.999999999991239e-05, 5.700000000004800e-03, 1.929482258677396e-04, 1.553181653750669e-06, 1.468632181194320e+01, 1.043957715986527e+03, 1.716788710225037e+02, 1.085031862153521e+03
601, -4.999999999989533e-05, 5.700000000002444e-03, 1.928624176980621e-04, -1.173327456609582e-06, 1.576807328800172e+01, 5.297565976883593e+02, 1.601529540678199e+02, 6.056237099072773e+02
602, 8.974483482748763e-17, 5.700000000000083e-03, 1.927839364724135e-04, -3.899694482869942e-06, 1.585106056226618e+01, 1.644845912931737e+01, 1.376241385365652e+02, 2.752489253689734e+02
603, 5.000000000003792e-05, 5.699999999997726e-03, 1.927127588529893e-04, -6.626458845442474e-06, 1.481739370842601e+01, -4.957310462541514e+02, 1.040988942729863e+02, 5.513674171581550e+02
604, 1.000000000000188e-04, 5.699999999995369e-03, 1.926488561060804e-04, -9.354160012945686e-06, 1.254867404109982e+01, -1.006545515881842e+03, 5.958368741841604e+01, 1.026037928714236e+03
605, 1.500000000000104e-04, 5.699999999993010e-03, 1.925921940920429e-04, -1.208333750423577e-05, 8.926019518934737e+00, -1.515757795434688e+03, 4.084984558399029e+00, 1.524705704054688e+03
606, 1.999999999999996e-04, 5.699999999990651e-03, 1.925427332555969e-04, -1.481453089039575e-05, 3.830093227153640e+00, -2.023129975871630e+03, -6.239072900056809e+01, 2.030797265603298e+03
607, -1.999999999999748e-04, 5.600000000009672e-03, 1.876876629853893e-04, 7.083608215359721e-06, 1.022560357958540e+01, 2.163300835555138e+03, 1.668343598758629e+02, 2.178776668015182e+03
608, -1.499999999999538e-04, 5.600000000007281e-03, 1.875870315743310e-04, 4.373397617264797e-06, 1.294065659793901e+01, 1.625684401453493e+03, 1.771284978440817e+02, 1.651193630548737e+03
609, -9.999999999991998e-05, 5.600000000004890e-03, 1.874940745683374e-04, 1.664427596881994e-06, 1.488208498849943e+01, 1.088502738627732e+03, 1.761739321652769e+02, 1.129960320285201e+03
610, -4.999999999990553e-05, 5.600000000002499e-03, 1.874087792708671e-04, -1.043852633687517e-06, 1.593249246851286e+01, 5.519895961669812e+02, 1.639760667565085e+02, 6.284185072874050e+02
611, 7.692414413784654e-17, 5.600000000000110e-03, 1.873311276113618e-04, -3.751993934875730e-06, 1.597445007801218e+01, 1.637978132023321e+01, 1.405403622780558e+02, 2.810810168090413e+02
612, 5.000000000002774e-05, 5.599999999997718e-03, 1.872610961361924e-04, -6.460547239133521e-06, 1.489008850501324e+01, -5.180910825951438e+02, 1.058722934330054e+02, 5.735021349693064e+02
613, 1.000000000000112e-04, 5.599999999995330e-03, 1.871986559984369e-04, -9.170063552119635e-06, 1.256102728921044e+01, -1.051186593240165e+03, 5.997733873051891e+01, 1.070489665913076e+03
614, 1.500000000000060e-04, 5.599999999992939e-03, 1.871437729474216e-04, -1.188109395439169e-05, 8.868363951227423e+00, -1.582669575906287e+03, 2.860987697235039e+00, 1.591548225787807e+03
615, 1.999999999999977e-04, 5.599999999990549e-03, 1.870964073182950e-04, -1.459418960297564e-05, 3.692662692453524e+00, -2.112302096630989e+03, -6.547124100927067e+01, 2.120042394642487e+03
616, -1.999999999999767e-04, 5.500000000009695e-03, 1.822701905955827e-04, 7.153291191034543e-06, 1.045198530025721e+01, 2.254393047080964e+03, 1.719734956293405e+02, 2.270147797290173e+03
617, -1.499999999999582e-04, 5.500000000007305e-03, 1.821694505456420e-04, 4.462063462480855e-06, 1.315032386324572e+01, 1.693974397428142e+03, 1.820621526990508e+02, 1.719812802620373e+03
618, -9.999999999992762e-05, 5.500000000004914e-03, 1.820767083984766e-04, 1.772096097524660e-06, 1.506674196015931e+01, 1.133999898583799e+03, 1.806689925621942e+02, 1.175830152907083e+03
619, -4.999999999991570e-05, 5.500000000002524e-03, 1.819919513787408e-04, -9.171731561953598e-07, 1.608409092037519e+01, 5.747033935071067e+02, 1.677986418037214e+02, 6.516755803213595e+02
620, 6.410345344820545e-17, 5.500000000000133e-03, 1.819151613389225e-04, -3.606306642811988e-06, 1.608488367521690e+01, 1.631958710753023e+01, 1.434555890145663e+02, 2.869112740269467e+02
621, 5.000000000001756e-05, 5.499999999997745e-03, 1.818463147502151e-04, -6.295866802377488e-06, 1.495118644387361e+01, -5.409159752066930e+02, 1.076442888370023e+02, 5.961018982341468e+02
622, 1.000000000000036e-04, 5.499999999995354e-03, 1.817853826922607e-04, -8.986416173444153e-06, 1.256455521552903e+01, -1.096766930379962e+03, 6.036918890772270e+01, 1.115882655484439e+03
623, 1.500000000000017e-04, 5.499999999992964e-03, 1.817323308424461e-04, -1.167851739524302e-05, 8.806004586075090e+00, -1.650996109917907e+03, 1.634745759474342e+00, 1.659805334636168e+03
624, 1.999999999999958e-04, 5.499999999990576e-03, 1.816871194649014e-04, -1.437273320959613e-05, 3.555996277972838e+00, -2.203365535315183e+03, -6.855456017444381e+01, 2.211176509800230e+03
625, -1.999999999999786e-04, 5.400000000009719e-03, 1.768910531486974e-04, 7.217695689377630e-06, 1.067024706795024e+01, 2.347373969670213e+03, 1.771053812045762e+02, 2.363397882589757e+03
626, -1.499999999999625e-04, 5.400000000007331e-03, 1.767902166654017e-04, 4.546249212589758e-06, 1.334884762251991e+01, 1.763685076033608e+03, 1.869897144450502e+02, 1.789842877383743e+03
627, -9.999999999993521e-05, 5.400000000004939e-03, 1.766977081513434e-04, 1.876082891179269e-06, 1.523809432740441e+01, 1.180448351169972e+03, 1.851594610627521e+02, 1.222641013026848e+03
628, -4.999999999992589e-05, 5.400000000002551e-03, 1.766135147895358e-04, -7.933769816011749e-07, 1.622139489799781e+01, 5.978978101386615e+02, 1.716181896479735e+02, 6.753951910692141e+02
629, 5.128276275856436e-17, 5.400000000000158e-03, 1.765376183953822e-04, -3.462704228256634e-06, 1.618135704310978e+01, 1.626812195510786e+01, 1.463693616608887e+02, 2.927387361799153e+02
630, 5.000000000000737e-05, 5.399999999997771e-03, 1.764699954054243e-04, -6.132472792365949e-06, 1.500001634821166e+01, -5.642052271684388e+02, 1.094163850433510e+02, 6.191659675571661e+02
631, 9.999999999999598e-05, 5.399999999995381e-03, 1.764106168663751e-04, -8.803256742054412e-06, 1.255886589526170e+01, -1.143285904859906e+03, 6.076264873141997e+01, 1.162215785474237e+03
632, 1.499999999999973e-04, 5.399999999992991e-03, 1.763594484240318e-04, -1.147563027272800e-05, 8.738851268556942e+00, -1.720736729833962e+03, 4.115406173946283e-01, 1.729475776960353e+03
633, 1.999999999999938e-04, 5.399999999990601e-03, 1.763164503120437e-04, -1.415016770974730e-05, 3.420333613283333e+00, -2.296319695280056e+03, -7.163353915263822e+01, 2.304198267558691e+03
634, -1.999999999999805e-04, 5.300000000009745e-03, 1.715518645755555e-04, 7.276684935299546e-06, 1.087649304616860e+01, 2.442242249108263e+03, 1.822225116891330e+02, 2.458527936554023e+03
635, -1.499999999999669e-04, 5.300000000007331e-03, 1.714509437512645e-04, 4.625834361495601e-06, 1.353215716586649e+01, 1.834815121499865e+03, 1.919055206309748e+02, 1.861285188134214e+03
636, -9.999999999994280e-05, 5.300000000004915e-03, 1.713586875322564e-04, 1.976283759754099e-06, 1.539285291488019e+01, 1.227847320025810e+03, 1.896414568820283e+02, 1.270394176423444e+03
637, -4.999999999993605e-05, 5.300000000002501e-03, 1.712750830995185e-04, -6.725520171620951e-07, 1.634193603650519e+01, 6.215725848175266e+02, 1.754326800704274e+02, 6.995789013189777e+02
638, 3.846207206892327e-17, 5.300000000000087e-03, 1.712001122707093e-04, -3.321258262337945e-06, 1.626208003871682e+01, 1.622550182990747e+01, 1.492815315174338e+02, 2.985630652755423e+02
639, 4.999999999999720e-05, 5.299999999997673e-03, 1.711337514877243e-04, -5.970420417739790e-06, 1.503533603086848e+01, -5.879584832691103e+02, 1.111903190281598e+02, 6.426933127832523e+02
640, 9.999999999998842e-05, 5.299999999995259e-03, 1.710759718048115e-04, -8.620624077410560e-06, 1.254316748463981e+01, -1.190743050274368e+03, 6.116133199655035e+01, 1.209487724607053e+03
641, 1.499999999999930e-04, 5.299999999992844e-03, 1.710267388768873e-04, -1.127245499029379e-05, 8.666465586504387e+00, -1.791890998695124e+03, -8.031408386427472e-01, 1.800558180765374e+03
642, 1.999999999999920e-04, 5.299999999990430e-03, 1.709860129480075e-04, -1.392649906271151e-05, 3.285578935452776e+00, -2.391164229319256e+03, -7.470080950950579e+01, 2.399106235250225e+03
643, -1.999999999999824e-04, 5.200000000009989e-03, 1.662542716873012e-04, 7.330122351255102e-06, 1.107001264251460e+01, 2.538998123656968e+03, 1.873175343827404e+02, 2.555537510819597e+03
644, -1.499999999999712e-04, 5.200000000007502e-03, 1.661532784683219e-04, 4.700698584743357e-06, 1.369956941176608e+01, 1.907365230846314e+03, 1.968042331332415e+02, 1.934139928240197e+03
645, -9.999999999995044e-05, 5.200000000005017e-03, 1.660612930505150e-04, 2.072594663585114e-06, 1.553012357707084e+01, 1.276197548513847e+03, 1.941114688985330e+02, 1.319090370569244e+03
646, -4.999999999994625e-05, 5.200000000002529e-03, 1.659783026565148e-04, -5.547859920167886e-07, 1.644483025927025e+01, 6.457285134167614e+02, 1.792404284116942e+02, 7.242281951133141e+02
647, 2.564138137928218e-17, 5.200000000000042e-03, 1.659042891486694e-04, -3.182040138029458e-06, 1.632636100407768e+01, 1.619260099502728e+01, 1.521922773313523e+02, 3.043845840527292e+02
648, 4.999999999998700e-05, 5.199999999997556e-03, 1.658392290164864e-04, -5.809764709098883e-06, 1.505678010152940e+01, -6.121747798635922e+02, 1.129681613561359e+02, 6.666833219280529e+02
649, 9.999999999998081e-05, 5.199999999995069e-03, 1.657830933641287e-04, -8.438556821141000e-06, 1.251753140571759e+01, -1.239137314212141e+03, 6.156921789045330e+01, 1.257697470350177e+03
650, 1.499999999999887e-04, 5.199999999992581e-03, 1.657358478981715e-04, -1.106901377372518e-05, 8.589456463637134e+00, -1.864457776343335e+03, -2.003409947819812e+00, 1.873051518493693e+03
651, 1.999999999999900e-04, 5.199999999990096e-03, 1.656974529155893e-04, -1.370173305230198e-05, 3.152835348463498e+00, -2.487898010334491e+03, -7.774854677205704e+01, 2.495899369341326e+03
652, -1.999999999999843e-04, 5.100000000010360e-03, 1.609999541894065e-04, 7.377871735473969e-06, 1.125136699474226e+01, 2.637642377112882e+03, 1.923824310870409e+02, 2.654425312038977e+03
653, -1.499999999999755e-04, 5.100000000007788e-03, 1.608989003231741e-04, 4.770721916516637e-06, 1.385159710006639e+01, 1.981336562188423e+03, 2.016799042883706e+02, 2.008406388912313e+03
654, -9.999999999995803e-05, 5.100000000005215e-03, 1.608072040016626e-04, 2.164911905799348e-06, 1.564999914819637e+01, 1.325500175943359e+03, 1.985656290222446e+02, 1.368729601406471e+03
655, -4.999999999995644e-05, 5.100000000002642e-03, 1.607248525353902e-04, -4.401663028430033e-07, 1.652987259170504e+01, 6.703666573876562e+02, 1.830396108185303e+02, 7.493440716164391e+02
656, 1.282069068964109e-17, 5.100000000000066e-03, 1.606518278772079e-04, -3.045120922375896e-06, 1.637390002883029e+01, 1.617043267221140e+01, 1.551018023110661e+02, 3.102036713508229e+02
657, 4.999999999997683e-05, 5.099999999997495e-03, 1.605881066092668e-04, -5.650560375187825e-06, 1.506411167042125e+01, -6.368531414207928e+02, 1.147521436539806e+02, 6.911355314051862e+02
658, 9.999999999997324e-05, 5.099999999994921e-03, 1.605336599303487e-04, -8.257093295173455e-06, 1.248191005131218e+01, -1.288467762452124e+03, 6.199057470682597e+01, 1.306844051827428e+03
659, 1.499999999999843e-04, 5.099999999992348e-03, 1.604884536432747e-04, -1.086532852993117e-05, 8.508069897001235e+00, -1.938436185474532e+03, -3.182952031761502e+00, 1.946954662609985e+03
660, 1.999999999999881e-04, 5.099999999989774e-03, 1.604524481423286e-04, -1.347587514255660e-05, 3.022716263990901e+00, -2.586520239224509e+03, -8.076845340033606e+01, 2.594576437605731e+03
661, -1.999999999999862e-04, 5.000000000010596e-03, 1.557906247765331e-04, 7.419797394201891e-06, 1.141979757396152e+01, 2.738175350865747e+03, 1.974086026982551e+02, 2.755190823352295e+03
662, -1.499999999999799e-04, 5.000000000007969e-03, 1.556895217225748e-04, 4.835784887865449e-06, 1.398710329838136e+01, 2.056729300813139e+03, 2.065261080251556e+02, 2.084084407765552e+03
663, -9.999999999996564e-05, 5.000000000005344e-03, 1.555981324986636e-04, 2.253132275406478e-06, 1.575136799082495e+01, 1.375755493970687e+03, 2.029997320147561e+02, 1.419312082480277e+03
664, -4.999999999996662e-05, 5.000000000002718e-03, 1.555164445507381e-04, -3.287798699564532e-07, 1.659607106288229e+01, 6.954874749448406e+02, 1.868281923921371e+02, 7.749275012250306e+02
665, 0.000000000000000e+00, 5.000000000000093e-03, 1.554444399684560e-04, -2.910571214108484e-06, 1.640379885899947e+01, 1.615954156807436e+01, 1.580102042965551e+02, 3.160205029883036e+02
666, 4.999999999996663e-05, 4.999999999997467e-03, 1.553820954726300e-04, -5.492861663099686e-06, 1.505651067916654e+01, -6.619930289501750e+02, 1.165444774769433e+02, 7.160492581057523e+02
667, 9.999999999996559e-05, 4.999999999994841e-03, 1.553293824024961e-04, -8.076271365409432e-06, 1.243553996716585e+01, -1.338733966359398e+03, 6.242971766955549e+01, 1.356926274128396e+03
668, 1.499999999999799e-04, 4.999999999992216e-03, 1.552862667028067e-04, -1.066142071422840e-05, 8.421579353533104e+00, -2.013826013332227e+03, -4.335362629697329e+00, 2.022266181193731e+03
669, 1.999999999999863e-04, 4.999999999989590e-03, 1.552527089107537e-04, -1.324893034991182e-05, 2.894641119647503e+00, -2.687030951683849e+03, -8.375203150102345e+01, 2.695135860386529e+03
670, -1.999999999999881e-04, 4.900000000010410e-03, 1.506280291236254e-04, 7.455764252674743e-06, 1.157108600737203e+01, 2.840594360421373e+03, 2.023878141417518e+02, 2.857834144317759e+03
671, -1.499999999999843e-04, 4.900000000007836e-03, 1.505268879651394e-04, 4.895768651166564e-06, 1.410277665927461e+01, 2.133541555255771e+03, 2.113367347357380e+02, 2.161174124871399e+03
672, -9.999999999997321e-05, 4.900000000005265e-03, 1.504358234664939e-04, 2.337153183689117e-06, 1.583205798803894e+01, 1.426962693649297e+03, 2.074097132109377e+02, 1.470838137742804e+03
673, -4.999999999997681e-05, 4.900000000002690e-03, 1.503548232528770e-04, -2.207129950204299e-07, 1.664196283074008e+01, 7.210908671877958e+02, 1.906041829491321e+02, 8.009794486006997e+02
674, -1.282069068964109e-17, 4.900000000000120e-03, 1.502838695961204e-04, -2.778460998601891e-06, 1.641508986043840e+01, 1.616028531456058e+01, 1.609176086411191e+02, 3.218353181496121e+02
675, 4.999999999995644e-05, 4.899999999997547e-03, 1.502229394022412e-04, -5.336722212155949e-06, 1.503342624162630e+01, -6.875937942314868e+02, 1.183474232533831e+02, 7.414239416910101e+02
676, 9.999999999995801e-05, 4.899999999994974e-03, 1.501720041981248e-04, -7.896128295132099e-06, 1.237829577324007e+01, -1.389935090381302e+03, 6.289104673058626e+01, 1.407943169316040e+03
677, 1.499999999999756e-04, 4.899999999992402e-03, 1.501310301179652e-04, -1.045731118394494e-05, 8.330363729051442e+00, -2.090626287582800e+03, -5.454095668952647e+00, 2.098984995831205e+03
678, 1.999999999999843e-04, 4.899999999989829e-03, 1.500999778898002e-04, -1.302090309428552e-05, 2.769658968661531e+00, -2.789429022986382e+03, -8.669056891384595e+01, 2.797576540233691e+03
679, -1.999999999999901e-04, 4.800000000010084e-03, 1.455139457198069e-04, 7.485638057124883e-06, 1.170890123058831e+01, 2.944901930005409e+03, 2.073110967005100e+02, 2.962352596723401e+03
680, -1.499999999999886e-04, 4.800000000007600e-03, 1.454127771461268e-04, 4.950555173532427e-06, 1.420172393407563e+01, 2.211775961471581e+03, 2.161050336505848e+02, 2.239673652960410e+03
681, -9.999999999998080e-05, 4.800000000005114e-03, 1.453220545856195e-04, 2.416872842208130e-06, 1.589389717382616e+01, 1.479123881431576e+03, 2.117909802233333e+02, 1.523306818748862e+03
682, -4.999999999998701e-05, 4.800000000002629e-03, 1.452417658913975e-04, -1.160511922407316e-07, 1.666849446305824e+01, 7.471785344496013e+02, 1.943652414992785e+02, 8.275000344008647e+02
683, -2.564138137928218e-17, 4.800000000000143e-03, 1.451718935680528e-04, -2.648859484266086e-06, 1.640822842018906e+01, 1.617409803027249e+01, 1.638239562751375e+02, 3.276479962026201e+02
684, 4.999999999994627e-05, 4.799999999997659e-03, 1.451124147576025e-04, -5.182194892627998e-06, 1.499510941562306e+01, -7.136541932296036e+02, 1.201632134614682e+02, 7.672591463924824e+02
685, 9.999999999995042e-05, 4.799999999995174e-03, 1.450633012252703e-04, -7.716700583937485e-06, 1.231043724499750e+01, -1.442070052203888e+03, 6.337908545114928e+01, 1.459893914632181e+03
686, 1.499999999999713e-04, 4.799999999992687e-03, 1.450245193452672e-04, -1.025302003552203e-05, 8.234788488215912e+00, -2.168836150458017e+03, -6.532347316840898e+00, 2.177110139485392e+03
687, 1.999999999999824e-04, 4.799999999990203e-03, 1.449960300864683e-04, -1.279179703747764e-05, 2.648102753151335e+00, -2.893714041997664e+03, -8.957496218360517e+01, 2.901897373951450e+03
688, -1.999999999999919e-04, 4.700000000009747e-03, 1.404501861327159e-04, 7.509285568767943e-06, 1.183532203697223e+01, 3.051100585518868e+03, 2.121678980567930e+02, 3.068744728658777e+03
689, -1.499999999999929e-04, 4.700000000007334e-03, 1.403490003288824e-04, 5.000027404524581e-06, 1.428485083283530e+01, 2.291434640554915e+03, 2.208227787796814e+02, 2.319582282080813e+03
690, -9.999999999998839e-05, 4.700000000004922e-03, 1.402586363985551e-04, 2.492190421579287e-06, 1.593687147567002e+01, 1.532240619333742e+03, 2.161380230681744e+02, 1.576717995023748e+03
691, -4.999999999999717e-05, 4.700000000002511e-03, 1.401790824784300e-04, -1.487903331245143e-08, 1.667526309665820e+01, 7.737517666472406e+02, 1.981084928403527e+02, 8.544897494822740e+02
692, -3.846207206892327e-17, 4.700000000000096e-03, 1.401103213604424e-04, -2.521834948408403e-06, 1.638271832141635e+01, 1.620213349762875e+01, 1.667289270367690e+02, 3.334579029715858e+02
693, 4.999999999993608e-05, 4.699999999997685e-03, 1.400523304762604e-04, -5.029331651489055e-06, 1.494117198313882e+01, -7.401731357494774e+02, 1.219940253192761e+02, 7.935538964663389e+02
694, 9.999999999994281e-05, 4.699999999995272e-03, 1.400050818824828e-04, -7.538023813166496e-06, 1.223183631398808e+01, -1.495137791604188e+03, 6.389847489908283e+01, 1.512777331780158e+03
695, 1.499999999999669e-04, 4.699999999992859e-03, 1.399685422460310e-04, -1.004856644960020e-05, 8.135219476170278e+00, -2.248454466012906e+03, -7.563035008213859e+00, 2.256640380443865e+03
696, 1.999999999999805e-04, 4.699999999990447e-03, 1.399426728296325e-04, -1.256161492553870e-05, 2.530950478071446e+00, -2.999884821480563e+03, -9.239578295761615e+01, 3.008097137816425e+03
697, -1.999999999999939e-04, 4.600000000009572e-03, 1.354385951393551e-04, 7.526574597412869e-06, 1.193988861434434e+01, 3.159184252392176e+03, 2.169485309470797e+02, 3.177013337342434e+03
698, -1.499999999999973e-04, 4.600000000007185e-03, 1.353374016118916e-04, 5.044069344891379e-06, 1.434329775120668e+01, 2.372512794739532e+03, 2.254828163980568e+02, 2.400902617452314e+03
699, -9.999999999999598e-05, 4.600000000004799e-03, 1.352474123412496e-04, 2.563006150427161e-06, 1.595473051588314e+01, 1.586310059096622e+03, 2.204461113583163e+02, 1.631073821154007e+03
700, -5.000000000000737e-05, 4.600000000002412e-03, 1.351686157988761e-04, 8.271997313341793e-08, 1.665783473971831e+01, 8.008089949074645e+02, 2.018316107513169e+02, 8.819507006552615e+02
701, -5.126921023140829e-17, 4.600000000000025e-03, 1.351009951146610e-04, -2.397454602732875e-06, 1.633533266611585e+01, 1.624358955661756e+01, 1.696325960764430e+02, 3.392652045573385e+02
702, 4.999999999992590e-05, 4.599999999997638e-03, 1.350445280609560e-04, -4.878183369484848e-06, 1.486914517268707e+01, -7.671510596745605e+02, 1.238423349226261e+02, 8.203068306833015e+02
703, 9.999999999993524e-05, 4.599999999995251e-03, 1.349991870372370e-04, -7.360132498539683e-06, 1.214043244066391e+01, -1.549138722333249e+03, 6.445408386367876e+01, 1.566591815004269e+03
704, 1.499999999999625e-04, 4.599999999992864e-03, 1.349649390548992e-04, -9.843968543213203e-06, 8.029594850900168e+00, -2.329482037450593e+03, -8.538893604082482e+00, 2.337574016359850e+03
705, 1.999999999999786e-04, 4.599999999990477e-03, 1.349417457220539e-04, -1.233035844062481e-05, 2.416400648191569e+00, -3.107942396905880e+03, -9.514336251234161e+01, 3.116174078456245e+03
706, -1.999999999999958e-04, 4.500000000009600e-03, 1.304810502135583e-04, 7.537374191164023e-06, 1.202402697375595e+01, 3.269154568239295e+03, 2.216440730969258e+02, 3.287157395592843e+03
707, -1.500000000000016e-04, 4.500000000007212e-03, 1.303798577957634e-04, 5.082566234054244e-06, 1.437813663073302e+01, 2.455012090262687e+03, 2.300788349464628e+02, 2.483634267919178e+03
708, -1.000000000000036e-04, 4.500000000004825e-03, 1.302902585284548e-04, 2.629221499280237e-06, 1.594786760612516e+01, 1.641333593947546e+03, 2.247111187537069e+02, 1.686374545277709e+03
709, -5.000000000001756e-05, 4.500000000002437e-03, 1.302122412729855e-04, 1.766635622979077e-07, 1.661633923020230e+01, 8.283515577311680e+02, 2.055327167847744e+02, 9.098839792141257e+02
710, -6.409667718462742e-17, 4.500000000000053e-03, 1.301457895512791e-04, -2.275784414495335e-06, 1.626625926406285e+01, 1.629988368352372e+01, 1.725354143904210e+02, 3.450708304190587e+02
711, 4.999999999991571e-05, 4.499999999997665e-03, 1.300908815307568e-04, -4.728799682854237e-06, 1.477958589392134e+01, -7.945863423900099e+02, 1.257109881196437e+02, 8.475176788734136e+02
712, 9.999999999992765e-05, 4.499999999995279e-03, 1.300474900087560e-04, -7.183059911177635e-06, 1.203750220731123e+01, -1.604070860463632e+03, 6.505120519218804e+01, 1.621336756223944e+03
713, 1.499999999999582e-04, 4.499999999992891e-03, 1.300155823968815e-04, -9.639243187070327e-06, 7.920415529324174e+00, -2.411916232463012e+03, -9.452170612881460e+00, 2.419910489477651e+03
714, 1.999999999999767e-04, 4.499999999990504e-03, 1.299951207053342e-04, -1.209802802065173e-05, 2.307992045766099e+00, -3.217883824480348e+03, -9.780730179397344e+01, 3.226127773098676e+03
715, -1.999999999999977e-04, 4.400000000009622e-03, 1.255794616557673e-04, 7.541554934921092e-06, 1.209234955433743e+01, 3.381014642853336e+03, 2.262439497252846e+02, 3.399173828658396e+03
716, -1.500000000000059e-04, 4.400000000007235e-03, 1.254782784558240e-04, 5.115404821007251e-06, 1.439323445681646e+01, 2.538935546362781e+03, 2.346027900575224e+02, 2.567774865718295e+03
717, -1.000000000000112e-04, 4.400000000004850e-03, 1.253890837885200e-04, 2.690739423065230e-06, 1.591863097251235e+01, 1.697313523515078e+03, 2.289277417945572e+02, 1.742618842007869e+03
718, -5.000000000002772e-05, 4.400000000002464e-03, 1.253118669637110e-04, 2.668709340923644e-07, 1.655195896375264e+01, 8.563811798018555e+02, 2.092091933342195e+02, 9.382894364084860e+02
719, -7.691736787426851e-17, 4.400000000000076e-03, 1.252466119542840e-04, -2.156888900593153e-06, 1.617586392028332e+01, 1.637228233683322e+01, 1.754374282646532e+02, 3.508749115064451e+02
720, 4.999999999990552e-05, 4.399999999997690e-03, 1.251932973811226e-04, -4.581228787495780e-06, 1.467225794490841e+01, -8.224781578553991e+02, 1.276026914426637e+02, 8.751860408668971e+02
721, 9.999999999991999e-05, 4.399999999995304e-03, 1.251518964973223e-04, -7.006837888071177e-06, 1.192227482030242e+01, -1.659933903290345e+03, 6.569521118978852e+01, 1.677011187613197e+03
722, 1.499999999999539e-04, 4.399999999992917e-03, 1.251223771721288e-04, -9.434405821772098e-06, 7.806263408731098e+00, -2.495757488044450e+03, -1.029477823227074e+01, 2.503648415298309e+03
723, 1.999999999999748e-04, 4.399999999990530e-03, 1.251047018749136e-04, -1.186462266806078e-05, 2.203625813780974e+00, -3.329710343076217e+03, -1.003770580961197e+02, 3.337956397446261e+03
724, -1.999999999999997e-04, 4.300000000009517e-03, 1.207357729135965e-04, 7.538989080710525e-06, 1.214140686310139e+01, 3.494762369449521e+03, 2.307367300510226e+02, 3.513062271498316e+03
725, -1.500000000000103e-04, 4.300000000007164e-03, 1.206346061583933e-04, 5.142473518817819e-06, 1.438556943737325e+01, 2.624281600035496e+03, 2.390458987507730e+02, 2.653324152336102e+03
726, -1.000000000000188e-04, 4.300000000004808e-03, 1.205458298060475e-04, 2.747464527216638e-06, 1.586496400286308e+01, 1.754249260573025e+03, 2.330900348920648e+02, 1.799806606284595e+03
727, -5.000000000003792e-05, 4.300000000002456e-03, 1.204694336714906e-04, 3.532629252367476e-07, 1.646322052541450e+01, 8.848978767891363e+02, 2.128579391201561e+02, 9.671673904685831e+02
728, -8.973805856390960e-17, 4.300000000000101e-03, 1.204054022372553e-04, -2.040830953358710e-06, 1.606305385205417e+01, 1.646114688832159e+01, 1.783383346423257e+02, 3.566768914438643e+02
729, 4.999999999989533e-05, 4.299999999997747e-03, 1.203537146369125e-04, -4.435517265420922e-06, 1.454635449720999e+01, -8.508259796628352e+02, 1.295198885575233e+02, 9.033110664978138e+02
730, 9.999999999991241e-05, 4.299999999995395e-03, 1.203143446384769e-04, -6.831496662328400e-06, 1.179419024549441e+01, -1.716727296068772e+03, 6.639124270649501e+01, 1.733614062322561e+03
731, 1.499999999999495e-04, 4.299999999993039e-03, 1.202872606277535e-04, -9.229470293177405e-06, 7.686783083603274e+00, -2.581005354235646e+03, -1.105896786793183e+01, 2.588786624057634e+03
732, 1.999999999999729e-04, 4.299999999990687e-03, 1.202724255914482e-04, -1.163013980816669e-05, 2.103661809166852e+00, -3.443421329466188e+03, -1.028420933372109e+02, 3.451658796890409e+03
733, -2.000000000000014e-04, 4.200000000009198e-03, 1.159519604370044e-04, 7.529550688868244e-06, 1.216934991600311e+01, 3.610397207593709e+03, 2.351112795894934e+02, 3.628822532300075e+03
734, -1.500000000000147e-04, 4.200000000006931e-03, 1.158508163772939e-04, 5.163662545954536e-06, 1.435326101595649e+01, 2.711050089174093e+03, 2.433997981314907e+02, 2.740282399666129e+03
735, -1.000000000000264e-04, 4.200000000004664e-03, 1.157624710726300e-04, 2.799303222594537e-06, 1.578524754413826e+01, 1.812141008330886e+03, 2.371923565948580e+02, 1.857938340047867e+03
736, -5.000000000004811e-05, 4.200000000002396e-03, 1.156869149032613e-04, 4.357621762899136e-07, 1.634893868044497e+01, 9.139022232132991e+02, 2.164760980408779e+02, 9.965186915797063e+02
737, -1.025587492535507e-16, 4.200000000000129e-03, 1.156241329220564e-04, -1.927671663142526e-06, 1.592716602210675e+01, 1.656738848325136e+01, 1.812380923411987e+02, 3.624767500774460e+02
738, 4.999999999988515e-05, 4.199999999997860e-03, 1.155741048364796e-04, -4.291709897992479e-06, 1.440186521505871e+01, -8.796285591371792e+02, 1.314653623116719e+02, 9.318921426959233e+02
739, 9.999999999990481e-05, 4.199999999995591e-03, 1.155368049911065e-04, -6.657064666268541e-06, 1.165410327994510e+01, -1.774449392944436e+03, 6.714490700702201e+01, 1.791144732670390e+03
740, 1.499999999999452e-04, 4.199999999993324e-03, 1.155122023503670e-04, -9.024448644985048e-06, 7.564107466705707e+00, -2.667657577877856e+03, -1.173627894181681e+01, 2.675324658188497e+03
741, 1.999999999999710e-04, 4.199999999991056e-03, 1.155002604816016e-04, -1.139457505301236e-05, 2.011196583128168e+00, -3.559014341669532e+03, -1.051911738801621e+02, 3.567234729638182e+03
742, -2.000000000000034e-04, 4.100000000008875e-03, 1.112300336048715e-04, 7.513115852580380e-06, 1.217698316318263e+01, 3.727920598842118e+03, 2.393559379039351e+02, 3.746453746878275e+03
743, -1.500000000000190e-04, 4.100000000006694e-03, 1.111289174322367e-04, 5.178864132477038e-06, 1.429644351506204e+01, 2.799242448396374e+03, 2.476558084034799e+02, 2.828649474192287e+03
744, -1.000000000000340e-04, 4.100000000004513e-03, 1.110410148347579e-04, 2.846163921143001e-06, 1.567889426308750e+01, 1.870989852028266e+03, 2.412289820780797e+02, 1.917014459304168e+03
745, -5.000000000005830e-05, 4.100000000002334e-03, 1.109663168240819e-04, 5.142933237505176e-07, 1.620817273458789e+01, 9.433950773250899e+02, 2.200608682386161e+02, 1.026344337424751e+03
746, -1.153726636796137e-16, 4.100000000000152e-03, 1.109048090875854e-04, -1.817470127277068e-06, 1.576709045095947e+01, 1.669166480773083e+01, 1.841368144925981e+02, 3.682747895847165e+02
747, 4.999999999987496e-05, 4.099999999997971e-03, 1.108564719699621e-04, -4.149849474987727e-06, 1.423755475639166e+01, -9.088855063532455e+02, 1.334421434394889e+02, 9.609284096827024e+02
748, 9.999999999989721e-05, 4.099999999995790e-03, 1.108212804552399e-04, -6.483568340891866e-06, 1.150058592457464e+01, -1.833100219960674e+03, 6.796216372511989e+01, 1.849601999313720e+03
749, 1.499999999999408e-04, 4.099999999993610e-03, 1.107992041490735e-04, -8.819350927841841e-06, 7.436320094982818e+00, -2.755714930457661e+03, -1.231781395999553e+01, 2.763261071197156e+03
750, 1.999999999999691e-04, 4.099999999991429e-03, 1.107902072611564e-04, -1.115792202261359e-05, 1.924006523262307e+00, -3.676490764824323e+03, -1.074124778805818e+02, 3.684682481800284e+03
751, -2.000000000000054e-04, 4.000000000008551e-03, 1.065720348085908e-04, 7.489562881072498e-06, 1.216117321630509e+01, 3.847331182963131e+03, 2.434588090327367e+02, 3.865956255629909e+03
752, -1.500000000000234e-04, 4.000000000006458e-03, 1.064709505284457e-04, 5.187972712675837e-06, 1.421235090865036e+01, 2.888857818377640e+03, 2.518051224686455e+02, 2.918425918615342e+03
753, -1.000000000000416e-04, 4.000000000004365e-03, 1.063835011104203e-04, 2.887957232214293e-06, 1.554383014976560e+01, 1.930795631466039e+03, 2.451941524208565e+02, 1.977035698203439e+03
754, -5.000000000006849e-05, 4.000000000002271e-03, 1.063096782632281e-04, 5.887831968373535e-07, 1.603934650506716e+01, 9.733767316985839e+02, 2.236094749347638e+02, 1.056645474230389e+03
755, -1.282069068964109e-16, 4.000000000000177e-03, 1.062494683736611e-04, -1.710283253840399e-06, 1.558168114206296e+01, 1.683456955774662e+01, 1.870346854122202e+02, 3.740714689980710e+02
756, 4.999999999986478e-05, 3.999999999998083e-03, 1.062028524882096e-04, -4.009976600036761e-06, 1.405271331400252e+01, -9.385960177137249e+02, 1.354533608028684e+02, 9.904191317517588e+02
757, 9.999999999988963e-05, 3.999999999995989e-03, 1.061698062948039e-04, -6.311031944276380e-06, 1.133342266225031e+01, -1.892678808736275e+03, 6.884906956504204e+01, 1.908984901678135e+03
758, 1.499999999999365e-04, 3.999999999993896e-03, 1.061503001046654e-04, -8.614185013998270e-06, 7.303885033221434e+00, -2.845176207937663e+03, -1.279461641921395e+01, 2.852594869523614e+03
759, 1.999999999999672e-04, 3.999999999991804e-03, 1.061442988342681e-04, -1.092017216424104e-05, 1.843326406166909e+00, -3.795849207770819e+03, -1.094940991053855e+02, 3.804001106085436e+03
760, -2.000000000000072e-04, 3.900000000008219e-03, 1.019800393335783e-04, 7.458772493562580e-06, 1.212058594300493e+01, 3.968628515820040e+03, 2.474080830746093e+02, 3.987329687580709e+03
761, -1.500000000000277e-04, 3.900000000006203e-03, 1.018789896790932e-04, 5.190885133602373e-06, 1.410005245528799e+01, 2.979896310012674e+03, 2.558390577673990e+02, 3.009611592092680e+03
762, -1.000000000000492e-04, 3.900000000004186e-03, 1.017920026347789e-04, 2.924596175253450e-06, 1.537925172325538e+01, 1.991558803788702e+03, 2.490821502510916e+02, 2.038002279757415e+03
763, -5.000000000007867e-05, 3.900000000002170e-03, 1.017190706724739e-04, 6.591610314717426e-07, 1.584174604982479e+01, 1.003847868538675e+03, 2.271192003052384e+02, 1.087422927229611e+03
764, -1.410275975860520e-16, 3.900000000000153e-03, 1.016601809447902e-04, -1.606165547231222e-06, 1.537033699279220e+01, 1.699690634740685e+01, 1.899320079132330e+02, 3.798674982775902e+02
765, 4.999999999985460e-05, 3.899999999998138e-03, 1.016153152666519e-04, -3.872129475074894e-06, 1.384691415424965e+01, -9.687592488493420e+02, 1.375023524267520e+02, 1.020363885711467e+03
766, 9.999999999988204e-05, 3.899999999996121e-03, 1.015844500965521e-04, -6.139477333600363e-06, 1.115244177552830e+01, -1.953184337126508e+03, 6.981200608389294e+01, 1.969292727280801e+03
767, 1.499999999999321e-04, 3.899999999994104e-03, 1.015675565178719e-04, -8.408956374045662e-06, 7.166967671488692e+00, -2.936040670485371e+03, -1.315724853270966e+01, 2.943325271535697e+03
768, 1.999999999999652e-04, 3.899999999992088e-03, 1.015646002204761e-04, -1.068131451959459e-05, 1.769563765293242e+00, -3.917089198396231e+03, -1.114236008704743e+02, 3.925189788162342e+03
769, -2.000000000000091e-04, 3.800000000007874e-03, 9.745615535977368e-05, 7.420628082435059e-06, 1.205813446919865e+01, 4.091815160044549e+03, 2.511910792915268e+02, 4.110572371458019e+03
770, -1.500000000000321e-04, 3.800000000005924e-03, 9.735514170966727e-05, 5.187500901226569e-06, 1.396152740855172e+01, 3.072360161978894e+03, 2.597480235319760e+02, 3.102205401139133e+03
771, -1.000000000000568e-04, 3.800000000003971e-03, 9.726862486300913e-05, 2.955996415883116e-06, 1.518613100342588e+01, 2.053281135014173e+03, 2.528866210763879e+02, 2.099913764384456e+03
772, -5.000000000008884e-05, 3.800000000002021e-03, 9.719659812470558e-05, 7.253586987135899e-07, 1.561568687808074e+01, 1.034809937076065e+03, 2.305869169578135e+02, 1.118676997495286e+03
773, -1.538415120121150e-16, 3.800000000000070e-03, 9.713904948350802e-05, -1.505168884960511e-06, 1.513299753392192e+01, 1.717989294614694e+01, 1.928288715642032e+02, 3.856631750838088e+02
774, 4.999999999984441e-05, 3.799999999998119e-03, 9.709596159284107e-05, -3.736343680786658e-06, 1.361992051227264e+01, -9.993741958490832e+02, 1.395924084917508e+02, 1.050762219446834e+03
775, 9.999999999987444e-05, 3.799999999996168e-03, 9.706731175142749e-05, -5.968923748156434e-06, 1.095735280000179e+01, -2.014616059530551e+03, 7.085744414675239e+01, 2.030524749493214e+03
776, 1.499999999999278e-04, 3.799999999994218e-03, 9.705307188390212e-05, -8.203667862420467e-06, 7.025244323493837e+00, -3.028307947984332e+03, -1.339608671007032e+01, 3.035451434116874e+03
777, 1.999999999999633e-04, 3.799999999992265e-03, 9.705320852165355e-05, -1.044133551643008e-05, 1.702653185719441e+00, -4.040210596345075e+03, -1.131882195043034e+02, 4.048247646682550e+03
778, -2.000000000000110e-04, 3.700000000007529e-03, 9.300252415890171e-05, 7.375015910564624e-06, 1.197120669996252e+01, 4.216889858647239e+03, 2.547943724680611e+02, 4.235684308167887e+03
779, -1.500000000000364e-04, 3.700000000005644e-03, 9.290154638646991e-05, 5.177722385226075e-06, 1.379448948468405e+01, 3.166248734522978e+03, 2.635218868804244e+02, 3.196207581888266e+03
780, -1.000000000000644e-04, 3.700000000003758e-03, 9.281550605232266e-05, 2.982076474066392e-06, 1.496268133648988e+01, 2.115962605868325e+03, 2.566008023554969e+02, 2.162770577282924e+03
781, -5.000000000009902e-05, 3.700000000001873e-03, 9.274439736513787e-05, 7.873109164772532e-07, 1.535975374608006e+01, 1.066263323561572e+03, 2.340092381457533e+02, 1.150408452333852e+03
782, -1.666825314924902e-16, 3.699999999999988e-03, 9.268820922120570e-05, -1.407342303468355e-06, 1.486857434558436e+01, 1.738417758092282e+01, 1.957252444826821e+02, 3.914585719726422e+02
783, 4.999999999983423e-05, 3.699999999998102e-03, 9.264692518408096e-05, -3.602651960561128e-06, 1.337098896443581e+01, -1.030440053657648e+03, 1.417268335860145e+02, 1.081613366288099e+03
784, 9.999999999986681e-05, 3.699999999996217e-03, 9.262052346449166e-05, -5.799387591441083e-06, 1.074783950644371e+01, -2.076973084279735e+03, 7.199200310697847e+01, 2.092680111641537e+03
785, 1.499999999999234e-04, 3.699999999994331e-03, 9.260897690016907e-05, -7.998319497082881e-06, 6.878947097690855e+00, -3.121977125130036e+03, -1.350123553379802e+01, 3.128972587633211e+03
786, 1.999999999999614e-04, 3.699999999992445e-03, 9.261225293539692e-05, -1.020021874420313e-05, 1.643195529151399e+00, -4.165212797112077e+03, -1.147748025087546e+02, 4.173174077914055e+03
787, -2.000000000000130e-04, 3.600000000007325e-03, 8.862132000395844e-05, 7.321825310098345e-06, 1.185881878849568e+01, 4.343852960722921e+03, 2.582045065752910e+02, 4.362665643229760e+03
788, -1.500000000000407e-04, 3.600000000005489e-03, 8.852037636235262e-05, 5.161455017373193e-06, 1.359745253449398e+01, 3.261562313779813e+03, 2.671505871503526e+02, 3.291618672438142e+03
789, -1.000000000000720e-04, 3.600000000003653e-03, 8.843481722879259e-05, 3.002757930128855e-06, 1.470736465379548e+01, 2.179603631198293e+03, 2.602179893660457e+02, 2.226573477982959e+03
790, -5.000000000010923e-05, 3.600000000001818e-03, 8.836463778920679e-05, 8.449554611083243e-07, 1.507251004646122e+01, 1.098208607750190e+03, 2.373828230824323e+02, 1.182618376707889e+03
791, -1.794761171278192e-16, 3.599999999999982e-03, 8.830982792026808e-05, -1.312731782588616e-06, 1.457577755628876e+01, 1.761045500089062e+01, 1.986211705737825e+02, 3.972539324759306e+02
792, 4.999999999982404e-05, 3.599999999998146e-03, 8.827037216875626e-05, -3.471084002316717e-06, 1.309903054581844e+01, -1.061956063276489e+03, 1.439090779828788e+02, 1.112916324642972e+03
793, 9.999999999985923e-05, 3.599999999996311e-03, 8.824624973093501e-05, -5.630882210961240e-06, 1.052310630294295e+01, -2.140254623747823e+03, 7.322256878797927e+01, 2.155757644634936e+03
794, 1.499999999999191e-04, 3.599999999994474e-03, 8.823743443179970e-05, -7.792908235907319e-06, 6.727802516707243e+00, -3.217047338202064e+03, -1.346234162276350e+01, 3.223887575037971e+03
795, 1.999999999999595e-04, 3.599999999992638e-03, 8.824389470395659e-05, -9.957944722201708e-06, 1.591662726712229e+00, -4.292094900136657e+03, -1.161696115058694e+02, 4.299968117865892e+03
796, -2.000000000000149e-04, 3.500000000007369e-03, 8.431475014611778e-05, 7.260948923949459e-06, 1.171973412078592e+01, 4.472704187639724e+03, 2.614076868620740e+02, 4.491516248388732e+03
797, -1.500000000000451e-04, 3.500000000005565e-03, 8.421383715688138e-05, 5.138607532686080e-06, 1.336929706291767e+01, 3.358301064117054e+03, 2.706238384342612e+02, 3.388438810715560e+03
798, -1.000000000000796e-04, 3.500000000003764e-03, 8.412876217327171e-05, 3.017965662006470e-06, 1.441898034770765e+01, 2.244204597917009e+03, 2.637312940579652e+02, 2.291322910936140e+03
799, -5.000000000011939e-05, 3.500000000001962e-03, 8.405952143284774e-05, 8.982334017536848e-07, 1.475261283508109e+01, 1.130646237146878e+03, 2.407041765201585e+02, 1.215307608450102e+03
800, -1.923239128717724e-16, 3.500000000000160e-03, 8.400610586701139e-05, -1.221380014028336e-06, 1.425308896265415e+01, 1.785909264714002e+01, 2.015165556767381e+02, 4.030492427853402e+02
801, 4.999999999981385e-05, 3.499999999998358e-03, 8.396850108016634e-05, -3.341666210457367e-06, 1.280226886584569e+01, -1.093922116958263e+03, 1.461424545088767e+02, 1.144669967378050e+03
802, 9.999999999985163e-05, 3.499999999996555e-03, 8.394668732854877e-05, -5.463417675227502e-06, 1.028095814888360e+01, -2.204461068858249e+03, 7.455586285662706e+01, 2.219755966978543e+03
803, 1.499999999999148e-04, 3.499999999994753e-03, 8.394063949891256e-05, -7.587427762143150e-06, 6.568897093823466e+00, -3.313519834612159e+03, -1.326924889600080e+01, 3.320194795229054e+03
804, 1.999999999999576e-04, 3.499999999992950e-03, 8.395032708708391e-05, -9.714490694677371e-06, 1.544798914264277e+00, -4.420858827354693e+03, -1.173589788133655e+02, 4.428628044131646e+03
805, -2.000000000000167e-04, 3.400000000007423e-03, 8.008505481852761e-05, 7.192282965462495e-06, 1.155438019959087e+01, 4.603444142855825e+03, 2.643896672174010e+02, 4.622235300902848e+03
806, -1.500000000000494e-04, 3.400000000005649e-03, 7.998416716451526e-05, 5.109092230035816e-06, 1.311043125750518e+01, 3.456466002310623e+03, 2.739308573047893e+02, 3.486667470097700e+03
807, -1.000000000000872e-04, 3.400000000003875e-03, 7.989957743188806e-05, 3.027628102791138e-06, 1.409768054075204e+01, 2.309766663289006e+03, 2.671334587903223e+02, 2.357018713878514e+03
808, -5.000000000012958e-05, 3.400000000002102e-03, 7.983128298675367e-05, 9.470893554717671e-07, 1.440011635282184e+01, 1.163577493683645e+03, 2.439695779788357e+02, 1.248476377223708e+03
809, -2.051242747706794e-16, 3.400000000000329e-03, 7.977927589300105e-05, -1.133326146865730e-06, 1.390068830692701e+01, 1.813152102377546e+01, 2.044112135423459e+02, 4.088443185772502e+02
810, 4.999999999980369e-05, 3.399999999998554e-03, 7.974354289074192e-05, -3.214421450291039e-06, 1.248127340455858e+01, -1.126336579601630e+03, 1.484303005314055e+02, 1.176873960451584e+03
811, 9.999999999984403e-05, 3.399999999996781e-03, 7.972406537455548e-05, -5.297000515856548e-06, 1.002266675839974e+01, -2.269590484494659e+03, 7.599873252001029e+01, 2.284674889069447e+03
812, 1.499999999999104e-04, 3.399999999995008e-03, 7.972081937171696e-05, -7.381868223163632e-06, 6.404593056002852e+00, -3.411392209176484e+03, -1.291162471338311e+01, 3.417894354944513e+03
813, 1.999999999999557e-04, 3.399999999993234e-03, 7.973377552064876e-05, -9.469830374294856e-06, 1.505861051109719e+00, -4.551502000983211e+03, -1.183288865481831e+02, 4.559154251976265e+03
814, -2.000000000000187e-04, 3.300000000007353e-03, 7.593450730534001e-05, 7.115727474816702e-06, 1.136299289851974e+01, 4.736073361881154e+03, 2.671355355289055e+02, 4.754822146846428e+03
815, -1.500000000000538e-04, 3.300000000005614e-03, 7.583363769772304e-05, 5.072825225604341e-06, 1.282056020758836e+01, 3.556057721362912e+03, 2.770603495282030e+02, 3.586304411133389e+03
816, -1.000000000000948e-04, 3.300000000003875e-03, 7.574953233651711e-05, 3.031677494652237e-06, 1.374299745690593e+01, 2.376290593569362e+03, 2.704169264764158e+02, 2.423660949967333e+03
817, -5.000000000013977e-05, 3.300000000002137e-03, 7.568218979645474e-05, 9.914717428531487e-07, 1.401453108702060e+01, 1.197003291995632e+03, 2.471752236394031e+02, 1.282125100433202e+03
818, -2.179652942510546e-16, 3.300000000000398e-03, 7.563160335453030e-05, -1.048605529030441e-06, 1.351819525073387e+01, 1.842876262928587e+01, 2.073051006884692e+02, 4.146392802880652e+02
819, 4.999999999979350e-05, 3.299999999998659e-03, 7.559776096748548e-05, -3.089368784964137e-06, 1.213590565458929e+01, -1.159198361828538e+03, 1.507763474999095e+02, 1.209528004653836e+03
820, 9.999999999983644e-05, 3.299999999996922e-03, 7.558064524947514e-05, -5.131633457583104e-06, 9.748473503476646e+00, -2.335641748872009e+03, 7.755870763087151e+01, 2.350514136892611e+03
821, 1.499999999999061e-04, 3.299999999995182e-03, 7.558023344981393e-05, -7.176215951825882e-06, 6.235612919610844e+00, -3.510663361572036e+03, -1.237809504895485e+01, 3.516986105421595e+03
822, 1.999999999999538e-04, 3.299999999993444e-03, 7.559649743093269e-05, -9.223933647451304e-06, 1.475834962883596e+00, -4.684023552968859e+03, -1.190643256883034e+02, 4.691546628662574e+03
823, -2.000000000000206e-04, 3.200000000007042e-03, 7.186541396522074e-05, 7.031186554914000e-06, 1.114393791499697e+01, 4.870591162218537e+03, 2.696299845905797e+02, 4.889276903607797e+03
824, -1.500000000000580e-04, 3.200000000005365e-03, 7.176455299825541e-05, 5.029726689598065e-06, 1.249788734416705e+01, 3.657075875768882e+03, 2.800008652883151e+02, 3.687350085353812e+03
825, -1.000000000001024e-04, 3.200000000003689e-03, 7.168092900600394e-05, 3.030050128873486e-06, 1.335323257401717e+01, 2.443776417016617e+03, 2.735740596792443e+02, 2.491250272452296e+03
826, -5.000000000014997e-05, 3.200000000002012e-03, 7.161454185390911e-05, 1.031333030157871e-06, 1.359423836530027e+01, 1.230923895772853e+03, 2.503172970778581e+02, 1.316254721423421e+03
827, -2.307656561499616e-16, 3.200000000000335e-03, 7.156538611397876e-05, -9.672494652013853e-07, 1.310400286713980e+01, 1.875114752779473e+01, 2.101982318554414e+02, 4.204343907715376e+02
828, 4.999999999978330e-05, 3.199999999998658e-03, 7.153345104162893e-05, -2.966523235892595e-06, 1.176447820498333e+01, -1.192507249525440e+03, 1.531844503452140e+02, 1.242631199319042e+03
829, 9.999999999982882e-05, 3.199999999996980e-03, 7.151872055262229e-05, -4.967315184549958e-06, 9.456474197929708e+00, -2.402614971060587e+03, 7.924349152868936e+01, 2.417272591337216e+03
830, 1.499999999999017e-04, 3.199999999995303e-03, 7.152117320010303e-05, -6.970453241225129e-06, 6.059644360407844e+00, -3.611333958054024e+03, -1.165713234082666e+01, 3.617468732377172e+03
831, 1.999999999999519e-04, 3.199999999993626e-03, 7.154078215154423e-05, -8.976766366824493e-06, 1.452461442222386e+00, -4.818424425422526e+03, -1.195499217366477e+02, 4.825803761000024e+03
832, -2.000000000000225e-04, 3.100000000006703e-03, 6.788011417480039e-05, 6.938568628780934e-06, 1.089644715134347e+01, 5.006997384664550e+03, 2.718575136131000e+02, 5.025599527285468e+03
833, -1.500000000000624e-04, 3.100000000005093e-03, 6.777925019980937e-05, 4.979721103906620e-06, 1.214161131596035e+01, 3.759520779937308e+03, 2.827408171924717e+02, 3.789804759119378e+03
834, -1.000000000001100e-04, 3.100000000003483e-03, 6.769610232309125e-05, 3.022686603040008e-06, 1.292745662281817e+01, 2.512224721887698e+03, 2.765971306969426e+02, 2.559787239400891e+03
835, -5.000000000016015e-05, 3.100000000001875e-03, 6.763067178511942e-05, 1.066629985668160e-06, 1.313824765375347e+01, 1.265340080946842e+03, 2.533919338086359e+02, 1.350866136883923e+03
836, -2.436134518939148e-16, 3.100000000000265e-03, 6.758295453728242e-05, -8.892849615487654e-07, 1.265715398493779e+01, 1.909958267630697e+01, 2.130906142821852e+02, 4.262299197241783e+02
837, 4.999999999977311e-05, 3.099999999998656e-03, 6.755294121810078e-05, -2.845895529116468e-06, 1.136617151500042e+01, -1.226262247253924e+03, 1.556584862093968e+02, 1.276182729964825e+03
838, 9.999999999982122e-05, 3.099999999997047e-03, 6.754061712939066e-05, -4.804040088565523e-06, 9.146110507733908e+00, -2.470509091363884e+03, 8.106081299474806e+01, 2.484949364027857e+03
839, 1.499999999998973e-04, 3.099999999995438e-03, 6.754596221247710e-05, -6.764558095999078e-06, 5.876608643411600e+00, -3.713402826581495e+03, -1.073716994538847e+01, 3.719341428876979e+03
840, 1.999999999999499e-04, 3.099999999993829e-03, 6.756895102460534e-05, -8.728290095232646e-06, 1.436187739012382e+00, -4.954703481555512e+03, -1.197702437966475e+02, 4.961925036389734e+03
841, -2.000000000000244e-04, 3.000000000006373e-03, 6.398098033325982e-05, 6.837786722554070e-06, 1.062072160639906e+01, 5.145292372570500e+03, 2.738021162605815e+02, 5.163789631529299e+03
842, -1.500000000000668e-04, 3.000000000004845e-03, 6.388009932896635e-05, 4.922737544087305e-06, 1.175169885252490e+01, 3.863393177520489e+03, 2.852681692607426e+02, 3.893668423706498e+03
843, -1.000000000001176e-04, 3.000000000003318e-03, 6.379741993136332e-05, 3.009532099211475e-06, 1.246527349639456e+01, 2.581636401367291e+03, 2.794781160734382e+02, 2.629272209897873e+03
844, -5.000000000017031e-05, 3.000000000001789e-03, 6.373294484329274e-05, 1.097323955718611e-06, 1.264593887503963e+01, 1.300252842988804e+03, 2.563951298875110e+02, 1.385960096843183e+03
845, -2.564273663199779e-16, 3.000000000000262e-03, 6.368667148304147e-05, -8.147344501703274e-07, 1.217696089310681e+01, 1.947513866139911e+01, 2.159822627811035e+02, 4.320261736780772e+02
846, 4.999999999976296e-05, 2.999999999998735e-03, 6.365859195969341e-05, -2.727491818248867e-06, 1.094037817095403e+01, -1.260462244388561e+03, 1.582024887183065e+02, 1.310181948584958e+03
847, 9.999999999981362e-05, 2.999999999997206e-03, 6.364869304862439e-05, -4.641797988222487e-06, 8.817010307010833e+00, -2.539322996932967e+03, 8.301872584705862e+01, 2.553543798696633e+03
848, 1.499999999998930e-04, 2.999999999995678e-03, 6.365695616702583e-05, -6.558503943303921e-06, 5.686452753436527e+00, -3.816868966599908e+03, -9.606140121556066e+00, 3.822603699801976e+03
849, 1.999999999999481e-04, 2.999999999994151e-03, 6.368335734939486e-05, -8.478461813218813e-06, 1.427110834899963e+00, -5.092860124721359e+03, -1.197092129428424e+02, 5.099910158130731e+03
850, -2.000000000000263e-04, 2.900000000006043e-03, 6.017041791213940e-05, 6.728758743464356e-06, 1.031676006703799e+01, 5.285476489515962e+03, 2.754471605719948e+02, 5.303847162604551e+03
851, -1.500000000000711e-04, 2.900000000004594e-03, 6.006950333609577e-05, 4.858709955095132e-06, 1.132750882955122e+01, 3.968693464576209e+03, 2.875704210695055e+02, 3.998941396919819e+03
852, -1.000000000001252e-04, 2.900000000003146e-03, 5.998728225157350e-05, 2.990536660607823e-06, 1.196580160381609e+01, 2.652012046790406e+03, 2.822086960219313e+02, 2.699705756034426e+03
853, -5.000000000018052e-05, 2.900000000001698e-03, 5.992375891393823e-05, 1.123381141813644e-06, 1.211633125435600e+01, 1.335662967112037e+03, 2.593227316799923e+02, 1.421537482430231e+03
854, -2.692480570096190e-16, 2.900000000000249e-03, 5.987893229808797e-05, -7.436155118289781e-07, 1.166243078725222e+01, 1.987874244031320e+01, 2.188731864313115e+02, 4.378234743952895e+02
855, 4.999999999975274e-05, 2.899999999998802e-03, 5.985279607344285e-05, -2.611313407145873e-06, 1.048619323815188e+01, -1.295106221826575e+03, 1.608206378658671e+02, 1.344628076654985e+03
856, 9.999999999980604e-05, 2.899999999997354e-03, 5.984533857895347e-05, -4.480573851293967e-06, 8.468471292158256e+00, -2.609055622671186e+03, 8.512559934153707e+01, 2.623055061017907e+03
857, 1.499999999998886e-04, 2.899999999995905e-03, 5.985654279803420e-05, -6.352259355578090e-06, 5.488875423161119e+00, -3.921731247999652e+03, -8.251460090143681e+00, 3.927254797462417e+03
858, 1.999999999999462e-04, 2.899999999994458e-03, 5.988638633340518e-05, -8.227233639059238e-06, 1.425664103240194e+00, -5.232893051692365e+03, -1.193500906589781e+02, 5.239758600841204e+03
859, -2.000000000000283e-04, 2.800000000005697e-03, 5.645086546557712e-05, 6.611407745496114e-06, 9.982817621235029e+00, 5.427548714779549e+03, 2.767757229624868e+02, 5.445772622258333e+03
860, -1.500000000000755e-04, 2.800000000004316e-03, 5.634989810011836e-05, 4.787577423880814e-06, 1.086730183685813e+01, 4.075421074407713e+03, 2.896349390225999e+02, 4.105624308400668e+03
861, -1.000000000001328e-04, 2.800000000002934e-03, 5.626812248320118e-05, 2.965655468827415e-06, 1.142744925507264e+01, 2.723351608483419e+03, 2.847804255741552e+02, 2.771088632391098e+03
862, -5.000000000019071e-05, 2.800000000001552e-03, 5.620554451300293e-05, 1.144772879953874e-06, 1.154783696912205e+01, 1.371570708840230e+03, 2.621704836230341e+02, 1.457599280304803e+03
863, -2.820416426449479e-16, 2.800000000000171e-03, 5.616216481161032e-05, -6.759405964920522e-07, 1.111188108964137e+01, 2.031076335530196e+01, 2.217633302585503e+02, 4.436220441145693e+02
864, 4.999999999974258e-05, 2.799999999998790e-03, 5.613797869967130e-05, -2.497356472093469e-06, 1.000173799530785e+01, -1.330193898647393e+03, 1.635170876603095e+02, 1.379520096375465e+03
865, 9.999999999979847e-05, 2.799999999997408e-03, 5.613297617079889e-05, -4.320347520628399e-06, 8.098286678801799e+00, -2.679707006265345e+03, 8.738980051760150e+01, 2.693481984665314e+03
866, 1.499999999998843e-04, 2.799999999996027e-03, 5.614714186583793e-05, -6.145787782411134e-06, 5.281105980398593e+00, -4.027990352473747e+03, -6.660544169279007e+00, 4.033293456838388e+03
867, 1.999999999999443e-04, 2.799999999994645e-03, 5.618045504687438e-05, -7.974552568234281e-06, 1.428532553031346e+00, -5.374803720531767e+03, -1.186760211491368e+02, 5.381469058825145e+03
868, -2.000000000000301e-04, 2.700000000005420e-03, 5.282479457299364e-05, 6.485662232954377e-06, 9.619429692189556e+00, 5.571509253022422e+03, 2.777705994970446e+02, 5.589565674598000e+03
869, -1.500000000000799e-04, 2.700000000004097e-03, 5.272375239775533e-05, 4.709284484026398e-06, 1.037162414446021e+01, 4.183576844145057e+03, 2.914487700309377e+02, 4.213717046794957e+03
870, -1.000000000001404e-04, 2.700000000002773e-03, 5.264240659001798e-05, 2.934849145908091e-06, 1.085032410121465e+01, 2.795656099535124e+03, 2.871846004443369e+02, 2.843421035622328e+03
871, -5.000000000020087e-05, 2.700000000001450e-03, 5.258076478377030e-05, 1.161475941034600e-06, 1.094029532857184e+01, 1.407977252868593e+03, 2.649339669913589e+02, 1.494146006317920e+03
872, -2.948962146524792e-16, 2.700000000000125e-03, 5.253882934211984e-05, -6.117167236676255e-07, 1.052509218161902e+01, 2.077257741242988e+01, 2.246525804160692e+02, 4.494220049173709e+02
873, 4.999999999973239e-05, 2.699999999998801e-03, 5.251659733124014e-05, -2.385611762039848e-06, 9.486972843922842e+00, -1.365723665283503e+03, 1.662960395684728e+02, 1.414857515908750e+03
874, 9.999999999979085e-05, 2.699999999997478e-03, 5.251406049414399e-05, -4.161093413538875e-06, 7.706891641952325e+00, -2.751275218010430e+03, 8.981985374246449e+01, 2.764824172689320e+03
875, 1.499999999998800e-04, 2.699999999996155e-03, 5.253120522440083e-05, -5.939047247805768e-06, 5.064500748174794e+00, -4.135643817116697e+03, -4.820542494345133e+00, 4.140719541837516e+03
876, 1.999999999999424e-04, 2.699999999994831e-03, 5.256801253992366e-05, -7.720360169709848e-06, 1.438125049051337e+00, -5.518589214044301e+03, -1.176697493150213e+02, 5.525041764905807e+03
877, -2.000000000000321e-04, 2.600000000005380e-03, 4.929470990694144e-05, 6.351456485899559e-06, 9.228183360873061e+00, 5.717359023835137e+03, 2.784137914710939e+02, 5.735225771414642e+03
878, -1.500000000000841e-04, 2.600000000004088e-03, 4.919356794689848e-05, 4.623781431562036e-06, 9.841093343293608e+00, 4.293161640318035e+03, 2.929982346269175e+02, 4.323219491318243e+03
879, -1.000000000001480e-04, 2.600000000002797e-03, 4.911263332332285e-05, 2.898084065755136e-06, 1.023439397600941e+01, 2.868926410669489e+03, 2.894120437457264e+02, 2.916703168059332e+03
880, -5.000000000021105e-05, 2.600000000001504e-03, 4.905191550271905e-05, 1.173472840065224e-06, 1.029322757202743e+01, 1.444883524093089e+03, 2.676085105657776e+02, 1.531178166831451e+03
881, -3.077169053421203e-16, 2.600000000000212e-03, 4.901141868620692e-05, -5.509451736015270e-07, 9.901270770806605e+00, 2.126509586832100e+01, 2.275407708896619e+02, 4.552234025059491e+02
882, 4.999999999972220e-05, 2.599999999998920e-03, 4.899114178260868e-05, -2.276064288792068e-06, 8.940867484052205e+00, -1.401694714618868e+03, 1.691618355366045e+02, 1.450639738840522e+03
883, 9.999999999978321e-05, 2.599999999997628e-03, 4.899107838150045e-05, -4.002780209625053e-06, 7.293025313617932e+00, -2.823759699277930e+03, 9.242461573051077e+01, 2.837081029471833e+03
884, 1.499999999998756e-04, 2.599999999996335e-03, 4.901121672630686e-05, -5.731990035567620e-06, 4.837426344971561e+00, -4.244691587866514e+03, -2.718049878979500e+00, 4.249532491204865e+03
885, 1.999999999999405e-04, 2.599999999995043e-03, 4.905153968762058e-05, -7.464592265328588e-06, 1.452417085371223e+00, -5.664250058844098e+03, -1.163134020420763e+02, 5.670476150706545e+03
886, -2.000000000000340e-04, 2.500000000005436e-03, 4.586314930836501e-05, 6.208730844725511e-06, 8.807371313173746e+00, 5.865096541356349e+03, 2.786867836778977e+02, 5.882753448577621e+03
887, -1.500000000000885e-04, 2.500000000004174e-03, 4.576187945389083e-05, 4.531024615592211e-06, 9.273866428195504e+00, 4.404174538225939e+03, 2.942694500832170e+02, 4.434132378715974e+03
888, -1.000000000001556e-04, 2.500000000002911e-03, 4.568133425080486e-05, 2.855332649975539e-06, 9.578101067233661e+00, 2.943162364816533e+03, 2.914534473488784e+02, 2.990935820174633e+03
889, -5.000000000022121e-05, 2.500000000001650e-03, 4.562152509614716e-05, 1.180752135820071e-06, 9.605257996353771e+00, 1.482289865140438e+03, 2.701893945597717e+02, 1.568696652590752e+03
890, -3.205375960317614e-16, 2.500000000000388e-03, 4.558245812766600e-05, -4.936211853818797e-07, 9.239192254805175e+00, 2.178901921314252e+01, 2.304277775456473e+02, 4.610263992605949e+02
891, 4.999999999971200e-05, 2.499999999999127e-03, 4.556413419586507e-05, -2.168693024314254e-06, 8.362363886652986e+00, -1.438106115048569e+03, 1.721189490477875e+02, 1.486866097211996e+03
892, 9.999999999977564e-05, 2.499999999997865e-03, 4.556654883626441e-05, -3.845370549018384e-06, 6.855849627049224e+00, -2.897159386077626e+03, 9.521315390512996e+01, 2.910251993884915e+03
893, 1.499999999998713e-04, 2.499999999996604e-03, 4.558969224168772e-05, -5.524562389634536e-06, 4.599335982131379e+00, -4.355132546446695e+03, -3.394470233263007e-01, 4.359731935287251e+03
894, 1.999999999999386e-04, 2.499999999995341e-03, 4.563354923451280e-05, -7.207178642835320e-06, 1.471212009623173e+00, -5.811785169644161e+03, -1.145887260568089e+02, 5.817772087611866e+03
895, -2.000000000000358e-04, 2.400000000005491e-03, 4.253268368855671e-05, 6.057432024328985e-06, 8.357462909750893e+00, 6.014721775018785e+03, 2.785708658426914e+02, 6.032148801129031e+03
896, -1.500000000000929e-04, 2.400000000004260e-03, 4.243125455015040e-05, 4.430976751384446e-06, 8.670153933943709e+00, 4.516616095544838e+03, 2.952484100226652e+02, 4.546456104150768e+03
897, -1.000000000001632e-04, 2.400000000003029e-03, 4.235107371329722e-05, 2.806573681256167e-06, 8.881102077835578e+00, 3.018364676553693e+03, 2.932994510844692e+02, 3.066119641675091e+03
898, -5.000000000023145e-05, 2.400000000001797e-03, 4.229215460756452e-05, 1.183308744994181e-06, 8.875729206614722e+00, 1.520197191371467e+03, 2.726719306395882e+02, 1.606702364794111e+03
899, -3.333650629849805e-16, 2.400000000000566e-03, 4.225450540897343e-05, -4.397336418489852e-07, 8.538046585161680e+00, 2.234544896494066e+01, 2.333136114942736e+02, 4.668314573745867e+02
900, 4.999999999970184e-05, 2.399999999999334e-03, 4.223812901164881e-05, -2.063470584332503e-06, 7.750659407632213e+00, -1.474956594221408e+03, 1.751721197796768e+02, 1.523535981247766e+03
901, 9.999999999976805e-05, 2.399999999998102e-03, 4.224302299941349e-05, -3.688820713470556e-06, 6.394756621477313e+00, -2.971472833150748e+03, 9.819496192882359e+01, 2.984336506563671e+03
902, 1.499999999998670e-04, 2.399999999996872e-03, 4.226917961735980e-05, -5.316704191344869e-06, 4.350104025943097e+00, -4.466965007029705e+03, 2.329549266626074e+00, 4.471317538439171e+03
903, 1.999999999999366e-04, 2.399999999995640e-03, 4.231658574331548e-05, -6.948042715542702e-06, 1.494936131953864e+00, -5.961192768924563e+03, -1.124767723076762e+02, 5.966929592786156e+03
904, -2.000000000000378e-04, 2.300000000005451e-03, 3.930591706866814e-05, 5.897513454811241e-06, 7.879184232620673e+00, 6.166234680085561e+03, 2.780467620690275e+02, 6.183411875404257e+03
905, -1.500000000000972e-04, 2.300000000004251e-03, 3.920429381166045e-05, 4.323607255871379e-06, 8.029948363126607e+00, 4.630486472400549e+03, 2.959205659023993e+02, 4.660191009166053e+03
906, -1.000000000001708e-04, 2.300000000003051e-03, 3.912444883186817e-05, 2.751792634615326e-06, 8.142908292781442e+00, 3.094533803074579e+03, 2.949403359350708e+02, 3.142255235088002e+03
907, -5.000000000024163e-05, 2.300000000001851e-03, 3.906639769526698e-05, 1.181144269369976e-06, 8.103694395514594e+00, 1.558606134342247e+03, 2.750512146004960e+02, 1.645196188572537e+03
908, -3.461857536746216e-16, 2.300000000000652e-03, 3.903015072023084e-05, -3.892647460172213e-07, 7.796479780904292e+00, 2.293509075817462e+01, 2.361981911244515e+02, 4.726388891153295e+02
909, 4.999999999969163e-05, 2.299999999999453e-03, 3.901571294861912e-05, -1.960362908372523e-06, 7.104003786316582e+00, -1.512245502428703e+03, 1.783261000665372e+02, 1.560648491459748e+03
910, 9.999999999976044e-05, 2.299999999998253e-03, 3.902308411677267e-05, -3.533080310741399e-06, 5.907563027405672e+00, -3.046699612830616e+03, 1.013796447990681e+02, 3.059333571158632e+03
911, 1.499999999998626e-04, 2.299999999997052e-03, 3.905225862643370e-05, -5.108348647788640e-06, 4.086999764055236e+00, -4.580188996631958e+03, 5.303414664856547e+00, 4.584288267109856e+03
912, 1.999999999999347e-04, 2.299999999995853e-03, 3.910322551555403e-05, -6.687101221385215e-06, 1.520672203081858e+00, -6.112473203012454e+03, -1.099581131247575e+02, 6.117947715757377e+03
913, -2.000000000000396e-04, 2.200000000005174e-03, 3.618548661186162e-05, 5.728935603215242e-06, 7.372313088392616e+00, 6.319634303883734e+03, 2.770946018597723e+02, 6.336542993932801e+03
914, -1.500000000001016e-04, 2.200000000004032e-03, 3.608363078337724e-05, 4.208892578772733e-06, 7.352801847799356e+00, 4.745785337435736e+03, 2.962710249256325e+02, 4.775337577089213e+03
915, -1.000000000001784e-04, 2.200000000002889e-03, 3.600408952577604e-05, 2.690982009986377e-06, 7.362868703421555e+00, 3.171669953840889e+03, 2.963660918299198e+02, 3.219343220378551e+03
916, -5.000000000025179e-05, 2.200000000001748e-03, 3.594688064708919e-05, 1.174267329015496e-06, 7.288304689285894e+00, 1.597517315555856e+03, 2.773221447557412e+02, 1.684178908218889e+03
917, -3.590132206278407e-16, 2.200000000000606e-03, 3.591201671423632e-05, -3.421896881440611e-07, 7.013482655898997e+00, 2.355886315963409e+01, 2.390813249688385e+02, 4.784488158742112e+02
918, 4.999999999968146e-05, 2.199999999999464e-03, 3.589950502340325e-05, -1.859328927623851e-06, 6.421299663396780e+00, -1.549971715970732e+03, 1.815856071420826e+02, 1.598202912648870e+03
919, 9.999999999975283e-05, 2.199999999998322e-03, 3.590934757031179e-05, -3.378091943706114e-06, 5.393170785428197e+00, -3.122838477925326e+03, 1.047768186083774e+02, 3.135242570339075e+03
920, 1.499999999998582e-04, 2.199999999997180e-03, 3.594154102045272e-05, -4.899421964599218e-06, 3.809026646852260e+00, -4.694803213065013e+03, 8.596661750697251e+00, 4.698643696806897e+03
921, 1.999999999999328e-04, 2.199999999996038e-03, 3.599607667936818e-05, -6.424263897843882e-06, 1.547411806279513e+00, -6.265625358885237e+03, -1.070132723047518e+02, 6.270826253333339e+03
922, -2.000000000000416e-04, 2.100000000004828e-03, 3.317406260673892e-05, 5.551666325834833e-06, 6.838136297900064e+00, 6.474920637662114e+03, 2.756941529674305e+02, 6.491542213401655e+03
923, -1.500000000001059e-04, 2.100000000003754e-03, 3.307193197053884e-05, 4.086816547339453e-06, 6.639405255244924e+00, 4.862513118707481e+03, 2.962844844951031e+02, 4.891896105193417e+03
924, -1.000000000001860e-04, 2.100000000002678e-03, 3.299265850637735e-05, 2.624141677952602e-06, 6.541076614629787e+00, 3.249773830726297e+03, 2.975664573747748e+02, 3.297384097062556e+03
925, -5.000000000026199e-05, 2.100000000001603e-03, 3.293626237334385e-05, 1.162693908869012e-06, 6.429259661789843e+00, 1.636931725948738e+03, 2.794795109549174e+02, 1.723651206231186e+03
926, -3.718339113174818e-16, 2.100000000000528e-03, 3.290275849639744e-05, -2.984762972273369e-07, 6.188548378921780e+00, 2.421804049714041e+01, 2.419628748275563e+02, 4.842614931680027e+02
927, 4.999999999967128e-05, 2.099999999999452e-03, 3.289215653599228e-05, -1.760320213225262e-06, 5.702026481486769e+00, -1.588133686584121e+03, 1.849555910091095e+02, 1.636198815188872e+03
928, 9.999999999974523e-05, 2.099999999998377e-03, 3.290446085765569e-05, -3.223790853821459e-06, 4.851264633353367e+00, -3.199887601659622e+03, 1.083965409168593e+02, 3.212063268595397e+03
929, 1.499999999998539e-04, 2.099999999997302e-03, 3.293967050155442e-05, -4.689842981417884e-06, 3.516326479741338e+00, -4.810805519577312e+03, 1.222446752592708e+01, 4.814383926095566e+03
930, 1.999999999999309e-04, 2.099999999996226e-03, 3.299777915218262e-05, -6.159433111850339e-06, 1.575711948992421e+00, -6.420646970598153e+03, -1.036219751407670e+02, 6.425565674643077e+03
931, -2.000000000000435e-04, 2.000000000004496e-03, 3.027434851351653e-05, 5.365681214562343e-06, 6.276915985128312e+00, 6.632092697227767e+03, 2.738245633573651e+02, 6.648409910118013e+03
932, -1.500000000001103e-04, 2.000000000003499e-03, 3.017189686460778e-05, 3.957370717001802e-06, 5.889479880350791e+00, 4.980669368979874e+03, 2.959452558765358e+02, 5.009867196133286e+03
933, -1.000000000001936e-04, 2.000000000002501e-03, 3.009285128770674e-05, 2.551279228773754e-06, 5.676887741137193e+00, 3.328845514427599e+03, 2.985309045850298e+02, 3.376378611080607e+03
934, -5.000000000027220e-05, 2.000000000001505e-03, 3.003723440422331e-05, 1.146447707659776e-06, 5.525568413279075e+00, 1.676849840730956e+03, 2.815179791810758e+02, 1.763613992246319e+03
935, -3.846512138753339e-16, 2.000000000000507e-03, 3.000506360886814e-05, -2.580846925038463e-07, 5.320363462045691e+00, 2.491336425152144e+01, 2.448427210038315e+02, 4.900772569648347e+02
936, 4.999999999966107e-05, 1.999999999999510e-03, 2.999635103855045e-05, -1.663280628474743e-06, 4.944564066257271e+00, -1.626730545460338e+03, 1.884411720513287e+02, 1.674635472078906e+03
937, 9.999999999973761e-05, 1.999999999998513e-03, 3.001110354122316e-05, -3.070104574295786e-06, 4.279909220961372e+00, -3.277846148943148e+03, 1.122491961116325e+02, 3.289794976862648e+03
938, 1.499999999998495e-04, 1.999999999997515e-03, 3.004932264463523e-05, -4.479522827593425e-06, 3.206577406539566e+00, -4.928195326588724e+03, 1.620250915265925e+01, 4.931508372084496e+03
939, 1.999999999999290e-04, 1.999999999996517e-03, 3.011100452499839e-05, -5.892503514842886e-06, 1.603181407863815e+00, -6.577537561618878e+03, -9.976331598835235e+01, 6.582165585384680e+03
940, -2.000000000000454e-04, 1.900000000004165e-03, 2.748908094947485e-05, 5.170963956902250e-06, 5.689693219380274e+00, 6.791149917625813e+03, 2.714645332899285e+02, 6.807146423306837e+03
941, -1.500000000001146e-04, 1.900000000003247e-03, 2.738625793529025e-05, 3.820554726162823e-06, 5.103275529265261e+00, 5.100253921261708e+03, 2.952372856217069e+02, 5.129251438757201e+03
942, -1.000000000002012e-04, 1.900000000002328e-03, 2.730739618181748e-05, 2.472410328044465e-06, 4.769973335028681e+00, 3.408885264294037e+03, 2.992486518880706e+02, 3.456327521628737e+03
943, -5.000000000028235e-05, 1.900000000001409e-03, 2.725252088666149e-05, 1.125560492495967e-06, 4.576422404496157e+00, 1.717272286192991e+03, 2.834320485748304e+02, 1.804068187867498e+03
944, -3.974685164331859e-16, 1.900000000000491e-03, 2.722165202851996e-05, -2.209669304244721e-07, 4.407717965947995e+00, 2.564574512011302e+01, 2.477206668710797e+02, 4.958963288607921e+02
945, 4.999999999965091e-05, 1.899999999999572e-03, 2.721480433548281e-05, -1.568145978238198e-06, 4.147376135940362e+00, -1.665761186064464e+03, 1.920474745241056e+02, 1.713512047227731e+03
946, 9.999999999973007e-05, 1.899999999998654e-03, 2.723198725310549e-05, -2.916952583177823e-06, 3.677316250759986e+00, -3.356712912536051e+03, 1.163452412134810e+02, 3.368436929844162e+03
947, 1.499999999998452e-04, 1.899999999997735e-03, 2.727320491230659e-05, -4.268364578979419e-06, 2.877840574837535e+00, -5.046971410452164e+03, 2.054656052971021e+01, 5.050016445784743e+03
948, 1.999999999999271e-04, 1.899999999996817e-03, 2.733845609696307e-05, -5.623361707616230e-06, 1.627663604280201e+00, -6.736296174209938e+03, -9.541610132633346e+01, 6.740625681177849e+03
949, -2.000000000000473e-04, 1.800000000003828e-03, 2.482102970491130e-05, 4.967506703786981e-06, 5.077252660680074e+00, 6.952091214144639e+03, 2.685921808933666e+02, 6.967752149696576e+03
950, -1.500000000001189e-04, 1.800000000002982e-03, 2.471778064051211e-05, 3.676376668585386e-06, 4.281199660057041e+00, 5.221266490953538e+03, 2.941441111326943e+02, 5.250049386627587e+03
951, -1.000000000002088e-04, 1.800000000002135e-03, 2.463905430425760e-05, 2.387559086878088e-06, 3.820201912451807e+00, 3.489893344200464e+03, 2.997086151313255e+02, 3.537231540246915e+03
952, -5.000000000029254e-05, 1.800000000001289e-03, 2.458487858621970e-05, 1.100072468307089e-06, 3.581223574017258e+00, 1.758199781131917e+03, 2.852160476987794e+02, 1.845014649802601e+03
953, -4.102858189910380e-16, 1.800000000000442e-03, 2.455527616612680e-05, -1.870666356545983e-07, 3.449667767669894e+00, 2.641630219732514e+01, 2.505964759211360e+02, 5.017188867019015e+02
954, 4.999999999964072e-05, 1.799999999999596e-03, 2.455026448090567e-05, -1.474843639719340e-06, 3.309318886146912e+00, -1.705224126325787e+03, 1.957797226483417e+02, 1.752827810313611e+03
955, 9.999999999972246e-05, 1.799999999998750e-03, 2.456985569207056e-05, -2.764245932622346e-06, 3.042330963877532e+00, -3.436486058600889e+03, 1.206953879521730e+02, 3.447988551215577e+03
956, 1.499999999998409e-04, 1.799999999997903e-03, 2.461405665291573e-05, -4.056262884683194e-06, 2.529223732042112e+00, -5.167131546544450e+03, 2.527287282890563e+01, 5.169907866890843e+03
957, 1.999999999999252e-04, 1.799999999997057e-03, 2.468286887558097e-05, -5.351885854891262e-06, 1.648787556744480e+00, -6.896920191807590e+03, -9.055860948300838e+01, 6.900946124268314e+03
958, -2.000000000000492e-04, 1.700000000003484e-03, 2.227299775561533e-05, 4.755310452751369e-06, 4.440921273244271e+00, 7.114915649791965e+03, 2.651852111998870e+02, 7.130227461298825e+03
959, -1.500000000001233e-04, 1.700000000002704e-03, 2.216926343379823e-05, 3.524853471440929e-06, 3.423801817855178e+00, 5.343706724524549e+03, 2.926488216548181e+02, 5.372261630432435e+03
960, -1.000000000002164e-04, 1.700000000001925e-03, 2.209061957534234e-05, 2.296758440144223e-06, 2.827410543174437e+00, 3.571869860365876e+03, 2.998994063395118e+02, 3.619091408672568e+03
961, -5.000000000030273e-05, 1.700000000001145e-03, 2.203709688198013e-05, 1.070032655425268e-06, 2.539190665333194e+00, 1.799632815763483e+03, 2.868641253208611e+02, 1.886454240884952e+03
962, -4.231031215488901e-16, 1.700000000000365e-03, 2.200872085407762e-05, -1.563186240506686e-07, 2.444868052459697e+00, 2.722580411400793e+01, 2.534698526423661e+02, 5.075450320772115e+02
963, 4.999999999963053e-05, 1.699999999999585e-03, 2.200551175742160e-05, -1.383292186290444e-06, 2.428511432053256e+00, -1.745118443333350e+03, 1.996431962356268e+02, 1.792581931829768e+03
964, 9.999999999971485e-05, 1.699999999998805e-03, 2.202748458994622e-05, -2.611886874298135e-06, 2.372519870985229e+00, -3.517164670513414e+03, 1.253105194525332e+02, 3.528449084178595e+03
965, 1.499999999998365e-04, 1.699999999998025e-03, 2.207464904836066e-05, -3.843103594282501e-06, 2.157601854945426e+00, -5.288675091624718e+03, 3.039795916478636e+01, 5.291181978922934e+03
966, 1.999999999999232e-04, 1.699999999997246e-03, 2.214700949449899e-05, -5.077945323735923e-06, 1.662837258333127e+00, -7.059409307530128e+03, -8.516856273998107e+01, 7.063126401971318e+03
967, -2.000000000000511e-04, 1.600000000003144e-03, 1.984782128021943e-05, 4.534385430374306e-06, 3.781893279683459e+00, 7.279621892292367e+03, 2.612207257849889e+02, 7.294572829271871e+03
968, -1.500000000001277e-04, 1.600000000002436e-03, 1.974353777396358e-05, 3.366011280696797e-06, 2.531417584285691e+00, 5.467573867937469e+03, 2.907341851928015e+02, 5.495888868046844e+03
969, -1.000000000002240e-04, 1.600000000001727e-03, 1.966491872486696e-05, 2.200050532176228e-06, 1.791458207618689e+00, 3.654814769640075e+03, 2.998094242474805e+02, 3.701907896928200e+03
970, -5.000000000031292e-05, 1.600000000001018e-03, 1.961199776835418e-05, 1.035499276488360e-06, 1.449763901243841e+00, 1.841571932441287e+03, 2.883703332320511e+02, 1.928387770005288e+03
971, -4.359339766338982e-16, 1.600000000000309e-03, 1.958480334782587e-05, -1.286485149494632e-07, 1.392430336854659e+00, 2.807529707268327e+01, 2.563405140726374e+02, 5.133749234208251e+02
972, 4.999999999962034e-05, 1.599999999999600e-03, 1.958335868064102e-05, -1.293400999469874e-06, 1.503869064372680e+00, -1.785442616637717e+03, 2.036432932472967e+02, 1.832773883025800e+03
973, 9.999999999970728e-05, 1.599999999998891e-03, 1.960768172436744e-05, -2.459768471742624e-06, 1.666788045636167e+00, -3.598746727893461e+03, 1.302017370329247e+02, 3.609818202494759e+03
974, 1.499999999998322e-04, 1.599999999998182e-03, 1.965778514310462e-05, -3.628763372439202e-06, 1.762172067784832e+00, -5.411599403606016e+03, 3.593866090998330e+01, 5.413838739598139e+03
975, 1.999999999999214e-04, 1.599999999997473e-03, 1.973367627383035e-05, -4.801400297134322e-06, 1.669246892887031e+00, -7.223760465270131e+03, -7.922334722692833e+01, 7.227166794836791e+03
976, -2.000000000000531e-04, 1.500000000002802e-03, 1.754836963803235e-05, 4.304751493957651e-06, 3.101941912203074e+00, 7.446208682268373e+03, 2.566753356648291e+02, 7.460788621860967e+03
977, -1.500000000001320e-04, 1.500000000002160e-03, 1.744346810662914e-05, 3.199885858981394e-06, 1.605142292274991e+00, 5.592867512105369e+03, 2.883826099802187e+02, 5.620931684965043e+03
978, -1.000000000002316e-04, 1.500000000001518e-03, 1.736481127309731e-05, 2.097487114821583e-06, 7.126422569696160e-01, 3.738728202924807e+03, 2.994268707976549e+02, 3.785681726666624e+03
979, -5.000000000032311e-05, 1.500000000000877e-03, 1.731243583249163e-05, 9.965401550930665e-07, 3.125529657652351e-01, 1.884017682831304e+03, 2.897286734559028e+02, 1.970816032300279e+03
980, -4.487512791917503e-16, 1.500000000000236e-03, 1.728637329699690e-05, -1.039723311986976e-07, 2.913571202492449e-01, 2.896564092855954e+01, 2.592082652604974e+02, 5.192089306525313e+02
981, 4.999999999961016e-05, 1.499999999999595e-03, 1.728664996092012e-05, -1.205069867793798e-06, 5.338622440302743e-01, -1.826195539683437e+03, 2.077856275569945e+02, 1.873403260364222e+03
982, 9.999999999969963e-05, 1.499999999998952e-03, 1.731328686635786e-05, -2.307774198850601e-06, 9.231474631653782e-01, -3.681230892040702e+03, 1.353804909976502e+02, 3.692095594646177e+03
983, 1.499999999998278e-04, 1.499999999998311e-03, 1.736629976999740e-05, -3.413109297178731e-06, 1.340507470833359e+00, -5.535902962265045e+03, 4.191232839578504e+01, 5.537877916333914e+03
984, 1.999999999999195e-04, 1.499999999997670e-03, 1.744569911016840e-05, -4.522101373505638e-06, 1.665393824867351e+00, -7.389971842201345e+03, -7.269968117305658e+01, 7.393067158059629e+03
985, -2.000000000000549e-04, 1.400000000002461e-03, 1.537754539209427e-05, 4.066438537950930e-06, 2.402931150589666e+00, 7.614674562928407e+03, 2.515250674922903e+02, 7.628875332201813e+03
986, -1.500000000001364e-04, 1.400000000001890e-03, 1.527195187522648e-05, 3.026522992067856e-06, 6.460301569323974e-01, 5.719587045900929e+03, 2.855760276111145e+02, 5.747390800332230e+03
987, -1.000000000002392e-04, 1.400000000001320e-03, 1.519318953228478e-05, 1.989129951952970e-06, -4.087466124321963e-01, 3.823610209340161e+03, 2.987396558209018e+02, 3.870413738003306e+03
988, -5.000000000033329e-05, 1.400000000000748e-03, 1.514129824790474e-05, 9.532331205242640e-07, -8.728243478026343e-01, 1.926970596584767e+03, 2.909330343753370e+02, 2.013739898198464e+03
989, -4.615719698813914e-16, 1.400000000000178e-03, 1.511631273311443e-05, -8.219609333042124e-08, -8.593049758082998e-01, 2.989772509674538e+01, 2.620729398883403e+02, 5.250475199310578e+02
990, 4.999999999959998e-05, 1.399999999999606e-03, 1.511826248722749e-05, -1.118188580777073e-06, -4.829633846998149e-01, -1.867376015924706e+03, 2.120759372118829e+02, 1.914469765287333e+03
991, 9.999999999969204e-05, 1.399999999999035e-03, 1.514717176301758e-05, -2.155777536476354e-06, 1.396908468348101e-01, -3.764615637273039e+03, 1.408584150319422e+02, 3.775281056153067e+03
992, 1.499999999998235e-04, 1.399999999998463e-03, 1.520305953471360e-05, -3.195998463151816e-06, 8.903307886891980e-01, -5.661583816742442e+03, 4.833652979083971e+01, 5.663299316821184e+03
993, 1.999999999999176e-04, 1.399999999997893e-03, 1.528593946853106e-05, -4.239889180923753e-06, 1.648786364706893e+00, -7.558040961318427e+03, -6.557388899281983e+01, 7.560827257707721e+03
994, -2.000000000000568e-04, 1.300000000002126e-03, 1.333828432223656e-05, 3.819486903707109e-06, 1.686663966839092e+00, 7.785017727835801e+03, 2.457454148574315e+02, 7.798833610578018e+03
995, -1.500000000001407e-04, 1.300000000001629e-03, 1.323191952844481e-05, 2.845978896871798e-06, -3.453396006958656e-01, 5.847731172237131e+03, 2.822959716306352e+02, 5.875267053564869e+03
996, -1.000000000002468e-04, 1.300000000001133e-03, 1.315297860839805e-05, 1.875051227950784e-06, -1.573016178565240e+00, 3.909460087950142e+03, 2.977353952533945e+02, 3.956104827217981e+03
997, -5.000000000034346e-05, 1.300000000000637e-03, 1.310150477076296e-05, 9.056664175214907e-07, -2.107175447450118e+00, 1.970430780589318e+03, 2.919771310482963e+02, 2.057160316607942e+03
998, -4.743892724392434e-16, 1.300000000000140e-03, 1.307753605842896e-05, -6.321540751999323e-08, -2.060528769660323e+00, 3.087264266819818e+01, 2.649343449434609e+02, 5.308911586224037e+02
999, 4.999999999958981e-05, 1.299999999999644e-03, 1.308110530722404e-05, -1.032636514467423e-06, -1.547697100534833e+00, -1.908982085372270e+03, 2.165201124084296e+02, 1.955972847938080e+03
1000, 9.999999999968445e-05, 1.299999999999148e-03, 1.311224010816339e-05, -2.003641556641167e-06, -6.850052230438450e-01, -3.848898504919517e+03, 1.466474649176593e+02, 3.859374179204873e+03
1001, 1.499999999998191e-04, 1.299999999998652e-03, 1.317096277932132e-05, -2.977277567060333e-06, 4.096928110682256e-01, -5.788639270243364e+03, 5.522931224435166e+01, 5.790102676495948e+03
1002, 1.999999999999157e-04, 1.299999999998155e-03, 1.325729034070013e-05, -3.954593964030902e-06, 1.616874816668428e+00, -7.727964904363087e+03, -5.782178559775576e+01, 7.730446812221561e+03
1003, -2.000000000000587e-04, 1.200000000001781e-03, 1.143355540400336e-05, 3.563947806012590e-06, 9.558768009824234e-01, 7.957236580594003e+03, 2.393116128565448e+02, 7.970663888895400e+03
1004, -1.500000000001450e-04, 1.200000000001350e-03, 1.132633450824952e-05, 2.658320654679879e-06, -1.369011234057098e+00, 5.977296456787179e+03, 2.785237141485790e+02, 6.004560151741514e+03
1005, -1.000000000002543e-04, 1.200000000000919e-03, 1.124713640599035e-05, 1.755333982997145e-06, -2.782155865457071e+00, 3.996273763695352e+03, 2.964011216542365e+02, 4.042754351608060e+03
1006, -5.000000000035367e-05, 1.200000000000488e-03, 1.119600775549642e-05, 8.539391324656108e-07, -3.392699010011711e+00, 2.014396203068843e+03, 2.928537730702433e+02, 2.101077195858948e+03
1007, -4.872353741173022e-16, 1.200000000000057e-03, 1.117299005746282e-05, -4.691505697375042e-08, -3.313529817809354e+00, 3.189219269223480e+01, 2.677914547993418e+02, 5.367387595019070e+02
1008, 4.999999999957962e-05, 1.199999999999626e-03, 1.117811961264079e-05, -9.482822369581666e-07, -2.660554248879976e+00, -1.951008498502329e+03, 2.211237435675322e+02, 1.997909545438411e+03
1009, 9.999999999967686e-05, 1.199999999999196e-03, 1.121142749135567e-05, -1.851218528982936e-06, -1.551318022109854e+00, -3.934073213868998e+03, 1.527600776161603e+02, 3.944372069996489e+03
1010, 1.499999999998148e-04, 1.199999999998765e-03, 1.127293949599271e-05, -2.756782503402527e-06, -1.036525177893282e-01, -5.917064963493603e+03, 6.260974963637602e+01, 5.918286160585912e+03
1011, 1.999999999999137e-04, 1.199999999998334e-03, 1.136267613687939e-05, -3.666035173270913e-06, 1.564994449877418e+00, -7.899742045021430e+03, -4.941803980474128e+01, 7.901925176982595e+03
1012, -2.000000000000607e-04, 1.100000000001707e-03, 9.666360763300695e-06, 3.299883777773987e-06, 2.163583285489494e-01, 8.131331642283342e+03, 2.321998424430154e+02, 8.144366324539035e+03
1013, -1.500000000001494e-04, 1.100000000001301e-03, 9.558193236927459e-06, 2.463626729131448e-06, -2.426935191418465e+00, 6.108271811746041e+03, 2.742410041097044e+02, 6.135264598137836e+03
1014, -1.000000000002619e-04, 1.100000000000895e-03, 9.478653684900342e-06, 1.630072660792130e-06, -4.042197128133012e+00, 4.084035722397224e+03, 2.947222471432460e+02, 4.130354208534109e+03
1015, -5.000000000036384e-05, 1.100000000000489e-03, 9.427792280263479e-06, 7.981616870191611e-07, -4.735097422499166e+00, 2.058857270058885e+03, 2.935521205646201e+02, 2.145484758528796e+03
1016, -5.000628410705213e-16, 1.100000000000083e-03, 9.405654027035323e-06, -3.316861728655703e-08, -4.620104102079495e+00, 3.296024609219603e+01, 2.706391373606824e+02, 5.425812873718201e+02
1017, 4.999999999956943e-05, 1.099999999999677e-03, 9.412278807629677e-06, -8.649832204998373e-07, -3.819307585788465e+00, -1.993438906331453e+03, 2.258901253097094e+02, 2.040267517401237e+03
1018, 9.999999999966927e-05, 1.099999999999272e-03, 9.447701353285200e-06, -1.698349654397268e-06, -2.456481869302252e+00, -4.020120186652831e+03, 1.592093564109223e+02, 4.030262041283424e+03
1019, 1.499999999998105e-04, 1.099999999998866e-03, 9.511951190557342e-06, -2.534338030083706e-06, -6.509408856729806e-01, -6.046849297569775e+03, 7.049992657345683e+01, 6.047842220739311e+03
1020, 1.999999999999118e-04, 1.099999999998460e-03, 9.605052518262571e-06, -3.374021029684148e-06, 1.483914346213396e+00, -8.073375541679230e+03, -4.033432266005209e+01, 8.075262389848474e+03
1021, -2.000000000000626e-04, 1.000000000002109e-03, 8.039735606227577e-06, 3.027369097864095e-06, -5.198437934511730e-01, 8.307309986935057e+03, 2.243907662520848e+02, 8.319942389239197e+03
1022, -1.500000000001537e-04, 1.000000000001674e-03, 7.930525116206483e-06, 2.261987724586676e-06, -3.521133471909252e+00, 6.240630709532941e+03, 2.694322767099892e+02, 6.267360468764613e+03
1023, -1.000000000002696e-04, 1.000000000001239e-03, 7.850554266666019e-06, 1.499373989062974e-06, -5.363463188962896e+00, 4.172705185677168e+03, 2.926803225478378e+02, 4.218874816756817e+03
1024, -5.000000000037402e-05, 1.000000000000804e-03, 7.799876521663781e-06, 7.384565448214821e-07, -6.143739692287340e+00, 2.103788560344316e+03, 2.940507112496138e+02, 2.190360151637937e+03
1025, -5.128852258260569e-16, 1.000000000000369e-03, 7.778540204468334e-06, -2.183813600511870e-08, -5.983821055200792e+00, 3.408495554860571e+01, 2.734599634939856e+02, 5.483857341279527e+02
1026, 4.999999999955924e-05, 9.999999999999337e-04, 7.786588772069850e-06, -7.825858761934523e-07, -5.021371887193254e+00, -2.036233884422344e+03, 2.308147431538387e+02, 2.083008894294033e+03
1027, 9.999999999966167e-05, 9.999999999994987e-04, 7.824060994846765e-06, -1.544865190854513e-06, -3.396143920487475e+00, -4.106990971979307e+03, 1.660092976824643e+02, 4.117004598071174e+03
1028, 1.499999999998061e-04, 9.999999999990637e-04, 7.890990641976202e-06, -2.309757662096425e-06, -1.235782493647662e+00, -6.177966859601243e+03, 7.892976150212206e+01, 6.178747966045377e+03
1029, 1.999999999999099e-04, 9.999999999986283e-04, 7.987406094605315e-06, -3.078347996169233e-06, 1.354952265776205e+00, -8.248882217472756e+03, -3.053408168197797e+01, 8.250463179574337e+03
1030, -2.000000000000644e-04, 9.000000000025380e-04, 6.556748453648788e-06, 2.746490111301510e-06, -1.234036532710888e+00, 8.485193119365929e+03, 2.158739550725428e+02, 8.497402669656683e+03
1031, -1.500000000001581e-04, 9.000000000020734e-04, 6.446392845681108e-06, 2.053507555281892e-06, -4.642838118806822e+00, 6.374335192913881e+03, 2.640870972053024e+02, 6.400806878826994e+03
1032, -1.000000000002772e-04, 9.000000000016087e-04, 6.365895532337978e-06, 1.363358493078646e-06, -6.733469780747782e+00, 4.262233700662533e+03, 2.902491109890730e+02, 4.308254738063001e+03
1033, -5.000000000038420e-05, 9.000000000011442e-04, 6.315312506428728e-06, 6.749593032424053e-07, -7.613267780483397e+00, 2.149162951924761e+03, 2.943092300976432e+02, 2.235655463967718e+03
1034, -5.256991402521199e-16, 9.000000000006796e-04, 6.294694484257399e-06, -1.277392986611445e-08, -7.411745805452256e+00, 3.528181449500846e+01, 2.762138672183883e+02, 5.540750327041266e+02
1035, 4.999999999954906e-05, 9.000000000002148e-04, 6.304088446842531e-06, -7.009261827779004e-07, -6.285461031946738e+00, -2.079339980442611e+03, 2.358788933291301e+02, 2.126055137977772e+03
1036, 9.999999999965402e-05, 8.999999999997502e-04, 6.343537782467933e-06, -1.390585337958026e-06, -4.394635101687072e+00, -4.194623876159591e+03, 1.731741508481342e+02, 4.204518788007088e+03
1037, 1.499999999998018e-04, 8.999999999992857e-04, 6.413081876118712e-06, -2.082843981842233e-06, -1.877563420359706e+00, -6.310384836122843e+03, 8.794325263754726e+01, 6.310958728472086e+03
1038, 1.999999999999080e-04, 8.999999999988212e-04, 6.512754350014622e-06, -2.778800004714704e-06, 1.147387158207266e+00, -8.426308176976285e+03, -1.996543304061726e+01, 8.427550163572296e+03
1039, -2.000000000000664e-04, 8.000000000027327e-04, 5.220503503779885e-06, 2.457345109631633e-06, -1.970179797130754e+00, 8.664966089579888e+03, 2.066323197409751e+02, 8.676783503101191e+03
1040, -1.500000000001624e-04, 8.000000000022627e-04, 5.108894185020717e-06, 1.838304535771787e-06, -5.705756143361100e+00, 6.509464998487508e+03, 2.581818780501181e+02, 6.535601081049189e+03
1041, -1.000000000002848e-04, 8.000000000017928e-04, 5.027769465556007e-06, 1.222161714044224e-06, -7.994168154111321e+00, 4.352782492919934e+03, 2.873954723386201e+02, 4.398494937799866e+03
1042, -5.000000000039436e-05, 8.000000000013229e-04, 4.977185945932215e-06, 6.078195093612002e-07, -9.015909751761001e+00, 2.195132161622609e+03, 2.942896115628796e+02, 2.281379894370658e+03
1043, -5.385198309417610e-16, 8.000000000008525e-04, 4.957196015399917e-06, -5.814520571247353e-09, -8.913651071479649e+00, 3.657655743397663e+01, 2.788727822868905e+02, 5.595975999516043e+02
1044, 4.999999999953886e-05, 8.000000000003829e-04, 4.967849530706691e-06, -6.198302800910638e-07, -7.759855430131779e+00, -2.122866687509708e+03, 2.410709494895160e+02, 2.169363437015755e+03
1045, 9.999999999964645e-05, 7.999999999999128e-04, 5.009195958200696e-06, -1.235320981581962e-06, -5.630297869266087e+00, -4.283161350962027e+03, 1.807203807031610e+02, 4.292774316706951e+03
1046, 1.499999999997974e-04, 7.999999999994429e-04, 5.081281673330110e-06, -1.853388862182960e-06, -2.681233100293412e+00, -6.444196105776369e+03, 9.758281080678535e+01, 6.444470767624514e+03
1047, 1.999999999999061e-04, 7.999999999989728e-04, 5.184147847270899e-06, -2.475147022639693e-06, 8.874054069856356e-01, -8.605686882682960e+03, -8.573327970437475e+00, 8.606591368493157e+03
1048, -2.000000000000683e-04, 7.000000000024487e-04, 4.034150702814153e-06, 2.160044228997004e-06, -3.062094961398202e+00, 8.846365766410563e+03, 1.965123771027506e+02, 8.858151157608718e+03
1049, -1.500000000001667e-04, 7.000000000020254e-04, 3.921169656126151e-06, 1.616507382158294e-06, -6.471633486984047e+00, 6.646668930879679e+03, 2.515650243498122e+02, 6.672137529692090e+03
1050, -1.000000000002923e-04, 7.000000000016023e-04, 3.839302557006984e-06, 1.075927626623366e-06, -8.437743482216206e+00, 4.445724464446052e+03, 2.840971203976952e+02, 4.490256748762756e+03
1051, -5.000000000040459e-05, 7.000000000011791e-04, 3.788609495145280e-06, 5.371953536571437e-07, -9.759374409038401e+00, 2.242817271511301e+03, 2.941605608164173e+02, 2.328137300054497e+03
1052, -5.513337453678241e-16, 7.000000000007558e-04, 3.769146358931419e-06, -7.865731951856390e-10, -1.049220476162157e+01, 3.800255667322767e+01, 2.816892773935069e+02, 5.654618801303296e+02
1053, 4.999999999952868e-05, 7.000000000003326e-04, 3.780969938508604e-06, -5.391089564878025e-07, -1.004916209237081e+01, -2.167883559878564e+03, 2.465833235115080e+02, 2.213472979280576e+03
1054, 9.999999999963887e-05, 6.999999999999092e-04, 3.824132907991343e-06, -1.078866605004710e-06, -7.839823335855044e+00, -4.373963887452382e+03, 1.886739033148030e+02, 4.382400108436653e+03
1055, 1.499999999997930e-04, 6.999999999994860e-04, 3.898687753929942e-06, -1.621168514940161e-06, -3.915969894326054e+00, -6.580078867633335e+03, 1.077674860116591e+02, 6.579694049252154e+03
1056, 1.999999999999042e-04, 6.999999999990628e-04, 4.004680884403650e-06, -2.167143309176543e-06, 8.888981028403578e-01, -8.786830341682335e+03, 3.571386580028189e+00, 8.787722142654431e+03
1057, -2.000000000000702e-04, 6.000000000020976e-04, 3.000915725348525e-06, 1.854711289781071e-06, -6.104319035619710e+00, 9.027759946980397e+03, 1.847164126781968e+02, 9.041414943981496e+03
1058, -1.500000000001711e-04, 6.000000000017323e-04, 2.886420784842824e-06, 1.388229380213177e-06, -6.215825240323397e+00, 6.788819022946500e+03, 2.434766085766942e+02, 6.812460790622531e+03
1059, -1.000000000003000e-04, 6.000000000013669e-04, 2.803650530335874e-06, 9.247632764335592e-07, -6.114704851065881e+00, 4.546462601890006e+03, 2.804641040567501e+02, 4.587003443263501e+03
1060, -5.000000000041474e-05, 6.000000000010013e-04, 2.752684881469552e-06, 4.632188717958983e-07, -8.227856077667525e+00, 2.296437280366074e+03, 2.950512329214633e+02, 2.379012885911539e+03
1061, -5.641662945187267e-16, 6.000000000006360e-04, 2.733622953945325e-06, 2.495620133701091e-09, -1.211051936404726e+01, 3.957952111375471e+01, 2.862885390014425e+02, 5.749055318388567e+02
1062, 4.999999999951849e-05, 6.000000000002706e-04, 2.746537257076860e-06, -4.585216994544634e-07, -1.472919461646597e+01, -2.218594819410798e+03, 2.535417145384940e+02, 2.261450263922377e+03
1063, 9.999999999963128e-05, 5.999999999999052e-04, 2.791476224225070e-06, -9.209536822655245e-07, -1.298470428584744e+01, -4.472459034984306e+03, 1.971525678852344e+02, 4.476872551933261e+03
1064, 1.499999999997888e-04, 5.999999999995398e-04, 2.868459827723152e-06, -1.385916144778450e-06, -6.356529437763697e+00, -6.720970365115183e+03, 1.177773133323975e+02, 6.718744298186515e+03
1065, 1.999999999999023e-04, 5.999999999991742e-04, 2.977524310204126e-06, -1.854527213837276e-06, 2.728042769315380e+00, -8.968198494623653e+03, 1.575092221741281e+01, 8.970981847351170e+03
1066, -2.000000000000721e-04, 5.000000000017480e-04, 2.124149105849968e-06, 1.541507351296854e-06, -1.373598840338809e+01, 9.205933162219153e+03, 1.684353454969464e+02, 9.225821432771811e+03
1067, -1.500000000001754e-04, 5.000000000014432e-04, 2.007945845223654e-06, 1.153469310282977e-06, -3.713144045229456e+00, 6.944384559627391e+03, 2.316195349061464e+02, 6.963522968697763e+03
1068, -1.000000000003076e-04, 5.000000000011384e-04, 1.923951642012201e-06, 7.685759454303609e-07, 7.775019613568475e-01, 4.667641696253500e+03, 2.771046518404717e+02, 4.699656302353669e+03
1069, -5.000000000042491e-05, 5.000000000008338e-04, 1.872399221921020e-06, 3.858738442224274e-07, -3.057316468469594e+00, 2.365203614823643e+03, 3.011158582750136e+02, 2.443633131037345e+03
1070, -5.769852911424733e-16, 5.000000000005289e-04, 1.853534341384199e-06, 4.232297071819988e-09, -1.368347183709477e+01, 4.119348122428710e+01, 2.981824147164668e+02, 5.988843709447368e+02
1071, 4.999999999950832e-05, 5.000000000002242e-04, 1.867529028005302e-06, -3.776504726630503e-07, -2.295803218960532e+01, -2.284347249333337e+03, 2.660294528756574e+02, 2.323137505745888e+03
1072, 9.999999999962365e-05, 4.999999999999196e-04, 1.914343948157249e-06, -7.610838549730985e-07, -2.274550611874736e+01, -4.591375606233388e+03, 2.066612494304186e+02, 4.587288576025938e+03
1073, 1.499999999997844e-04, 4.999999999996149e-04, 1.993863686265775e-06, -1.147219602636337e-06, -1.122834295888481e+01, -6.875439351440205e+03, 1.252361260016821e+02, 6.868779303339115e+03
1074, 1.999999999999003e-04, 4.999999999993100e-04, 2.105982766675038e-06, -1.537041523595760e-06, 9.038805807716358e+00, -9.146661034801329e+03, 2.517082370125891e+01, 9.155838238675458e+03
1075, -2.000000000000740e-04, 4.000000000013997e-04, 1.407316639072085e-06, 1.220662206066204e-06, -2.999047530575876e+01, 9.374855653141210e+03, 1.407077960182469e+02, 9.409055501760269e+03
1076, -1.500000000001797e-04, 4.000000000011572e-04, 1.289022313342254e-06, 9.118541585644249e-07, 5.862874922358856e+00, 7.135832328438467e+03, 2.114758487694409e+02, 7.142503240917978e+03
1077, -1.000000000003152e-04, 4.000000000009148e-04, 1.203185114846441e-06, 6.067260289219704e-07, 7.007708500669537e+00, 4.824577681812374e+03, 2.775680358465596e+02, 4.849449093025866e+03
1078, -5.000000000043512e-05, 4.000000000006724e-04, 1.150397395018549e-06, 3.047552997969877e-07, -1.436944633602513e+01, 2.438938496813089e+03, 3.213232552458272e+02, 2.536082491041180e+03
1079, -5.898025937003254e-16, 4.000000000004300e-04, 1.131436214736099e-06, 4.644812949609369e-09, -1.513122530636542e+01, 4.232564694171447e+01, 3.285294427861337e+02, 6.595662751217668e+02
1080, 4.999999999949812e-05, 4.000000000001875e-04, 1.146594008078927e-06, -2.956476560721765e-07, -1.435878417211620e+01, -2.355745798134641e+03, 2.928868446778503e+02, 2.413550074950536e+03
1081, 9.999999999961606e-05, 3.999999999999452e-04, 1.195717389600411e-06, -5.981728037140604e-07, -3.124413609057547e+01, -4.746085039321306e+03, 2.204702365020776e+02, 4.735414791072762e+03
1082, 1.499999999997800e-04, 3.999999999997027e-04, 1.278171655783308e-06, -9.042552498015141e-07, -2.296213109141991e+01, -7.065904205667499e+03, 1.252864252959441e+02, 7.047398088606017e+03
1083, 1.999999999998984e-04, 3.999999999994603e-04, 1.393503942764600e-06, -1.214458762512946e-06, 2.389936904457704e+01, -9.316262184095240e+03, 2.464001111031232e+01, 9.340291556441976e+03
1084, -2.000000000000760e-04, 3.000000000010516e-04, 8.532320140960907e-07, 8.925688197639507e-07, -8.049791038459944e+00, 9.583531668972675e+03, 9.443950150021365e+01, 9.593440997984184e+03
1085, -1.500000000001842e-04, 3.000000000008717e-04, 7.323599245204742e-07, 6.621333403682199e-07, 6.020019696583063e+00, 7.364212820324266e+03, 1.905316291488265e+02, 7.368053372365966e+03
1086, -1.000000000003227e-04, 3.000000000006917e-04, 6.435370320201926e-07, 4.377896337687003e-07, -1.015277126625153e+02, 4.886561042568681e+03, 2.934827727289259e+02, 5.022505149984272e+03
1087, -5.000000000044532e-05, 3.000000000005118e-04, 5.891259145064281e-07, 2.194327721784138e-07, -7.651148299637737e+01, 2.460812820706639e+03, 3.615026902432749e+02, 2.638323596978676e+03
1088, -6.026207432911247e-16, 3.000000000003319e-04, 5.699278677313792e-07, 3.992678374962543e-09, -1.644054744246080e+01, 4.182592870526969e+01, 3.762909396510600e+02, 7.548340660678907e+02
1089, 4.999999999948792e-05, 3.000000000001520e-04, 5.862063235753328e-07, -2.115686685648019e-07, 4.543157503797977e+01, -2.378342312272928e+03, 3.397890082907252e+02, 2.517241771747602e+03
1090, 9.999999999960845e-05, 2.999999999999720e-04, 6.378347460429631e-07, -4.302943287111088e-07, 7.588743900805832e+01, -4.807614242494461e+03, 2.498458746910026e+02, 4.908999950869666e+03
1091, 1.499999999997756e-04, 2.999999999997920e-04, 7.241498408856199e-07, -6.552720074211017e-07, -2.296684075863800e+01, -7.292391178668759e+03, 1.246120859867297e+02, 7.273695270802582e+03
1092, 1.999999999998966e-04, 2.999999999996122e-04, 8.429460039805259e-07, -8.866597223561169e-07, 1.385869050420638e+00, -9.525380948440621e+03, 6.067841332676068e+00, 9.526774547014438e+03
1093, -2.000000000000778e-04, 2.000000000007014e-04, 4.603325425164446e-07, 5.567617746826113e-07, 1.205042289754755e+02, 9.872143468231807e+03, 7.647234228371642e+01, 9.752838557524739e+03
1094, -1.500000000001885e-04, 2.000000000005817e-04, 3.357266854152530e-07, 4.029597760871850e-07, -4.790496086059982e+02, 6.933934282031895e+03, 2.201904575922110e+02, 7.426053158530148e+03
1095, -1.000000000003304e-04, 2.000000000004620e-04, 2.466607188238145e-07, 2.637437087227139e-07, -3.429233270113003e+02, 4.593505740993788e+03, 3.224233716599209e+02, 4.978369137158854e+03
1096, -5.000000000045550e-05, 2.000000000003424e-04, 1.930952279048381e-07, 1.315215180774004e-07, -1.762464093549643e+02, 2.309006535629705e+03, 3.512677467185908e+02, 2.582641732818161e+03
1097, -6.154388928819240e-16, 2.000000000002227e-04, 1.745764775491057e-07, 2.612836273885318e-09, -1.730489504901595e+01, 3.761973480034692e+01, 3.536205859880609e+02, 7.093707002000067e+02
1098, 4.999999999947777e-05, 2.000000000001030e-04, 1.909471524429759e-07, -1.263637014498428e-07, 1.434843687550764e+02, -2.234702734184109e+03, 3.359072399975624e+02, 2.471256480440141e+03
1099, 9.999999999960084e-05, 1.999999999999833e-04, 2.424824393139854e-07, -2.587922280423556e-07, 3.158817194970771e+02, -4.521852651916203e+03, 2.914807449678811e+02, 4.872732082425789e+03
1100, 1.499999999997714e-04, 1.999999999998636e-04, 3.297595483501142e-07, -3.983539633166410e-07, 4.625019603502681e+02, -6.865295558988897e+03, 1.733495037210388e+02, 7.335994594204288e+03
1101, 1.999999999998946e-04, 1.999999999997439e-04, 4.529389871046397e-07, -5.526193125141092e-07, -1.227150737712004e+02, -9.810168452755192e+03, 1.340188820656607e+01, 9.687490459991090e+03
1102, -2.000000000000798e-04, 1.000000000003506e-04, 2.022274101373521e-07, 2.147777673873540e-07, -3.082997739662386e+03, 5.500197954585003e+03, 5.286879835616137e+02, 8.648080264520946e+03
1103, -1.500000000001928e-04, 1.000000000002906e-04, 9.364825740554209e-08, 1.543613365081069e-07, -1.421868616644306e+03, 4.643476915287660e+03, 4.270055774415423e+02, 6.125173587286470e+03
1104, -1.000000000003380e-04, 1.000000000002307e-04, 2.115624026292216e-08, 1.002196607257728e-07, -5.731772353712232e+02, 3.332751513123250e+03, 1.516006292275616e+02, 3.917679209869584e+03
1105, -5.000000000046567e-05, 1.000000000001708e-04, -2.083526943996742e-08, 4.986704624660181e-08, -1.986274425192066e+02, 1.733878134442595e+03, -2.020781287793233e+01, 1.932928148637115e+03
1106, -6.282434899455673e-16, 1.000000000001108e-04, -3.499705297924749e-08, 1.004824309968853e-09, -1.382251933775183e+01, 2.665148229918884e+01, -8.300013349493383e+01, 1.708632009802416e+02
1107, 4.999999999946757e-05, 1.000000000000509e-04, -2.215316009054340e-08, -4.788868876406205e-08, 1.712390179933232e+02, -1.682181099694496e+03, -3.159899087513446e+01, 1.854497268142295e+03
1108, 9.999999999959325e-05, 9.999999999999091e-05, 1.858641882893005e-08, -9.833887013332428e-08, 5.472156173135320e+02, -3.285477827409360e+03, 1.285091978921579e+02, 3.841301536848333e+03
1109, 1.499999999997670e-04, 9.999999999993101e-05, 8.996813065583748e-08, -1.526548755242566e-07, 1.401147050404805e+03, -4.601654130554901e+03, 3.917138261432926e+02, 6.053708029340241e+03
1110, 1.999999999998927e-04, 9.999999999987105e-05, 1.976813895042511e-07, -2.133041926579154e-07, 3.073648467889795e+03, -5.459768493667552e+03, 4.804242588449322e+02, 8.587341551012249e+03
