"PointID","x","y","Displacement_x","Displacement_y","Sxx","Syy","Sxy","Von_Mises_Stress"
0, -2.500000000000000e-04, 0.000000000000000e+00, 0.000000000000000e+00, 0.000000000000000e+00, 2.887295390251066e+04, 3.528587022567775e+04, 3.608589508345623e+03, 9.654696718536065e+03
1, 2.500000000000000e-04, 0.000000000000000e+00, 0.000000000000000e+00, 0.000000000000000e+00, -2.901146319610531e+04, -3.546125505874313e+04, 3.551252399789342e+03, 9.594028846078534e+03
2, 2.500000000000000e-04, 1.000000000000000e-02, 5.621904940412896e-04, -3.699505438298329e-05, 1.418085801644599e+01, 1.110819721069338e+01, 2.546690331643283e+00, 5.948425926944860e+00
3, -2.500000000000000e-04, 1.000000000000000e-02, 5.636295176082780e-04, 8.824254396381540e-07, 4.797054879192477e+00, 2.613002988552445e+01, 2.248434200769438e+00, 2.180178084564523e+01
4, -2.000000000000817e-04, 0.000000000000000e+00, 0.000000000000000e+00, 0.000000000000000e+00, 1.947888257831127e+04, 2.380599599210579e+04, 2.049296085339721e+03, 5.960064452453115e+03
5, -1.500000000001972e-04, 0.000000000000000e+00, 0.000000000000000e+00, 0.000000000000000e+00, 1.401007079798608e+04, 1.712485863492054e+04, 9.522566961543555e+02, 3.650900509545296e+03
6, -1.000000000003456e-04, 0.000000000000000e+00, 0.000000000000000e+00, 0.000000000000000e+00, 9.106603860323314e+03, 1.113127117449906e+04, 2.193803587238604e+02, 2.071663269034538e+03
7, -5.000000000047588e-05, 0.000000000000000e+00, 0.000000000000000e+00, 0.000000000000000e+00, 4.540587365630025e+03, 5.549535346877501e+03, -2.056642844871389e+02, 1.089572035488144e+03
8, -6.410887445906788e-16, 0.000000000000000e+00, 0.000000000000000e+00, 0.000000000000000e+00, 1.028580152255431e+02, 1.251584310522819e+02, -3.497609941251914e+02, 6.998773611082260e+02
9, 4.999999999945738e-05, 0.000000000000000e+00, 0.000000000000000e+00, 0.000000000000000e+00, -4.345302886786226e+03, -5.311035433139732e+03, -2.211260508893513e+02, 1.062179962442382e+03
10, 9.999999999958566e-05, 0.000000000000000e+00, 0.000000000000000e+00, 0.000000000000000e+00, -8.943048883230844e+03, -1.092944635752536e+04, 1.893669633647469e+02, 2.022180583711444e+03
11, 1.499999999997626e-04, 0.000000000000000e+00, 0.000000000000000e+00, 0.000000000000000e+00, -1.390131751630203e+04, -1.698900072531256e+04, 9.096498330739314e+02, 3.583802292879907e+03
12, 1.999999999998909e-04, 0.000000000000000e+00, 0.000000000000000e+00, 0.000000000000000e+00, -1.944426077518502e+04, -2.376649350116434e+04, 1.997499696501367e+03, 5.885721356606939e+03
13, 2.500000000000000e-04, 9.999999999981111e-05, 4.477682846361101e-07, -4.046492675375597e-07, 1.547408160341378e+03, -1.192840776616852e+04, 9.188495908164622e+02, 1.360054238504303e+04
14, 2.500000000000000e-04, 1.999999999996242e-04, 7.689538393238991e-07, -9.139291034083670e-07, -3.100835266207048e+03, -1.732244484134699e+04, -1.197510782777874e+02, 1.422362612664952e+04
15, 2.500000000000000e-04, 2.999999999994322e-04, 1.265542938889109e-06, -1.429327532355684e-06, -3.307117155782668e+03, -1.759873684680375e+04, -6.791995248820695e+01, 1.429226524636894e+04
16, 2.500000000000000e-04, 3.999999999992179e-04, 1.963017906736142e-06, -1.947856180769037e-06, -3.607988884962342e+03, -1.777039896362656e+04, -7.253412173704362e+01, 1.416315303989597e+04
17, 2.500000000000000e-04, 4.999999999990053e-04, 2.865528487568434e-06, -2.460941215760883e-06, -3.619279330830236e+03, -1.753890843645736e+04, -8.779660175603630e+01, 1.392073659729763e+04
18, 2.500000000000000e-04, 5.999999999988090e-04, 3.969821596878142e-06, -2.966552447443253e-06, -3.569360205418633e+03, -1.721229165334497e+04, -1.104542290734416e+02, 1.364471982268959e+04
19, 2.500000000000000e-04, 6.999999999986395e-04, 5.271746551703571e-06, -3.464380250976764e-06, -3.498199448379142e+03, -1.685839886838228e+04, -1.334930196485183e+02, 1.336286683640273e+04
20, 2.500000000000000e-04, 7.999999999985029e-04, 6.767120069369062e-06, -3.954747919146700e-06, -3.424461183055948e+03, -1.650389995346046e+04, -1.553966341644224e+02, 1.308313077991652e+04
21, 2.500000000000000e-04, 8.999999999983563e-04, 8.451883974040088e-06, -4.438079334358946e-06, -3.351470574574485e+03, -1.615346152795792e+04, -1.757431136217291e+02, 1.280681517546237e+04
22, 2.500000000000000e-04, 9.999999999981935e-04, 1.032206681491757e-05, -4.914785328264525e-06, -3.279741980225159e+03, -1.580748705580484e+04, -1.945604324669821e+02, 1.253378680711611e+04
23, 2.500000000000000e-04, 1.099999999998054e-03, 1.237375455609425e-05, -5.385244593350843e-06, -3.209062606286165e+03, -1.546556356696387e+04, -2.119249634922506e+02, 1.226382748409721e+04
24, 2.500000000000000e-04, 1.199999999997903e-03, 1.460307724947786e-05, -5.849808929794070e-06, -3.139282608033081e+03, -1.512745523621669e+04, -2.279072473822143e+02, 1.199683499164542e+04
25, 2.500000000000000e-04, 1.299999999997659e-03, 1.700620549703679e-05, -6.308808050010808e-06, -3.070335303754467e+03, -1.479307961739977e+04, -2.425653847972409e+02, 1.173277827740346e+04
26, 2.500000000000000e-04, 1.399999999997322e-03, 1.957935004101406e-05, -6.762552123506731e-06, -3.002198343440844e+03, -1.446242317821682e+04, -2.559517046062184e+02, 1.147165194573037e+04
27, 2.500000000000000e-04, 1.499999999997028e-03, 2.231876200759464e-05, -7.211332994234065e-06, -2.934862254973191e+03, -1.413548995951029e+04, -2.681160118455620e+02, 1.121345645904401e+04
28, 2.500000000000000e-04, 1.599999999996764e-03, 2.522073311670407e-05, -7.655424951518466e-06, -2.868321455445016e+03, -1.381228703061990e+04, -2.791065968185454e+02, 1.095819257360279e+04
29, 2.500000000000000e-04, 1.699999999996466e-03, 2.828159585240710e-05, -8.095085421403728e-06, -2.802570320559728e+03, -1.349281986529503e+04, -2.889707973423344e+02, 1.070586062937399e+04
30, 2.500000000000000e-04, 1.799999999996210e-03, 3.149772355815979e-05, -8.530555607912588e-06, -2.737602531767589e+03, -1.317709180251168e+04, -2.977549556576605e+02, 1.045646060043531e+04
31, 2.500000000000000e-04, 1.899999999995898e-03, 3.486553046163426e-05, -8.962061146119240e-06, -2.673415424265494e+03, -1.286510840499767e+04, -3.055041387313636e+02, 1.020999201413173e+04
32, 2.500000000000000e-04, 1.999999999995521e-03, 3.838147187197607e-05, -9.389812766130859e-06, -2.610001530157440e+03, -1.255687008782816e+04, -3.122627172316056e+02, 9.966455042886104e+03
33, 2.500000000000000e-04, 2.099999999995151e-03, 4.204204409475863e-05, -9.814006883583269e-06, -2.547358103376039e+03, -1.225238025624781e+04, -3.180737783923465e+02, 9.725848996449356e+03
34, 2.500000000000000e-04, 2.199999999994897e-03, 4.584378458837599e-05, -1.023482624802936e-05, -2.485480372158777e+03, -1.195164004146829e+04, -3.229794555838542e+02, 9.488173786339441e+03
35, 2.500000000000000e-04, 2.299999999994653e-03, 4.978327198076574e-05, -1.065244052539378e-05, -2.424362951837425e+03, -1.165464912237429e+04, -3.270210534204996e+02, 9.253429303102994e+03
36, 2.500000000000000e-04, 2.399999999994409e-03, 5.385712602314161e-05, -1.106700688512738e-05, -2.364005607481443e+03, -1.136141088837514e+04, -3.302386909312021e+02, 9.021614720248563e+03
37, 2.500000000000000e-04, 2.499999999994080e-03, 5.806200778676195e-05, -1.147867058530581e-05, -2.304405965246301e+03, -1.107192675315750e+04, -3.326711385657504e+02, 8.792730014744764e+03
38, 2.500000000000000e-04, 2.599999999993751e-03, 6.239461972338279e-05, -1.188756555089081e-05, -2.245558427043888e+03, -1.078619461194828e+04, -3.343568132869179e+02, 8.566775610301918e+03
39, 2.500000000000000e-04, 2.699999999993507e-03, 6.685170554489959e-05, -1.229381488059537e-05, -2.187462365127505e+03, -1.050421582738668e+04, -3.353329757008232e+02, 8.343751013205600e+03
40, 2.500000000000000e-04, 2.799999999993264e-03, 7.143005035318759e-05, -1.269753140852457e-05, -2.130117070766268e+03, -1.022599135901192e+04, -3.356357537518528e+02, 8.123655945931205e+03
41, 2.500000000000000e-04, 2.899999999993009e-03, 7.612648073907575e-05, -1.309881820921472e-05, -2.073518898476403e+03, -9.951519322287433e+03, -3.353003899379319e+02, 7.906490756557988e+03
42, 2.500000000000000e-04, 2.999999999992623e-03, 8.093786468458527e-05, -1.349776911552821e-05, -2.017671168731914e+03, -9.680803338697679e+03, -3.343610553052107e+02, 7.692254800484930e+03
43, 2.500000000000000e-04, 3.099999999992220e-03, 8.586111184155876e-05, -1.389446921823304e-05, -1.962568370398170e+03, -9.413839382979015e+03, -3.328510538675828e+02, 7.480949070751022e+03
44, 2.500000000000000e-04, 3.199999999991949e-03, 9.089317332909882e-05, -1.428899533732878e-05, -1.908210607907514e+03, -9.150627549847004e+03, -3.308031627728802e+02, 7.272573553488085e+03
45, 2.500000000000000e-04, 3.299999999991705e-03, 9.603104182745598e-05, -1.468141648520251e-05, -1.854597975508101e+03, -8.891167594215462e+03, -3.282489665490085e+02, 7.067128238193885e+03
46, 2.500000000000000e-04, 3.399999999991461e-03, 1.012717516458302e-04, -1.507179432514753e-05, -1.801731012043499e+03, -8.635459674876784e+03, -3.252188898095572e+02, 6.864613371660857e+03
47, 2.500000000000000e-04, 3.499999999991149e-03, 1.066123788119096e-04, -1.546018363333604e-05, -1.749605843899642e+03, -8.383499808407851e+03, -3.217430162181147e+02, 6.665029887875893e+03
48, 2.500000000000000e-04, 3.599999999990803e-03, 1.120500409103669e-04, -1.584663268987848e-05, -1.698224386273715e+03, -8.135288531484242e+03, -3.178505180073476e+02, 6.468377742273953e+03
49, 2.500000000000000e-04, 3.699999999990560e-03, 1.175818971889449e-04, -1.623118372963724e-05, -1.647592420979804e+03, -7.890829496115485e+03, -3.135692028055115e+02, 6.274656305817959e+03
50, 2.500000000000000e-04, 3.799999999990315e-03, 1.232051488686833e-04, -1.661387333839908e-05, -1.597704513235221e+03, -7.650116779294142e+03, -3.089260462426855e+02, 6.083866816961811e+03
51, 2.500000000000000e-04, 3.899999999990071e-03, 1.289170388718470e-04, -1.699473284067773e-05, -1.548561125030084e+03, -7.413149135392287e+03, -3.039477515743322e+02, 5.896009622959622e+03
52, 2.500000000000000e-04, 3.999999999989709e-03, 1.347148518804639e-04, -1.737378868225517e-05, -1.500163498070885e+03, -7.179925800043282e+03, -2.986599626008494e+02, 5.711084914440491e+03
53, 2.500000000000000e-04, 4.099999999989249e-03, 1.405959144127208e-04, -1.775106280076713e-05, -1.452511587676598e+03, -6.950444801151927e+03, -2.930875202973490e+02, 5.529093126187274e+03
54, 2.500000000000000e-04, 4.199999999988788e-03, 1.465575947989568e-04, -1.812657298301772e-05, -1.405606489336680e+03, -6.724705276716782e+03, -2.872545196527175e+02, 5.350034817284100e+03
55, 2.500000000000000e-04, 4.299999999988333e-03, 1.525973032184868e-04, -1.850033323325163e-05, -1.359450637823307e+03, -6.502707711978912e+03, -2.811841493075901e+02, 5.173910651928481e+03
56, 2.500000000000000e-04, 4.399999999988144e-03, 1.587124918209125e-04, -1.887235411845787e-05, -1.314040993260992e+03, -6.284447744507219e+03, -2.748992658575035e+02, 5.000722117685609e+03
57, 2.500000000000000e-04, 4.499999999988117e-03, 1.649006545340526e-04, -1.924264306557619e-05, -1.269383112257648e+03, -6.069928042967504e+03, -2.684216500387399e+02, 4.830469165681752e+03
58, 2.500000000000000e-04, 4.599999999988090e-03, 1.711593273416963e-04, -1.961120470831109e-05, -1.225477545928183e+03, -5.859146876642213e+03, -2.617720370902714e+02, 4.663152352648300e+03
59, 2.500000000000000e-04, 4.699999999988035e-03, 1.774860882919052e-04, -1.997804115346305e-05, -1.182321525354096e+03, -5.652100277883890e+03, -2.549706290801551e+02, 4.498773408757204e+03
60, 2.500000000000000e-04, 4.799999999987717e-03, 1.838785572750377e-04, -2.034315233686336e-05, -1.139921649785639e+03, -5.448791925788086e+03, -2.480375367750119e+02, 4.337332536711368e+03
61, 2.500000000000000e-04, 4.899999999987257e-03, 1.903343963408838e-04, -2.070653626119655e-05, -1.098275124168584e+03, -5.249217277529939e+03, -2.409914825245928e+02, 4.178830977576122e+03
62, 2.500000000000000e-04, 4.999999999986965e-03, 1.968513095563149e-04, -2.106818927857501e-05, -1.057383942748158e+03, -5.053376054028369e+03, -2.338506407385411e+02, 4.023269496579739e+03
63, 2.500000000000000e-04, 5.099999999987202e-03, 2.034270430837728e-04, -2.142810636746366e-05, -1.017249325452543e+03, -4.861267251051582e+03, -2.266325992477785e+02, 3.870648931703049e+03
64, 2.500000000000000e-04, 5.199999999987608e-03, 2.100593851843355e-04, -2.178628137327902e-05, -9.778733141616633e+02, -4.672890456167393e+03, -2.193541571923931e+02, 3.720969855404171e+03
65, 2.500000000000000e-04, 5.299999999988015e-03, 2.167461662932445e-04, -2.214270726289878e-05, -9.392552470710395e+02, -4.488243074049223e+03, -2.120316035146515e+02, 3.574233372290525e+03
66, 2.500000000000000e-04, 5.399999999988211e-03, 2.234852589498547e-04, -2.249737635288834e-05, -9.013965310025003e+02, -4.307324242277553e+03, -2.046807177572545e+02, 3.430440257360245e+03
67, 2.500000000000000e-04, 5.499999999988184e-03, 2.302745778299305e-04, -2.285028054314236e-05, -8.642996751405485e+02, -4.130134084973341e+03, -1.973164834781244e+02, 3.289591094810507e+03
68, 2.500000000000000e-04, 5.599999999988157e-03, 2.371120798446405e-04, -2.320141153591253e-05, -8.279651183998067e+02, -3.956671098987581e+03, -1.899530952030161e+02, 3.151686822397576e+03
69, 2.500000000000000e-04, 5.699999999988293e-03, 2.439957641394880e-04, -2.355076104755289e-05, -7.923935336316188e+02, -3.786933801606276e+03, -1.826043089290622e+02, 3.016728153327636e+03
70, 2.500000000000000e-04, 5.799999999988694e-03, 2.509236720902596e-04, -2.389832099249354e-05, -7.575862978726244e+02, -3.620921112823923e+03, -1.752833751337000e+02, 2.884715464115175e+03
71, 2.500000000000000e-04, 5.899999999989099e-03, 2.578938872965842e-04, -2.424408367574151e-05, -7.235442026053399e+02, -3.458631808890997e+03, -1.680031339438109e+02, 2.755649547042797e+03
72, 2.500000000000000e-04, 5.999999999989505e-03, 2.649045355683810e-04, -2.458804199557385e-05, -6.902692162831175e+02, -3.300066245148280e+03, -1.607757534610159e+02, 2.629531498856262e+03
73, 2.500000000000000e-04, 6.099999999989911e-03, 2.719537850307906e-04, -2.493018964195750e-05, -6.577610912640358e+02, -3.145223118170154e+03, -1.536127651334821e+02, 2.506362875113600e+03
74, 2.500000000000000e-04, 6.199999999990317e-03, 2.790398461211579e-04, -2.527052125215583e-05, -6.260233043565374e+02, -2.994103968546084e+03, -1.465247477425422e+02, 2.386144178148602e+03
75, 2.500000000000000e-04, 6.299999999990723e-03, 2.861609717548335e-04, -2.560903256791456e-05, -5.950503150513928e+02, -2.846702697523421e+03, -1.395224904707316e+02, 2.268877377224380e+03
76, 2.500000000000000e-04, 6.399999999990975e-03, 2.933154569366531e-04, -2.594572056348180e-05, -5.648511944119723e+02, -2.703024633217727e+03, -1.326162387485363e+02, 2.154561190018436e+03
77, 2.500000000000000e-04, 6.499999999990961e-03, 3.005016392382548e-04, -2.628058358031523e-05, -5.354239870591357e+02, -2.563065162086472e+03, -1.258147273152152e+02, 2.043195075636158e+03
78, 2.500000000000000e-04, 6.599999999990934e-03, 3.077178987072984e-04, -2.661362141464982e-05, -5.067628958400642e+02, -2.426817531188245e+03, -1.191266696337064e+02, 1.934780208807737e+03
79, 2.500000000000000e-04, 6.699999999991035e-03, 3.149626574720785e-04, -2.694483553484210e-05, -4.788780841984661e+02, -2.294287752020869e+03, -1.125613975112030e+02, 1.829314771946520e+03
80, 2.500000000000000e-04, 6.799999999991401e-03, 3.222343801904883e-04, -2.727422911813525e-05, -4.517647385748472e+02, -2.165469229187474e+03, -1.061265446440571e+02, 1.726798904058672e+03
81, 2.500000000000000e-04, 6.899999999991809e-03, 3.295315738262377e-04, -2.760180721725087e-05, -4.254259204721673e+02, -2.040362764500257e+03, -9.982919132007608e+01, 1.627232153061722e+03
82, 2.500000000000000e-04, 6.999999999992214e-03, 3.368527878901443e-04, -2.792757688203152e-05, -3.998525036853346e+02, -1.918959918054720e+03, -9.367657564587017e+01, 1.530617045407173e+03
83, 2.500000000000000e-04, 7.099999999992620e-03, 3.441966138810624e-04, -2.825154728384384e-05, -3.750527216683137e+02, -1.801266617866763e+03, -8.767655779582294e+01, 1.436953302253507e+03
84, 2.500000000000000e-04, 7.199999999993026e-03, 3.515616856605689e-04, -2.857372980738017e-05, -3.510363900876652e+02, -1.687288443998848e+03, -8.183465820673584e+01, 1.346238164931120e+03
85, 2.500000000000000e-04, 7.299999999993359e-03, 3.589466800182862e-04, -2.889413806491236e-05, -3.277826495982605e+02, -1.577006746956536e+03, -7.615604451044680e+01, 1.258475195576975e+03
86, 2.500000000000000e-04, 7.399999999993427e-03, 3.663503155657231e-04, -2.921278807285931e-05, -3.053079435749365e+02, -1.470433266547517e+03, -7.064727959832665e+01, 1.173661437847618e+03
87, 2.500000000000000e-04, 7.499999999993399e-03, 3.737713535653358e-04, -2.952969824568012e-05, -2.836068974549344e+02, -1.367558921717418e+03, -6.531312560218299e+01, 1.091794490005533e+03
88, 2.500000000000000e-04, 7.599999999993372e-03, 3.812085976418770e-04, -2.984488936016737e-05, -2.626826410208329e+02, -1.268380489708108e+03, -6.015673012869505e+01, 1.012868940965868e+03
89, 2.500000000000000e-04, 7.699999999993440e-03, 3.886608940810723e-04, -3.015838463502533e-05, -2.425225636871644e+02, -1.172882942057493e+03, -5.518121364147200e+01, 9.368832899551388e+02
90, 2.500000000000000e-04, 7.799999999993771e-03, 3.961271310786126e-04, -3.047020982644594e-05, -2.231233195686664e+02, -1.081062251312225e+03, -5.039171286461703e+01, 8.638382426722023e+02
91, 2.500000000000000e-04, 7.899999999994177e-03, 4.036062384578428e-04, -3.078039345711023e-05, -2.045026842086528e+02, -9.929303851819579e+02, -4.579374707841806e+01, 7.937294934346208e+02
92, 2.500000000000000e-04, 7.999999999994584e-03, 4.110971885943303e-04, -3.108896667451134e-05, -1.866499078443086e+02, -9.084746798902244e+02, -4.138973288923072e+01, 7.265558763740789e+02
93, 2.500000000000000e-04, 8.099999999994990e-03, 4.185989958825880e-04, -3.139596338000420e-05, -1.695631380940553e+02, -8.276918560846493e+02, -3.718251247227840e+01, 6.623168172249195e+02
94, 2.500000000000000e-04, 8.199999999995398e-03, 4.261107168127560e-04, -3.170142031953537e-05, -1.532442416351560e+02, -7.505806184073874e+02, -3.317486404456131e+01, 6.010100110920598e+02
95, 2.500000000000000e-04, 8.299999999995804e-03, 4.336314499783341e-04, -3.200537701731564e-05, -1.376939440917230e+02, -6.771363178370079e+02, -2.936889367437283e+01, 5.426308157988949e+02
96, 2.500000000000000e-04, 8.399999999996209e-03, 4.411603361108444e-04, -3.230787574964344e-05, -1.229095537507013e+02, -6.073493467078679e+02, -2.576559827119044e+01, 4.871728412149756e+02
97, 2.500000000000000e-04, 8.499999999996616e-03, 4.486965581096988e-04, -3.260896148165732e-05, -1.088778594711052e+02, -5.412011605242716e+02, -2.236550613986828e+01, 4.346312230996259e+02
98, 2.500000000000000e-04, 8.599999999997021e-03, 4.562393403764000e-04, -3.290868191825690e-05, -9.559708055393378e+01, -4.786846528967124e+02, -1.917033130586893e+01, 3.850014214168446e+02
99, 2.500000000000000e-04, 8.699999999997429e-03, 4.637879486608638e-04, -3.320708762039234e-05, -8.307422177463641e+01, -4.197986231220736e+02, -1.618239833700231e+01, 3.382762222305015e+02
100, 2.500000000000000e-04, 8.799999999997834e-03, 4.713416903531769e-04, -3.350423187880045e-05, -7.130478547151498e+01, -3.645321552537230e+02, -1.340167754952821e+01, 2.944498433247297e+02
101, 2.500000000000000e-04, 8.899999999997930e-03, 4.788999143371581e-04, -3.380017083304239e-05, -6.027692040185879e+01, -3.128730424965657e+02, -1.082831725180204e+01, 2.535228011743851e+02
102, 2.500000000000000e-04, 8.999999999997496e-03, 4.864620105259830e-04, -3.409496367698984e-05, -4.998443651537987e+01, -2.648157248160206e+02, -8.464471419756791e+00, 2.154972657334114e+02
103, 2.500000000000000e-04, 9.099999999997034e-03, 4.940274097299982e-04, -3.438867262346089e-05, -4.043174870664388e+01, -2.203601538516373e+02, -6.310742728949001e+00, 1.803705432524525e+02
104, 2.500000000000000e-04, 9.199999999996832e-03, 5.015955842172609e-04, -3.468136275875033e-05, -3.160525189641907e+01, -1.794825336681307e+02, -4.364857767329024e+00, 1.481347305580506e+02
105, 2.500000000000000e-04, 9.299999999997156e-03, 5.091660476368826e-04, -3.497310157596528e-05, -2.346792763142163e+01, -1.421301123570704e+02, -2.621765076287090e+00, 1.187779806711873e+02
106, 2.500000000000000e-04, 9.399999999997563e-03, 5.167383536967134e-04, -3.526395862863339e-05, -1.600490372184352e+01, -1.082620573371456e+02, -1.075633184525829e+00, 9.228223198529641e+01
107, 2.500000000000000e-04, 9.499999999997968e-03, 5.243120953640005e-04, -3.555400529682687e-05, -9.165118037694310e+00, -7.780250775573873e+01, 2.742956510537664e-01, 6.863958201885744e+01
108, 2.500000000000000e-04, 9.599999999998375e-03, 5.318869019153355e-04, -3.584331447133545e-05, -2.973534691935285e+00, -5.074845125786214e+01, 1.423078619648594e+00, 4.785962039038834e+01
109, 2.500000000000000e-04, 9.699999999998783e-03, 5.394624371536686e-04, -3.613196137411700e-05, 2.493543247474513e+00, -2.736980473302065e+01, 2.353519505044154e+00, 3.023203216534802e+01
110, 2.500000000000000e-04, 9.799999999999188e-03, 5.470383908744504e-04, -3.642003809737869e-05, 6.755803005611773e+00, -8.674066836422730e+00, 2.883932176525980e+00, 1.647267866915801e+01
111, 2.500000000000000e-04, 9.899999999999593e-03, 5.546144826528072e-04, -3.670766991953436e-05, 9.375313943195387e+00, 3.621824859446953e+00, 2.756844771893496e+00, 7.968902623453143e+00
112, 2.000000000000817e-04, 1.000000000000000e-02, 5.623341018588544e-04, -3.320721611734550e-05, 1.264948939622666e+01, 9.596306158033020e+00, 3.609742784738605e+00, 7.838552147806139e+00
113, 1.500000000001972e-04, 1.000000000000000e-02, 5.624777215397834e-04, -2.941948999248697e-05, 1.151151409296795e+01, 1.071973903367182e+01, 5.498834463201884e+00, 1.102613393530617e+01
114, 1.000000000003456e-04, 1.000000000000000e-02, 5.626214019746396e-04, -2.563186417921288e-05, 7.410153787753234e+00, 1.111033983175301e+01, 7.137994277486740e+00, 1.474771934849401e+01
115, 5.000000000047588e-05, 1.000000000000000e-02, 5.627651771453420e-04, -2.184429955577137e-05, 1.569367374105180e+00, 1.118062670997339e+01, 8.238623040480888e+00, 1.907553261206313e+01
116, 6.410887445906788e-16, 1.000000000000000e-02, 5.629090659985898e-04, -1.805674028626010e-05, -4.504118475859515e+00, 1.169897626599506e+01, 8.586027916788051e+00, 2.360973910836311e+01
117, -4.999999999945738e-05, 1.000000000000000e-02, 5.630530722116730e-04, -1.426912077401262e-05, -8.945023676782487e+00, 1.383373267996940e+01, 8.050414722339207e+00, 2.789459535406255e+01
118, -9.999999999958566e-05, 1.000000000000000e-02, 5.631971825018100e-04, -1.048138019079124e-05, -9.501263878815310e+00, 1.900560894689721e+01, 6.713830026160530e+00, 3.151101161153107e+01
119, -1.499999999997626e-04, 1.000000000000000e-02, 5.633413610268078e-04, -6.693488642055206e-06, -3.364951066087110e+00, 2.857076536525997e+01, 5.090246614254907e+00, 3.351913522689907e+01
120, -1.999999999998909e-04, 1.000000000000000e-02, 5.634855326267047e-04, -2.905493978492389e-06, 1.508057672329109e+01, 4.448779816606778e+01, 4.250857224330531e+00, 3.061149819187354e+01
121, -2.500000000000000e-04, 9.899999999999590e-03, 5.560534979772514e-04, 1.169032883475564e-06, -1.366300137315943e+01, 2.356821976524644e+01, -1.737734801665374e+00, 3.739308380463633e+01
122, -2.500000000000000e-04, 9.799999999999181e-03, 5.484772722382777e-04, 1.454871415100819e-06, 3.005542653517590e+00, 5.591772445505444e+01, 1.054941294213628e+00, 5.295423106358769e+01
123, -2.500000000000000e-04, 9.699999999999055e-03, 5.409012040513962e-04, 1.740139207912380e-06, 9.534253523491746e+00, 7.780478474754491e+01, 3.698517283942175e+00, 6.867009213633614e+01
124, -2.500000000000000e-04, 9.599999999999458e-03, 5.333255209566985e-04, 2.024746434069449e-06, 1.440706164732894e+01, 1.012052580068764e+02, 6.279585295168304e+00, 8.770210748430014e+01
125, -2.500000000000000e-04, 9.499999999999916e-03, 5.257504733052958e-04, 2.308550622356173e-06, 1.985247663971589e+01, 1.284892085117261e+02, 8.972010373640781e+00, 1.101087071598332e+02
126, -2.500000000000000e-04, 9.400000000000373e-03, 5.181763601786292e-04, 2.591415271989627e-06, 2.605214678841823e+01, 1.595921119114464e+02, 1.179161211176494e+01, 1.356063816707637e+02
127, -2.500000000000000e-04, 9.300000000000832e-03, 5.106035240293757e-04, 2.873205270966258e-06, 3.326470058112600e+01, 1.945726350676919e+02, 1.476115726971325e+01, 1.639872457970042e+02
128, -2.500000000000000e-04, 9.200000000001289e-03, 5.030323604000847e-04, 3.153786870346708e-06, 4.111253802551690e+01, 2.330102984845785e+02, 1.789533983100691e+01, 1.952068728807269e+02
129, -2.500000000000000e-04, 9.100000000001746e-03, 4.954632971023662e-04, 3.433025955442549e-06, 4.982977670075527e+01, 2.750533002322732e+02, 2.120978682843114e+01, 2.291834544228317e+02
130, -2.500000000000000e-04, 9.000000000002204e-03, 4.878968074819682e-04, 3.710785573282441e-06, 5.934823323540499e+01, 3.206448177742075e+02, 2.469792787925076e+01, 2.659245300038306e+02
131, -2.500000000000000e-04, 8.900000000002661e-03, 4.803334066862293e-04, 3.986925252607860e-06, 6.963289832281224e+01, 3.697674498065934e+02, 2.836708829363637e+01, 3.054496943645653e+02
132, -2.500000000000000e-04, 8.800000000003118e-03, 4.727736502448527e-04, 4.261300984043080e-06, 8.068520148237648e+01, 4.224314008771693e+02, 3.222475234468440e+01, 3.477703314768102e+02
133, -2.500000000000000e-04, 8.700000000003576e-03, 4.652181349664649e-04, 4.533765451821943e-06, 9.247443126002982e+01, 4.786183531481875e+02, 3.627492327619743e+01, 3.929002527944511e+02
134, -2.500000000000000e-04, 8.600000000004033e-03, 4.576674979007594e-04, 4.804168069313261e-06, 1.050025364014114e+02, 5.383396825010427e+02, 4.052106649825427e+01, 4.408502121020210e+02
135, -2.500000000000000e-04, 8.500000000004490e-03, 4.501224167120498e-04, 5.072354832803010e-06, 1.182801102880548e+02, 6.016132140647932e+02, 4.496581182139101e+01, 4.916285041954773e+02
136, -2.500000000000000e-04, 8.400000000004949e-03, 4.425836102025902e-04, 5.338168500421329e-06, 1.323362392544416e+02, 6.684764903365385e+02, 4.960508743232128e+01, 5.452421733753240e+02
137, -2.500000000000000e-04, 8.300000000005149e-03, 4.350518397311486e-04, 5.601448124296326e-06, 1.471396067777953e+02, 7.389142908722612e+02, 5.444147068752491e+01, 6.017082113928540e+02
138, -2.500000000000000e-04, 8.200000000005172e-03, 4.275279073950151e-04, 5.862029715209167e-06, 1.627432679850255e+02, 8.129840997621093e+02, 5.946920167629034e+01, 6.610291091186640e+02
139, -2.500000000000000e-04, 8.100000000005195e-03, 4.200126589650974e-04, 6.119745449286165e-06, 1.791008844964774e+02, 8.906612667676200e+02, 6.468921782011576e+01, 7.232267674986650e+02
140, -2.500000000000000e-04, 8.000000000005220e-03, 4.125069813640591e-04, 6.374424440581082e-06, 1.962142775298713e+02, 9.719499473029529e+02, 7.010495569308534e+01, 7.883049210865104e+02
141, -2.500000000000000e-04, 7.900000000005243e-03, 4.050118028135055e-04, 6.625892899020154e-06, 2.141595542778792e+02, 1.056924389399837e+03, 7.570574498180976e+01, 8.562581425079379e+02
142, -2.500000000000000e-04, 7.800000000005240e-03, 3.975280970965754e-04, 6.873973339708669e-06, 2.328272545704291e+02, 1.145500368272045e+03, 8.149298470784150e+01, 9.271119882194234e+02
143, -2.500000000000000e-04, 7.700000000005121e-03, 3.900568778292534e-04, 7.118485829408576e-06, 2.522668583603416e+02, 1.237723088250528e+03, 8.746475907075934e+01, 1.000861787334597e+03
144, -2.500000000000000e-04, 7.600000000005145e-03, 3.825992014768793e-04, 7.359247126847618e-06, 2.724722800198921e+02, 1.333591625634154e+03, 9.361935112790366e+01, 1.077512226037031e+03
145, -2.500000000000000e-04, 7.500000000005337e-03, 3.751561672007274e-04, 7.596071485392105e-06, 2.933970211492928e+02, 1.433065231631295e+03, 9.995566315609378e+01, 1.157068782904088e+03
146, -2.500000000000000e-04, 7.400000000005796e-03, 3.677289143674053e-04, 7.828770624540042e-06, 3.151326628223800e+02, 1.536229301025196e+03, 1.064646752323702e+02, 1.239522451639967e+03
147, -2.500000000000000e-04, 7.300000000006254e-03, 3.603186273499166e-04, 8.057152935464207e-06, 3.376341810000275e+02, 1.643058770094781e+03, 1.131402628789754e+02, 1.324891027273753e+03
148, -2.500000000000000e-04, 7.200000000006711e-03, 3.529265328719479e-04, 8.281024125756966e-06, 3.608934582749371e+02, 1.753549440080547e+03, 1.199815752009999e+02, 1.413178331708281e+03
149, -2.500000000000000e-04, 7.100000000007169e-03, 3.455538997632980e-04, 8.500187476543994e-06, 3.849393110118640e+02, 1.867728087453453e+03, 1.269813508306728e+02, 1.504380141246313e+03
150, -2.500000000000000e-04, 7.000000000007627e-03, 3.382020407491771e-04, 8.714443690623099e-06, 4.097362288151951e+02, 1.985570452369565e+03, 1.341334615211847e+02, 1.598505752921717e+03
151, -2.500000000000000e-04, 6.900000000008085e-03, 3.308723106286529e-04, 8.923591092345286e-06, 4.353005337884204e+02, 2.107092667738460e+03, 1.414332262796048e+02, 1.695553705761235e+03
152, -2.500000000000000e-04, 6.800000000008542e-03, 3.235661073520086e-04, 9.127425767099199e-06, 4.616145362404841e+02, 2.232280788121368e+03, 1.488748538480282e+02, 1.795526068867558e+03
153, -2.500000000000000e-04, 6.700000000009001e-03, 3.162848711379959e-04, 9.325741778279158e-06, 4.887021615339819e+02, 2.361159447536354e+03, 1.564493176231698e+02, 1.898420881638840e+03
154, -2.500000000000000e-04, 6.600000000009459e-03, 3.090300858197113e-04, 9.518330860880396e-06, 5.165524041325020e+02, 2.493723480813475e+03, 1.641489644718364e+02, 2.004241751040154e+03
155, -2.500000000000000e-04, 6.500000000009916e-03, 3.018032784693876e-04, 9.704982935540284e-06, 5.451302049829595e+02, 2.629944720264143e+03, 1.719677548246383e+02, 2.112993894436239e+03
156, -2.500000000000000e-04, 6.400000000010177e-03, 2.946060176981076e-04, 9.885486175722938e-06, 5.744719080942341e+02, 2.769855841891709e+03, 1.798985547877585e+02, 2.224671790812067e+03
157, -2.500000000000000e-04, 6.300000000010201e-03, 2.874399156276578e-04, 1.005962700442780e-05, 6.045770867577419e+02, 2.913460400959019e+03, 1.879303781205013e+02, 2.339276269849102e+03
158, -2.500000000000000e-04, 6.200000000010225e-03, 2.803066278328524e-04, 1.022719022124825e-05, 6.354382209928443e+02, 3.060755449645488e+03, 1.960530512535208e+02, 2.456809079929208e+03
159, -2.500000000000000e-04, 6.100000000010248e-03, 2.732078531130732e-04, 1.038795919820559e-05, 6.670368796836210e+02, 3.211727437313381e+03, 2.042582938985244e+02, 2.577272945691900e+03
160, -2.500000000000000e-04, 6.000000000010509e-03, 2.661453326516258e-04, 1.054171612486223e-05, 6.993906897889988e+02, 3.366392966189916e+03, 2.125360319472876e+02, 2.700664251963073e+03
161, -2.500000000000000e-04, 5.900000000010967e-03, 2.591208510395845e-04, 1.068824202837559e-05, 7.325040505490565e+02, 3.524758808282046e+03, 2.208734985456877e+02, 2.826981966960838e+03
162, -2.500000000000000e-04, 5.800000000011424e-03, 2.521362366198773e-04, 1.082731694841616e-05, 7.663596726590441e+02, 3.686813591874337e+03, 2.292582495874342e+02, 2.956228758786360e+03
163, -2.500000000000000e-04, 5.700000000011876e-03, 2.451933608191071e-04, 1.095872013567362e-05, 8.009434602299336e+02, 3.852547825413272e+03, 2.376799620396887e+02, 3.088406750903572e+03
164, -2.500000000000000e-04, 5.600000000012062e-03, 2.382941376364903e-04, 1.108223028957490e-05, 8.362590034853232e+02, 4.021965853068587e+03, 2.461280213537781e+02, 3.223514253584715e+03
165, -2.500000000000000e-04, 5.500000000012085e-03, 2.314405239156147e-04, 1.119762573993209e-05, 8.723225636810738e+02, 4.195082914665528e+03, 2.545885351338682e+02, 3.361546911610898e+03
166, -2.500000000000000e-04, 5.400000000012110e-03, 2.246345202557521e-04, 1.130468457469344e-05, 9.091258464512141e+02, 4.371894690114881e+03, 2.630461957646903e+02, 3.502504999150311e+03
167, -2.500000000000000e-04, 5.300000000012160e-03, 2.178781706838383e-04, 1.140318485220024e-05, 9.466591926412334e+02, 4.552395671335627e+03, 2.714866673033872e+02, 3.646389391697141e+03
168, -2.500000000000000e-04, 5.200000000012475e-03, 2.111735623413727e-04, 1.149290482700863e-05, 9.849204565785133e+02, 4.736586544712416e+03, 2.798955046727011e+02, 3.793199758910396e+03
169, -2.500000000000000e-04, 5.100000000012934e-03, 2.045228255484702e-04, 1.157362316116637e-05, 1.023910436074182e+03, 4.924470434265802e+03, 2.882572167197336e+02, 3.942935098560036e+03
170, -2.500000000000000e-04, 5.000000000013221e-03, 1.979281339966430e-04, 1.164511915079262e-05, 1.063626603937400e+03, 5.116047944867832e+03, 2.965552512611310e+02, 4.095595047441900e+03
171, -2.500000000000000e-04, 4.900000000012981e-03, 1.913917047716925e-04, 1.170717294704565e-05, 1.104060509166457e+03, 5.311314357901007e+03, 3.047735609884385e+02, 4.251180146924142e+03
172, -2.500000000000000e-04, 4.800000000012570e-03, 1.849157980211870e-04, 1.175956585642388e-05, 1.145219209960460e+03, 5.510277364631604e+03, 3.128948495772577e+02, 4.409687680689978e+03
173, -2.500000000000000e-04, 4.700000000012160e-03, 1.785027174614008e-04, 1.180208056097165e-05, 1.187105185987566e+03, 5.712941452055133e+03, 3.208993102333868e+02, 4.571115769315569e+03
174, -2.500000000000000e-04, 4.600000000011960e-03, 1.721548107192853e-04, 1.183450135995581e-05, 1.229696610287514e+03, 5.919291273258103e+03, 3.287680563228547e+02, 4.735467436525719e+03
175, -2.500000000000000e-04, 4.500000000011985e-03, 1.658744683734666e-04, 1.185661448396913e-05, 1.272995626818386e+03, 6.129330982071000e+03, 3.364831061294167e+02, 4.902741743710200e+03
176, -2.500000000000000e-04, 4.400000000012010e-03, 1.596641242130795e-04, 1.186820836625865e-05, 1.317011519193351e+03, 6.343070219713461e+03, 3.440241191158900e+02, 5.072935682541990e+03
177, -2.500000000000000e-04, 4.300000000011870e-03, 1.535262558495557e-04, 1.186907394767720e-05, 1.361736789177296e+03, 6.560504610629242e+03, 3.513692715079536e+02, 5.246048829471980e+03
178, -2.500000000000000e-04, 4.200000000011467e-03, 1.474633844547876e-04, 1.185900498552765e-05, 1.407166192564790e+03, 6.781631609449356e+03, 3.584969278038998e+02, 5.422080662095274e+03
179, -2.500000000000000e-04, 4.100000000011056e-03, 1.414780746605828e-04, 1.183779837561550e-05, 1.453299996207464e+03, 7.006453438985637e+03, 3.653843440055642e+02, 5.601029908366549e+03
180, -2.500000000000000e-04, 4.000000000010646e-03, 1.355729347721944e-04, 1.180525445280492e-05, 1.500131391049214e+03, 7.234966816859167e+03, 3.720082071635341e+02, 5.782897006337993e+03
181, -2.500000000000000e-04, 3.900000000010236e-03, 1.297506165617695e-04, 1.176117733154851e-05, 1.547657859025370e+03, 7.467171960990489e+03, 3.783451892959534e+02, 5.967681922858947e+03
182, -2.500000000000000e-04, 3.800000000009824e-03, 1.240138152529676e-04, 1.170537525176191e-05, 1.595884437922134e+03, 7.703074802679324e+03, 3.843706256601720e+02, 6.155382787679791e+03
183, -2.500000000000000e-04, 3.700000000009415e-03, 1.183652699244552e-04, 1.163766095599066e-05, 1.644805310267271e+03, 7.942672203862438e+03, 3.900584241698800e+02, 6.345999504136885e+03
184, -2.500000000000000e-04, 3.600000000009160e-03, 1.128077633470019e-04, 1.155785204979994e-05, 1.694417193594075e+03, 8.185963211369649e+03, 3.953822154621469e+02, 6.539531947021356e+03
185, -2.500000000000000e-04, 3.500000000009170e-03, 1.073441219745724e-04, 1.146577138568696e-05, 1.744717728533515e+03, 8.432947740521391e+03, 4.003148850986564e+02, 6.735980160465258e+03
186, -2.500000000000000e-04, 3.400000000009196e-03, 1.019772159471304e-04, 1.136124744272031e-05, 1.795707661099816e+03, 8.683627794673135e+03, 4.048286345774026e+02, 6.935343442107242e+03
187, -2.500000000000000e-04, 3.300000000009092e-03, 9.670995922715043e-05, 1.124411476323441e-05, 1.847386099435737e+03, 8.938003215580742e+03, 4.088943903188464e+02, 7.137620722447040e+03
188, -2.500000000000000e-04, 3.200000000008720e-03, 9.154530967584704e-05, 1.111421438587630e-05, 1.899748974389708e+03, 9.196071294015930e+03, 4.124820910268305e+02, 7.342811811121624e+03
189, -2.500000000000000e-04, 3.100000000008311e-03, 8.648626896949099e-05, 1.097139425314239e-05, 1.952794482153889e+03, 9.457831340800454e+03, 4.155612282622346e+02, 7.550916685236485e+03
190, -2.500000000000000e-04, 3.000000000007901e-03, 8.153588260896523e-05, 1.081550965518699e-05, 2.006522812839078e+03, 9.723283834611932e+03, 4.181003922302837e+02, 7.761934837338257e+03
191, -2.500000000000000e-04, 2.900000000007490e-03, 7.669724002658102e-05, 1.064642370093801e-05, 2.060933039930526e+03, 9.992427898728407e+03, 4.200669187780476e+02, 7.975865818840230e+03
192, -2.500000000000000e-04, 2.800000000007079e-03, 7.197347463982024e-05, 1.046400778717302e-05, 2.116021601588031e+03, 1.026526061228585e+04, 4.214274007869923e+02, 8.192710215186145e+03
193, -2.500000000000000e-04, 2.700000000006744e-03, 6.736776373164586e-05, 1.026814206032085e-05, 2.171790015299889e+03, 1.054178287886954e+04, 4.221479952410783e+02, 8.412467905184018e+03
194, -2.500000000000000e-04, 2.600000000006672e-03, 6.288332856494065e-05, 1.005871593343783e-05, 2.228240606271719e+03, 1.082199506785936e+04, 4.221934525603444e+02, 8.635137809647091e+03
195, -2.500000000000000e-04, 2.500000000006697e-03, 5.852343456375029e-05, 9.835628631116847e-06, 2.285369216282396e+03, 1.110589190958109e+04, 4.215272670363396e+02, 8.860720147393084e+03
196, -2.500000000000000e-04, 2.400000000006722e-03, 5.429139113211466e-05, 9.598789684407351e-06, 2.343177110064025e+03, 1.139347274855579e+04, 4.201124514690960e+02, 9.089214984343842e+03
197, -2.500000000000000e-04, 2.300000000006651e-03, 5.019055173925640e-05, 9.348119459710362e-06, 2.401665341593549e+03, 1.168473585514531e+04, 4.179110554809168e+02, 9.320622123053099e+03
198, -2.500000000000000e-04, 2.200000000006315e-03, 4.622431398307742e-05, 9.083549749668642e-06, 2.460833774777980e+03, 1.197967815827070e+04, 4.148838118344181e+02, 9.554941795031511e+03
199, -2.500000000000000e-04, 2.100000000005904e-03, 4.239611955605732e-05, 8.805024299884898e-06, 2.520685026145125e+03, 1.227829827441638e+04, 4.109908674836713e+02, 9.792173930004439e+03
200, -2.500000000000000e-04, 2.000000000005494e-03, 3.870945433900892e-05, 8.512499430726595e-06, 2.581219654419896e+03, 1.258059223424450e+04, 4.061910437658543e+02, 1.003231860769436e+04
201, -2.500000000000000e-04, 1.900000000005083e-03, 3.516784837691243e-05, 8.205944621636056e-06, 2.642439853638484e+03, 1.288655686237893e+04, 4.004422573132140e+02, 1.027537587120461e+04
202, -2.500000000000000e-04, 1.800000000004675e-03, 3.177487592105298e-05, 7.885343132401399e-06, 2.704347749771639e+03, 1.319618849027703e+04, 3.937012764654202e+02, 1.052134615457978e+04
203, -2.500000000000000e-04, 1.700000000004264e-03, 2.853415542703870e-05, 7.550692608665252e-06, 2.766946525006476e+03, 1.350948321076596e+04, 3.859241776450833e+02, 1.077022953926482e+04
204, -2.500000000000000e-04, 1.600000000003854e-03, 2.544934959774201e-05, 7.202005772889855e-06, 2.830238630082963e+03, 1.382643542134966e+04, 3.770656326093819e+02, 1.102202603142655e+04
205, -2.500000000000000e-04, 1.500000000003443e-03, 2.252416535862693e-05, 6.839311064091969e-06, 2.894228171371011e+03, 1.414704038719973e+04, 3.670793639846119e+02, 1.127673586648891e+04
206, -2.500000000000000e-04, 1.400000000003032e-03, 1.976235388612389e-05, 6.462653310571642e-06, 2.958919618776978e+03, 1.447129269358080e+04, 3.559180133144704e+02, 1.153435929483189e+04
207, -2.500000000000000e-04, 1.300000000002622e-03, 1.716771062848929e-05, 6.072094431766130e-06, 3.024317247318590e+03, 1.479918564198997e+04, 3.435331180750856e+02, 1.179489659660858e+04
208, -2.500000000000000e-04, 1.200000000002211e-03, 1.474407527651942e-05, 5.667714151511122e-06, 3.090428299734593e+03, 1.513071463482534e+04, 3.298752973679758e+02, 1.205834838932046e+04
209, -2.500000000000000e-04, 1.100000000002113e-03, 1.249533173045761e-05, 5.249610672936551e-06, 3.157270917682882e+03, 1.546588833162148e+04, 3.148951391828158e+02, 1.232471900034384e+04
210, -2.500000000000000e-04, 1.000000000002544e-03, 1.042540811996142e-05, 4.817901089404097e-06, 3.224899358816275e+03, 1.580476706893067e+04, 2.985456623517669e+02, 1.259402992111798e+04
211, -2.500000000000000e-04, 9.000000000030026e-04, 8.538277444830553e-06, 4.372720825777545e-06, 3.293430342266573e+03, 1.614752052755500e+04, 2.807876440931520e+02, 1.286635151454482e+04
212, -2.500000000000000e-04, 8.000000000032027e-04, 6.837960920496869e-06, 3.914221493084143e-06, 3.363006239838606e+03, 1.649441213199619e+04, 2.615794282794491e+02, 1.314182315714935e+04
213, -2.500000000000000e-04, 7.000000000028719e-04, 5.328539876443136e-06, 3.442569266314608e-06, 3.432997916741868e+03, 1.684477298716535e+04, 2.408144573411340e+02, 1.342042014808369e+04
214, -2.500000000000000e-04, 6.000000000024631e-04, 4.014181000713204e-06, 2.957968892069521e-06, 3.499954712343414e+03, 1.719360743425975e+04, 2.179098343810868e+02, 1.370058625213266e+04
215, -2.500000000000000e-04, 5.000000000020526e-04, 2.899164554445901e-06, 2.460783069427030e-06, 3.545360113272532e+03, 1.751421210993153e+04, 1.911838103825647e+02, 1.397408426702708e+04
216, -2.500000000000000e-04, 4.000000000016421e-04, 1.987708365579445e-06, 1.952073010305787e-06, 3.530173455213432e+03, 1.773993386174296e+04, 1.536902078199178e+02, 1.421308458888826e+04
217, -2.500000000000000e-04, 3.000000000012316e-04, 1.283058470956952e-06, 1.434689937103167e-06, 3.229374828390793e+03, 1.756642227288686e+04, 1.033888815118590e+02, 1.433853850533631e+04
218, -2.500000000000000e-04, 2.000000000008210e-04, 7.809247924124079e-07, 9.181681161189235e-07, 3.029361625574725e+03, 1.729833668616111e+04, -1.837997015802557e-01, 1.426897506532147e+04
219, -2.500000000000000e-04, 1.000000000004105e-04, 4.549977704793632e-07, 4.062867999944853e-07, -1.552554679044755e+03, 1.195403634245533e+04, 1.013982495892822e+03, 1.365798824973776e+04
220, -1.999999999998928e-04, 9.899999999999593e-03, 5.559092245628020e-04, -2.619226612141497e-06, -2.948355772346345e+00, 3.477661191286892e+01, 2.427206491648134e+00, 3.803601598830943e+01
221, -1.499999999997670e-04, 9.899999999999591e-03, 5.557649873780220e-04, -6.407194695659448e-06, -1.240880683195467e+00, 3.214767061868778e+01, 6.889858071383494e+00, 3.612029810250357e+01
222, -9.999999999959327e-05, 9.899999999999591e-03, 5.556208424295718e-04, -1.019494751636134e-05, 1.006154420392988e+00, 2.772503862826661e+01, 9.883962916786730e+00, 3.323657119913875e+01
223, -4.999999999946756e-05, 9.899999999999593e-03, 5.554768087733772e-04, -1.398251309457427e-05, 3.310136337817563e+00, 2.284398863052780e+01, 1.191527841654257e+01, 3.081341955006490e+01
224, 6.282680539010377e-16, 9.899999999999593e-03, 5.553328851269480e-04, -1.776994579742700e-05, 5.222351245198260e+00, 1.786153726415766e+01, 1.280780733178455e+01, 2.856411626174202e+01
225, 5.000000000046569e-05, 9.899999999999590e-03, 5.551890633568244e-04, -2.155731841232944e-05, 6.734708314363514e+00, 1.310296315371926e+01, 1.247258754797019e+01, 2.574522150353540e+01
226, 1.000000000003380e-04, 9.899999999999590e-03, 5.550453317875370e-04, -2.534470935732591e-05, 7.873876509532060e+00, 8.861502339362199e+00, 1.095088197834250e+01, 2.192402037022622e+01
227, 1.500000000001929e-04, 9.899999999999593e-03, 5.549016744807279e-04, -2.913219262851844e-05, 8.616626810978175e+00, 5.486051140823057e+00, 8.377246180638295e+00, 1.704445711398996e+01
228, 2.000000000000797e-04, 9.899999999999593e-03, 5.547580690523357e-04, -3.291983116912312e-05, 8.741650897439536e+00, 3.313386458253229e+00, 4.965689315697034e+00, 1.131805355800393e+01
229, -1.999999999998947e-04, 9.799999999999184e-03, 5.483328275246628e-04, -2.333262112537307e-06, -8.855506135772391e-01, 4.636316736212461e+01, 4.986009549378538e+00, 4.828956942501545e+01
230, -1.499999999997712e-04, 9.799999999999181e-03, 5.481885057097592e-04, -6.121053771113484e-06, 1.636754528354375e+00, 4.019251063308182e+01, 1.046388425322580e+01, 4.386932668125711e+01
231, -9.999999999960086e-05, 9.799999999999184e-03, 5.480443156109446e-04, -9.908571032570129e-06, 3.206870813524533e+00, 3.235183527733845e+01, 1.442632137545742e+01, 4.101102226607983e+01
232, -4.999999999947776e-05, 9.799999999999184e-03, 5.479002661460565e-04, -1.369588968590443e-05, 5.062047546523556e+00, 2.470432508010222e+01, 1.690928816034693e+01, 3.910901649319149e+01
233, 6.154473632113966e-16, 9.799999999999184e-03, 5.477563555740815e-04, -1.748308318745646e-05, 6.937799930022660e+00, 1.756522937352183e+01, 1.790107317699707e+01, 3.734616366013206e+01
234, 5.000000000045551e-05, 9.799999999999184e-03, 5.476125746283503e-04, -2.127023179476494e-05, 8.525369540920462e+00, 1.098510468290793e+01, 1.733011575612386e+01, 3.474740199570808e+01
235, 1.000000000003303e-04, 9.799999999999184e-03, 5.474689093829884e-04, -2.505741979748458e-05, 9.627862222987845e+00, 5.036461095718416e+00, 1.518931628592036e+01, 3.072364368440684e+01
236, 1.500000000001885e-04, 9.799999999999188e-03, 5.473253415598671e-04, -2.884473096903951e-05, 1.006950997498379e+01, -1.345186326051553e-01, 1.154493549288550e+01, 2.524409519004479e+01
237, 2.000000000000778e-04, 9.799999999999188e-03, 5.471818468062269e-04, -3.263224486016508e-05, 9.579133682672207e+00, -4.303276106451358e+00, 6.488499776554419e+00, 1.900325811419033e+01
238, -1.999999999998966e-04, 9.699999999999027e-03, 5.407565718043491e-04, -2.047729146277302e-06, 6.821632295038595e-01, 6.055529234002556e+01, 8.052135455555518e+00, 6.200112201455437e+01
239, -1.499999999997756e-04, 9.699999999998999e-03, 5.406121066909609e-04, -5.835218187597209e-06, 2.506053970548606e+00, 5.016008732039096e+01, 1.425253329394782e+01, 5.552878276793262e+01
240, -9.999999999960846e-05, 9.699999999998973e-03, 5.404678214990600e-04, -9.622408231346187e-06, 4.466667675503814e+00, 3.947700037776542e+01, 1.870734797292229e+01, 5.124044172958550e+01
241, -4.999999999948794e-05, 9.699999999998947e-03, 5.403237202494813e-04, -1.340938556822424e-05, 6.278380060521978e+00, 2.866291863540194e+01, 2.136465484235567e+01, 4.823755252230627e+01
242, 6.026266725217555e-16, 9.699999999998920e-03, 5.401798012028895e-04, -1.719624086244779e-05, 7.971751187481341e+00, 1.819078456499754e+01, 2.219433834189771e+01, 4.554978881300454e+01
243, 5.000000000044535e-05, 9.699999999998892e-03, 5.400360559829752e-04, -2.098306634114992e-05, 9.365388149252045e+00, 8.283519919295935e+00, 2.118008806962019e+01, 4.237398920817414e+01
244, 1.000000000003228e-04, 9.699999999998864e-03, 5.398924702387705e-04, -2.476995613474442e-05, 1.025414027758941e+01, -9.002074614187423e-01, 1.831709322568010e+01, 3.829468749625383e+01
245, 1.500000000001842e-04, 9.699999999998836e-03, 5.397490239218315e-04, -2.855700512692480e-05, 1.044972535004008e+01, -9.171327463233816e+00, 1.362193780777019e+01, 3.357401483374186e+01
246, 2.000000000000759e-04, 9.699999999998809e-03, 5.396056906618160e-04, -3.234430839377481e-05, 9.828489194614699e+00, -1.621822866140717e+01, 7.116385217115456e+00, 2.968169916471639e+01
247, -1.999999999998985e-04, 9.599999999999352e-03, 5.331806599342808e-04, -1.762748760709630e-06, 1.447939785039665e+00, 7.697605971278008e+01, 1.120783317261326e+01, 7.878425602567850e+01
248, -1.499999999997800e-04, 9.599999999999241e-03, 5.330360189198287e-04, -5.549816728207491e-06, 3.173658878580943e+00, 6.264772549732888e+01, 1.809560243445633e+01, 6.962016884520517e+01
249, -9.999999999961608e-05, 9.599999999999132e-03, 5.328916112912744e-04, -9.336557181820036e-06, 5.059462661661445e+00, 4.800809054430705e+01, 2.289979869634605e+01, 6.278684383160737e+01
250, -4.999999999949810e-05, 9.599999999999024e-03, 5.327474425493432e-04, -1.312307150412962e-05, 6.905213810901863e+00, 3.334890454841786e+01, 2.560053141479952e+01, 5.762653568194029e+01
251, 5.898059818321144e-16, 9.599999999998917e-03, 5.326035108747220e-04, -1.690946340392002e-05, 8.518580044743251e+00, 1.891836145522465e+01, 2.618021993327233e+01, 5.338324752582812e+01
252, 5.000000000043517e-05, 9.599999999998809e-03, 5.324598080278128e-04, -2.069583843791218e-05, 9.764814202454591e+00, 4.999592804241217e+00, 2.463142614157002e+01, 4.949278684863550e+01
253, 1.000000000003152e-04, 9.599999999998698e-03, 5.323163194508962e-04, -2.448230320023565e-05, 1.048592317224136e+01, -8.161754139769867e+00, 2.095572861475132e+01, 4.587271646886989e+01
254, 1.500000000001798e-04, 9.599999999998591e-03, 5.321730244057498e-04, -2.826896518248538e-05, 1.053889712565959e+01, -2.031217030712215e+01, 1.515955388278798e+01, 4.325548124160284e+01
255, 2.000000000000740e-04, 9.599999999998483e-03, 5.320298961123678e-04, -3.205593255701712e-05, 9.811238996263917e+00, -3.117118219015641e+01, 7.247489054824084e+00, 4.347025692010956e+01
256, -1.999999999999004e-04, 9.499999999999719e-03, 5.256053486542735e-04, -1.478434942411214e-06, 1.792817528163965e+00, 9.570089842377068e+01, 1.441548652346264e+01, 9.823417258942202e+01
257, -1.499999999997843e-04, 9.499999999999528e-03, 5.254605077378593e-04, -5.264943934590244e-06, 3.601242168124976e+00, 7.693583877857814e+01, 2.195325881647901e+01, 8.547365296201596e+01
258, -9.999999999962368e-05, 9.499999999999330e-03, 5.253159639795419e-04, -9.051092617956693e-06, 5.494874197256216e+00, 5.778554294087139e+01, 2.706813763086029e+01, 7.526652866226310e+01
259, -4.999999999950831e-05, 9.499999999999136e-03, 5.251717231043433e-04, -1.283699835770055e-05, 7.308006886109888e+00, 3.857051769049058e+01, 2.976338179964532e+01, 6.723674714320923e+01
260, 5.769988436696294e-16, 9.499999999998942e-03, 5.250277836475726e-04, -1.662277939087420e-05, 8.873796453666809e+00, 1.957961256494271e+01, 3.004153939354738e+01, 6.102942614136800e+01
261, 5.000000000042495e-05, 9.499999999998747e-03, 5.248841373182330e-04, -2.040855486516220e-05, 1.003217633327132e+01, 1.084406433516424e+00, 2.790668524584563e+01, 5.652605515885353e+01
262, 1.000000000003075e-04, 9.499999999998551e-03, 5.247407693485302e-04, -2.419444469061552e-05, 1.064180844638872e+01, -1.664050909156865e+01, 2.336668850354188e+01, 5.411407743580373e+01
263, 1.500000000001755e-04, 9.499999999998359e-03, 5.245976587000405e-04, -2.798056927781187e-05, 1.056892230939867e+01, -3.332663393333579e+01, 1.643328494093300e+01, 5.483640463832987e+01
264, 2.000000000000721e-04, 9.499999999998164e-03, 5.244547782868111e-04, -3.176704935593521e-05, 9.698362833241974e+00, -4.870440632027778e+01, 7.125038651365742e+00, 6.011612219640537e+01
265, -1.999999999999023e-04, 9.400000000000087e-03, 5.180309428684246e-04, -1.194899573935836e-06, 1.974690515751092e+00, 1.167620287329967e+02, 1.769844936493703e+01, 1.201210783113992e+02
266, -1.499999999997887e-04, 9.399999999999811e-03, 5.178858837363877e-04, -4.980686674741220e-06, 3.900521543168786e+00, 9.288897188607342e+01, 2.584667615852565e+01, 1.029132983059351e+02
267, -9.999999999963125e-05, 9.399999999999530e-03, 5.177411955002337e-04, -8.766079133127687e-06, 5.853563677607440e+00, 6.862255810437725e+01, 3.124117705436242e+01, 8.856630982668267e+01
268, -4.999999999951849e-05, 9.399999999999249e-03, 5.175968835311052e-04, -1.255120975490757e-05, 7.670683092213539e+00, 4.426810840944515e+01, 3.390415854226660e+01, 7.705413295655816e+01
269, 5.641646004528322e-16, 9.399999999998968e-03, 5.174529461480828e-04, -1.633621156252759e-05, 9.199547707078635e+00, 2.012585250194861e+01, 3.385161423210157e+01, 6.857923359841874e+01
270, 5.000000000041476e-05, 9.399999999998687e-03, 5.173093748552374e-04, -2.012121785471316e-05, 1.029101626583601e+01, -3.515832615842880e+00, 3.109866833848622e+01, 6.371136292491457e+01
271, 1.000000000003000e-04, 9.399999999998406e-03, 5.171661545547707e-04, -2.390636217223530e-05, 1.080079262607692e+01, -2.637762276505217e+01, 2.566199685710098e+01, 6.337497062540375e+01
272, 1.500000000001711e-04, 9.399999999998125e-03, 5.170232637538890e-04, -2.769177816506813e-05, 1.059173750695923e+01, -4.818555523230542e+01, 1.756218376778546e+01, 6.847255900381612e+01
273, 2.000000000000702e-04, 9.399999999997844e-03, 5.168806747503918e-04, -3.147759930751445e-05, 9.522434057450235e+00, -6.868015546139890e+01, 6.825412167419175e+00, 7.938507424241807e+01
274, -1.999999999999042e-04, 9.300000000000464e-03, 5.104577905184664e-04, -9.122517296106300e-07, 2.256899433686094e+00, 1.402604717584681e+02, 2.107703271000485e+01, 1.442981330642770e+02
275, -1.499999999997930e-04, 9.300000000000100e-03, 5.103124991228696e-04, -4.697130874917340e-06, 4.278784419318431e+00, 1.106046598631400e+02, 2.978761754259990e+01, 1.218786298920031e+02
276, -9.999999999963886e-05, 9.299999999999729e-03, 5.101676615111915e-04, -8.481580425165232e-06, 6.268078743437028e+00, 8.056523021048432e+01, 3.543315888527749e+01, 1.026747374502348e+02
277, -4.999999999952863e-05, 9.299999999999361e-03, 5.100232824480726e-04, -1.226574827894725e-05, 8.083814346220734e+00, 5.045388767529565e+01, 3.804109851626751e+01, 8.708457853838799e+01
278, 5.513303572360351e-16, 9.299999999998993e-03, 5.098793597717671e-04, -1.604978214895033e-05, 9.575821857795489e+00, 2.056788563659825e+01, 3.763565805518395e+01, 7.606968183911511e+01
279, 5.000000000040461e-05, 9.299999999998625e-03, 5.097358845181667e-04, -1.983382964682520e-05, 1.059614333438499e+01, -8.801889093620090e+00, 3.424001811484031e+01, 7.117442675635895e+01
280, 1.000000000002923e-04, 9.299999999998258e-03, 5.095928410579528e-04, -2.361803826479786e-05, 1.099934643044453e+01, -3.737088749324336e+01, 2.787834759743443e+01, 7.381387802361964e+01
281, 1.500000000001668e-04, 9.299999999997890e-03, 5.094502072251985e-04, -2.740255527713045e-05, 1.064121470518881e+01, -6.486117706115277e+01, 1.857742443321500e+01, 8.414923622187774e+01
282, 2.000000000000683e-04, 9.299999999997520e-03, 5.093079544114618e-04, -3.118752759506745e-05, 9.380378839632151e+00, -9.099760742110800e+01, 6.367995269024389e+00, 1.011827336097746e+02
283, -1.999999999999061e-04, 9.200000000000841e-03, 5.028862881763643e-04, -6.306027755549240e-07, 2.432829627738091e+00, 1.659924466083749e+02, 2.457802860103465e+01, 1.707866103255924e+02
284, -1.499999999997973e-04, 9.200000000000397e-03, 5.027407512007267e-04, -4.414365251552448e-06, 4.581168469623917e+00, 1.299453005079589e+02, 3.380568650595355e+01, 1.424340667195890e+02
285, -9.999999999964642e-05, 9.199999999999951e-03, 5.025957602044874e-04, -8.197663299957196e-06, 6.649180191221779e+00, 9.354434870402720e+01, 3.966806502020754e+01, 1.176647434053995e+02
286, -4.999999999953884e-05, 9.199999999999505e-03, 5.024513190610695e-04, -1.198065951439567e-05, 8.492301835759175e+00, 5.709094808332087e+01, 4.219274383191474e+01, 9.737935584793092e+01
287, 5.385367716007061e-16, 9.199999999999058e-03, 5.023074248293715e-04, -1.576351618170923e-05, 9.965930455665436e+00, 2.088347743157565e+01, 4.140794650829991e+01, 8.353241866549845e+01
288, 5.000000000039439e-05, 9.199999999998614e-03, 5.021640678000382e-04, -1.954639528391852e-05, 1.092441147945134e+01, -1.478486122144238e+01, 3.734175501384103e+01, 7.898476671399243e+01
289, 1.000000000002848e-04, 9.199999999998171e-03, 5.020212315629420e-04, -2.332945847607163e-05, 1.122232455377138e+01, -4.962520341022406e+01, 3.002299079894479e+01, 8.548649931646108e+01
290, 1.500000000001625e-04, 9.199999999997726e-03, 5.018788930703141e-04, -2.711286702784041e-05, 1.071499639177524e+01, -8.335191633856061e+01, 1.948223190211061e+01, 1.018175501088446e+02
291, 2.000000000000664e-04, 9.199999999997280e-03, 5.017370226868002e-04, -3.089678172663302e-05, 9.258555956896171e+00, -1.156813940171246e+02, 5.752651221206575e+00, 1.254685740885032e+02
292, -1.999999999999080e-04, 9.100000000001274e-03, 4.953168670818992e-04, -3.500661677011109e-07, 2.707771444929428e+00, 1.940945006659439e+02, 2.822404505207531e+01, 1.995376330377912e+02
293, -1.499999999998017e-04, 9.100000000000802e-03, 4.951710739757068e-04, -4.132481694862890e-06, 4.951709291675638e+00, 1.510219388505388e+02, 3.792842679294181e+01, 1.645927525723085e+02
294, -9.999999999965405e-05, 9.100000000000334e-03, 4.950259276336578e-04, -7.914398222290320e-06, 7.080249450991655e+00, 1.076380113146431e+02, 4.396848687113567e+01, 1.335843359903239e+02
295, -4.999999999954905e-05, 9.099999999999862e-03, 4.948814310335679e-04, -1.169599290811087e-05, 8.943193948666416e+00, 6.423725256857406e+01, 4.637477063765291e+01, 1.079810646615481e+02
296, 5.257025283839090e-16, 9.099999999999390e-03, 4.947375803483048e-04, -1.547744254054362e-05, 1.039411009394421e+01, 2.111515603419634e+01, 4.517737230579391e+01, 9.098857455679946e+01
297, 5.000000000038422e-05, 9.099999999998916e-03, 4.945943649847693e-04, -1.925892350680913e-05, 1.128719837519256e+01, -2.143447877953929e+01, 4.040677655220767e+01, 8.718680244841337e+01
298, 1.000000000002772e-04, 9.099999999998446e-03, 4.944517676166956e-04, -2.304061176915963e-05, 1.147674548378883e+01, -6.311991626600445e+01, 3.209413512411696e+01, 9.841136103963495e+01
299, 1.500000000001581e-04, 9.099999999997978e-03, 4.943097642131972e-04, -2.682268282549315e-05, 1.081695851832860e+01, -1.036511661490839e+02, 2.027174432684857e+01, 1.214360985748750e+02
300, 2.000000000000645e-04, 9.099999999997506e-03, 4.941683240547315e-04, -3.060531165425470e-05, 9.161548875957312e+00, -1.427394443251925e+02, 4.973687319756683e+00, 1.522263511935913e+02
301, -1.999999999999099e-04, 9.000000000001736e-03, 4.877500018457904e-04, -7.075744045335601e-08, 3.022584185615710e+00, 2.245137423972960e+02, 3.201261390230155e+01, 2.305592395923072e+02
302, -1.499999999998060e-04, 9.000000000001264e-03, 4.876039434404045e-04, -3.851574913892722e-06, 5.366188466121432e+00, 1.738201822365152e+02, 4.215558384285750e+01, 1.883749479461762e+02
303, -9.999999999966160e-05, 9.000000000000792e-03, 4.874586411112633e-04, -7.631859064951330e-06, 7.549855431110844e+00, 1.228522944545782e+02, 4.833715427557443e+01, 1.504678516448054e+02
304, -4.999999999955923e-05, 9.000000000000320e-03, 4.873140968860009e-04, -1.141180164729868e-05, 9.426936060757388e+00, 7.190680338184302e+01, 5.058920523974156e+01, 1.189151149670017e+02
305, 5.128818376942679e-16, 8.999999999999852e-03, 4.871703059891805e-04, -1.519159395124442e-05, 1.085011840012335e+01, 2.127835189334413e+01, 4.894340936312889e+01, 9.844073005690471e+01
306, 5.000000000037403e-05, 8.999999999999380e-03, 4.870272568666859e-04, -1.897142681341791e-05, 1.167287790589305e+01, -2.873885598497214e+01, 4.343152281843201e+01, 9.580342860972161e+01
307, 1.000000000002695e-04, 8.999999999998908e-03, 4.868849312026840e-04, -2.275149060136551e-05, 1.174886168643172e+01, -7.785136102669873e+01, 3.408576747466434e+01, 1.125857810186975e+02
308, 1.500000000001538e-04, 8.999999999998436e-03, 4.867433039301872e-04, -2.653197519148015e-05, 1.093153900377617e+01, -1.257663762366537e+02, 2.093905177117090e+01, 1.429688623000926e+02
309, 2.000000000000626e-04, 8.999999999997964e-03, 4.866023432327842e-04, -3.031306994129461e-05, 9.073379534450137e+00, -1.721917871338377e+02, 4.024996900308055e+00, 1.814438289043530e+02
310, -1.999999999999118e-04, 8.900000000002187e-03, 4.801862087929246e-04, 2.072039286429894e-07, 3.353801837954165e+00, 2.572497981190074e+02, 3.595059520428879e+01, 2.638805754687509e+02
311, -1.499999999998104e-04, 8.900000000001712e-03, 4.800398770190755e-04, -3.571743418193725e-06, 5.798457401565059e+00, 1.983385495189786e+02, 4.649258705103052e+01, 2.138175148938288e+02
312, -9.999999999966923e-05, 8.900000000001240e-03, 4.798944191733312e-04, -7.350123584208735e-06, 8.039051491370675e+00, 1.391937939176848e+02, 5.277732403801301e+01, 1.683548341787859e+02
313, -4.999999999956943e-05, 8.900000000000770e-03, 4.797498362699175e-04, -1.112814285690554e-05, 9.928863482568492e+00, 8.011072692152231e+01, 5.483735118807360e+01, 1.302076583656293e+02
314, 5.000475944774707e-16, 8.900000000000293e-03, 4.796061225346477e-04, -1.490600704128990e-05, 1.132159446115211e+01, 2.138492414427165e+01, 5.270492172305213e+01, 1.058891198360028e+02
315, 5.000000000036387e-05, 8.899999999999823e-03, 4.794632654059782e-04, -1.868392146296375e-05, 1.207060281408244e+01, -3.668856635568167e+01, 4.641237398252330e+01, 1.048517544579016e+02
316, 1.000000000002620e-04, 8.899999999999349e-03, 4.793212455389951e-04, -2.246209096279866e-05, 1.202920359579638e+01, -9.381493040975342e+01, 3.599233986424629e+01, 1.280030266009302e+02
317, 1.500000000001494e-04, 8.899999999998874e-03, 4.791800368077107e-04, -2.624071988442450e-05, 1.105062081159257e+01, -1.496994885707479e+02, 2.147783484107500e+01, 1.663904661459796e+02
318, 2.000000000000606e-04, 8.899999999998404e-03, 4.790396063041121e-04, -3.002001206454208e-05, 8.988292438743509e+00, -2.040472079610194e+02, 2.902168146949058e+00, 2.131145578096205e+02
319, -1.999999999999137e-04, 8.800000000002590e-03, 4.726260448547958e-04, 4.836948291914043e-07, 3.707102807927892e+00, 2.923217087908109e+02, 4.004463223771801e+01, 2.995207523208887e+02
320, -1.499999999998147e-04, 8.800000000002060e-03, 4.724794329432470e-04, -3.293089527499232e-06, 6.249253035511376e+00, 2.245963262745982e+02, 5.094472554775834e+01, 2.409500044337431e+02
321, -9.999999999967683e-05, 8.800000000001532e-03, 4.723338212770144e-04, -7.069273361712068e-06, 8.542997563476693e+00, 1.566780944356029e+02, 5.729297864952353e+01, 1.872804008310887e+02
322, -4.999999999957961e-05, 8.800000000001001e-03, 4.721892098566599e-04, -1.084507746474216e-05, 1.044311828741746e+01, 8.886309751424604e+01, 5.912154188790111e+01, 1.418841781269061e+02
323, 4.872540088421418e-16, 8.800000000000474e-03, 4.720455918928795e-04, -1.462072215793336e-05, 1.180319615652457e+01, 2.144713817929024e+01, 5.646257846117750e+01, 1.133362108228300e+02
324, 5.000000000035368e-05, 8.799999999999947e-03, 4.719029537989461e-04, -1.839642728753482e-05, 1.247648659457096e+01, -4.527391445273793e+01, 4.934848568305803e+01, 1.143512176496995e+02
325, 1.000000000002544e-04, 8.799999999999419e-03, 4.717612751871294e-04, -2.217241221510659e-05, 1.231605029957261e+01, -1.110042093743400e+02, 3.781197779212442e+01, 1.446612218400277e+02
326, 1.500000000001451e-04, 8.799999999998892e-03, 4.716205288677223e-04, -2.594889580581015e-05, 1.117505595701932e+01, -1.754477333183277e+02, 2.188612773300220e+01, 1.916874430563770e+02
327, 2.000000000000587e-04, 8.799999999998365e-03, 4.714806808506703e-04, -2.972609641550864e-05, 8.907188113325933e+00, -2.383081130638850e+02, 1.604362059473302e+00, 2.472361240729409e+02
328, -1.999999999999156e-04, 8.700000000002964e-03, 4.650701080782754e-04, 7.585885868399412e-07, 4.063930614385956e+00, 3.297274317824437e+02, 4.429959966792793e+01, 3.375004209123186e+02
329, -1.499999999998191e-04, 8.700000000002345e-03, 4.649232104556640e-04, -3.015719217348524e-06, 6.701608194630417e+00, 2.525943495155975e+02, 5.551737585177206e+01, 2.697998449225050e+02
330, -9.999999999968445e-05, 8.700000000001731e-03, 4.647774478780742e-04, -6.789393656221960e-06, 9.048554939341884e+00, 1.753093420254436e+02, 6.188908667969778e+01, 2.072768330583006e+02
331, -4.999999999958977e-05, 8.700000000001117e-03, 4.646328193409093e-04, -1.056267002644816e-05, 1.095897090245526e+01, 9.816886814357417e+01, 6.344584104871431e+01, 1.539709880539883e+02
332, 4.743926605710325e-16, 8.700000000000502e-03, 4.644893170371066e-04, -1.433578318430471e-05, 1.228628128390486e+01, 2.146953080886877e+01, 6.021942091808822e+01, 1.207884377524491e+02
333, 5.000000000034347e-05, 8.699999999999888e-03, 4.643469263465007e-04, -1.810896752681366e-05, 1.288347357200652e+01, -5.449198832434735e+01, 5.224206500772343e+01, 1.243237157216266e+02
334, 1.000000000002468e-04, 8.699999999999274e-03, 4.642056258310625e-04, -2.188245697415464e-05, 1.260339096681241e+01, -1.294188753148586e+02, 3.954644458036215e+01, 1.625607862787717e+02
335, 1.500000000001407e-04, 8.699999999998657e-03, 4.640653872329089e-04, -2.565648495303363e-05, 1.129881226551173e+01, -2.030142541393963e+02, 2.216567572387951e+01, 2.188500837401239e+02
336, 2.000000000000568e-04, 8.699999999998044e-03, 4.639261754742622e-04, -2.943128437773162e-05, 8.822666289816310e+00, -2.749811192568548e+02, 1.334340212077141e-01, 2.838039110181059e+02
337, -1.999999999999175e-04, 8.600000000003331e-03, 4.575190368751566e-04, 1.031755069183869e-06, 4.425426835939149e+00, 3.694773281435276e+02, 4.872006761614952e+01, 3.778325960030103e+02
338, -1.499999999998235e-04, 8.600000000002632e-03, 4.573718493375905e-04, -2.739741945988717e-06, 7.155599059685407e+00, 2.823418976774460e+02, 6.021635720561957e+01, 3.003856482047743e+02
339, -9.999999999969208e-05, 8.600000000001931e-03, 4.572259401224997e-04, -6.510573198115338e-06, 9.554212958752355e+00, 1.950951277648009e+02, 6.657111028293940e+01, 2.283687412153391e+02
340, -4.999999999959999e-05, 8.600000000001230e-03, 4.570813072395069e-04, -1.028098853021871e-05, 1.147395567092971e+01, 1.080340664653437e+02, 6.781496548850656e+01, 1.664912405307223e+02
341, 4.615584173542353e-16, 8.600000000000526e-03, 4.569379418676845e-04, -1.405123737268415e-05, 1.276742700064945e+01, 2.145605548111126e+01, 6.397932615725146e+01, 1.282533000238798e+02
342, 5.000000000033329e-05, 8.599999999999825e-03, 4.567958283516935e-04, -1.782156871075792e-05, 1.328717253221303e+01, -6.434130073791171e+01, 5.509623604997847e+01, 1.347908037284082e+02
343, 1.000000000002392e-04, 8.599999999999124e-03, 4.566549441983996e-04, -2.159223106169474e-05, 1.288562208753950e+01, -1.490602819385329e+02, 4.119827019530074e+01, 1.817021345476213e+02
344, 1.500000000001364e-04, 8.599999999998423e-03, 4.565152600751717e-04, -2.536347245394864e-05, 1.141508864104567e+01, -2.324031223671554e+02, 2.231849538052682e+01, 2.478704923209740e+02
345, 2.000000000000548e-04, 8.599999999997722e-03, 4.563767398084791e-04, -2.913554040883148e-05, 8.727236086019859e+00, -3.140724586264947e+02, -1.509509925189224e+00, 3.228138122623466e+02
346, -1.999999999999195e-04, 8.500000000003703e-03, 4.499735103370900e-04, 1.303060909687287e-06, 4.796226347177623e+00, 4.115807234299162e+02, 5.330849543734827e+01, 4.205244461503179e+02
347, -1.499999999998278e-04, 8.500000000002915e-03, 4.498260301468780e-04, -2.465270402943735e-06, 7.616825138955946e+00, 3.138479193736194e+02, 6.504446668818599e+01, 3.327170173934022e+02
348, -9.999999999969967e-05, 8.500000000002127e-03, 4.496799800435857e-04, -6.232903940621671e-06, 1.006474205751532e+01, 2.160432409738836e+02, 7.134206383243460e+01, 2.505711521770314e+02
349, -4.999999999961013e-05, 8.500000000001340e-03, 4.495353570599900e-04, -1.000010417246389e-05, 1.199130669677573e+01, 1.184646808053618e+02, 7.223174786479609e+01, 1.794610848972023e+02
350, 4.487512791917503e-16, 8.500000000000552e-03, 4.493921513691412e-04, -1.376713515587189e-05, 1.324849615474960e+01, 2.141077802654930e+01, 6.774477359627367e+01, 1.357351842515279e+02
351, 5.000000000032310e-05, 8.499999999999765e-03, 4.492503462837457e-04, -1.753426051200433e-05, 1.368822987219807e+01, -7.481987615401638e+01, 5.791301167553041e+01, 1.457715765081386e+02
352, 1.000000000002316e-04, 8.499999999998977e-03, 4.491099182556758e-04, -2.130174339979659e-05, 1.316240410629501e+01, -1.699285860545315e+02, 4.276891466299225e+01, 2.020866916050464e+02
353, 1.500000000001320e-04, 8.499999999998190e-03, 4.489708368751996e-04, -2.506984649389514e-05, 1.152288703137877e+01, -2.636165676455915e+02, 2.234546008368983e+01, 2.787453997205114e+02
354, 2.000000000000531e-04, 8.499999999997402e-03, 4.488330648708381e-04, -2.883883196518142e-05, 8.621597649025873e+00, -3.555848885588196e+02, -3.324037390031127e+00, 3.642671567601818e+02
355, -1.999999999999213e-04, 8.400000000004074e-03, 4.424342487596776e-04, 1.572369571408013e-06, 5.194603884809737e+00, 4.560609093531330e+02, 5.806216320072997e+01, 4.655805887156896e+02
356, -1.499999999998322e-04, 8.400000000003200e-03, 4.422864746915038e-04, -2.192420379710516e-06, 8.099034267644392e+00, 3.471292831537532e+02, 7.000029387788182e+01, 3.667992287774555e+02
357, -9.999999999970726e-05, 8.400000000002326e-03, 4.421402909584575e-04, -5.956480923233638e-06, 1.058983724942654e+01, 2.381654059176146e+02, 7.620142559042016e+01, 2.738928047662051e+02
358, -4.999999999962035e-05, 8.400000000001451e-03, 4.419956936308156e-04, -9.720091216403769e-06, 1.251827994469861e+01, 1.294690454562842e+02, 7.669638881995502e+01, 1.928907094336914e+02
359, 4.359305885021092e-16, 8.400000000000581e-03, 4.418526718863449e-04, -1.348353000797760e-05, 1.373519547786146e+01, 2.133944142825089e+01, 7.151640291451154e+01, 1.432348005890923e+02
360, 5.000000000031294e-05, 8.399999999999703e-03, 4.417112080156829e-04, -1.724707560859844e-05, 1.409169401976865e+01, -8.592396216604223e+01, 6.069327943753670e+01, 1.572826378142546e+02
361, 1.000000000002240e-04, 8.399999999998832e-03, 4.415712774238633e-04, -2.101100586929445e-05, 1.343897791533354e+01, -1.920215732094945e+02, 4.425936871373833e+01, 2.237176902801221e+02
362, 1.500000000001277e-04, 8.399999999997958e-03, 4.414328486308800e-04, -2.477559815896018e-05, 1.162835020871428e+01, -2.966536238157753e+02, 2.224756707771726e+01, 3.114764717790834e+02
363, 2.000000000000511e-04, 8.399999999997083e-03, 4.412958832727107e-04, -2.854112934234774e-05, 8.511799892089186e+00, -3.995197719583807e+02, -5.308618760675618e+00, 4.081696820678258e+02
364, -1.999999999999233e-04, 8.300000000004210e-03, 4.349020146746080e-04, 1.839541118291228e-06, 5.594104314632411e+00, 5.029056395629050e+02, 6.298210007653806e+01, 5.130163182698949e+02
365, -1.499999999998365e-04, 8.300000000003279e-03, 4.347539467640033e-04, -1.921310947923053e-06, 8.585065759036141e+00, 3.821788264420451e+02, 7.508354137030318e+01, 4.026443228956512e+02
366, -9.999999999971485e-05, 8.300000000002344e-03, 4.346076380108974e-04, -5.681402355981904e-06, 1.112023277413876e+01, 2.614589272231077e+02, 8.114889618384004e+01, 2.983454966072671e+02
367, -4.999999999963053e-05, 8.300000000001409e-03, 4.344630835016604e-04, -9.441027023643777e-06, 1.304987067271892e+01, 1.410462829738910e+02, 8.120876633842134e+01, 2.067910454608828e+02
368, 4.231098978124681e-16, 8.300000000000474e-03, 4.343202714132847e-04, -1.320047844026217e-05, 1.422494952991141e+01, 2.124161470096549e+01, 7.529448517842287e+01, 1.507523518332555e+02
369, 5.000000000030276e-05, 8.299999999999542e-03, 4.341791830152480e-04, -1.696004965673020e-05, 1.449637420509848e+01, -9.765440580651915e+01, 6.343779714197120e+01, 1.693375737458105e+02
370, 1.000000000002164e-04, 8.299999999998609e-03, 4.340397926705864e-04, -2.072003326507981e-05, 1.371497888177838e+01, -2.153410925423952e+02, 4.567094556364002e+01, 2.465968875127665e+02
371, 1.500000000001233e-04, 8.299999999997672e-03, 4.339020678357350e-04, -2.448072137805298e-05, 1.173155767738426e+01, -3.315176366451926e+02, 2.202671221737824e+01, 3.460646090075189e+02
372, 2.000000000000492e-04, 8.299999999996739e-03, 4.337659690594922e-04, -2.824240560540058e-05, 8.396559906608516e+00, -4.458833278747136e+02, -7.461424750686170e+00, 4.545249254769767e+02
373, -1.999999999999252e-04, 8.200000000004194e-03, 4.273776117908848e-04, 2.104432363029406e-06, 6.033116468310872e+00, 5.521561087836225e+02, 6.806435451499546e+01, 5.628333218259220e+02
374, -1.499999999998408e-04, 8.200000000003217e-03, 4.272292516325559e-04, -1.652064345954719e-06, 9.099710835830564e+00, 4.190248573514664e+02, 8.029173724842599e+01, 4.402563776112127e+02
375, -9.999999999972244e-05, 8.200000000002240e-03, 4.270828279679885e-04, -5.407769581494236e-06, 1.166971859774348e+01, 2.859414151346857e+02, 8.618223620629315e+01, 3.239359116728519e+02
376, -4.999999999964069e-05, 8.200000000001265e-03, 4.269383349144329e-04, -9.162992042761150e-06, 1.359332810133445e+01, 1.532069786934445e+02, 8.576718837648079e+01, 2.211696494541753e+02
377, 4.102892071228270e-16, 8.200000000000287e-03, 4.267957596576555e-04, -1.291804000865095e-05, 1.472077581467349e+01, 2.112290682352818e+01, 7.907786718104320e+01, 1.582852601888924e+02
378, 5.000000000029257e-05, 8.199999999999309e-03, 4.266550824542690e-04, -1.667322131551749e-05, 1.490218173644501e+01, -1.100095730187426e+02, 6.614598308928547e+01, 1.819453511123939e+02
379, 1.000000000002088e-04, 8.199999999998328e-03, 4.265162766337160e-04, -2.042884334203016e-05, 1.398767572787536e+01, -2.398891055143170e+02, 4.700364615522131e+01, 2.707227198840855e+02
380, 1.500000000001190e-04, 8.199999999997352e-03, 4.263793085975572e-04, -2.418521299306151e-05, 1.182720608066138e+01, -3.682142230291040e+02, 2.168340204700068e+01, 3.825077352644261e+02
381, 2.000000000000473e-04, 8.199999999996377e-03, 4.262441378151478e-04, -2.794263668223416e-05, 8.270250496041438e+00, -4.946833473981920e+02, -9.781766108950968e+00, 5.033339382831196e+02
382, -1.999999999999271e-04, 8.100000000004175e-03, 4.198618869226413e-04, 2.366896774891549e-06, 6.472763703701787e+00, 6.037929683776387e+02, 7.330829643732272e+01, 6.150510972414270e+02
383, -1.499999999998452e-04, 8.100000000003150e-03, 4.197132372542065e-04, -1.384806126137441e-06, 9.616843627106071e+00, 4.576561930444944e+02, 8.562257347324316e+01, 4.796500380267684e+02
384, -9.999999999973005e-05, 8.100000000002133e-03, 4.195667100325696e-04, -5.135687161458429e-06, 1.222155519222344e+01, 3.116068253122876e+02, 9.129948090742442e+01, 3.506763761942404e+02
385, -4.999999999965090e-05, 8.100000000001112e-03, 4.194222983893641e-04, -8.886069870293292e-06, 1.413800261609712e+01, 1.659481006790510e+02, 9.036977021830640e+01, 2.360361992388491e+02
386, 3.974685164331859e-16, 8.100000000000092e-03, 4.192799885068452e-04, -1.263627735745171e-05, 1.521567987863519e+01, 2.098154461913901e+01, 8.286486029549516e+01, 1.658299896984062e+02
387, 5.000000000028236e-05, 8.099999999999071e-03, 4.191397596247990e-04, -1.638663228211553e-05, 1.530441113204029e+01, -1.229909814209383e+02, 6.881641936316926e+01, 1.951112859299860e+02
388, 1.000000000002012e-04, 8.099999999998051e-03, 4.190015840413649e-04, -2.013745684745116e-05, 1.425396780031892e+01, -2.656674520518666e+02, 4.825638296820827e+01, 2.960924100357201e+02
389, 1.500000000001146e-04, 8.099999999997031e-03, 4.188654271113526e-04, -2.388907279043077e-05, 1.191397804807472e+01, -4.067455973212342e+02, 2.121695661118564e+01, 4.208045591955652e+02
390, 2.000000000000454e-04, 8.099999999996011e-03, 4.187312472414748e-04, -2.764180137406076e-05, 8.133815017991424e+00, -5.459228263152348e+02, -1.226939492103940e+01, 5.545997782296429e+02
391, -1.999999999999291e-04, 8.000000000004158e-03, 4.123557284001353e-04, 2.626784378284155e-06, 6.916024782017175e+00, 6.578229960545219e+02, 7.871674173028619e+01, 6.696754340467295e+02
392, -1.499999999998495e-04, 8.000000000003093e-03, 4.122067933582351e-04, -1.119665106223238e-06, 1.013628463817919e+01, 4.980762305782093e+02, 9.107827262582462e+01, 5.208324085749424e+02
393, -9.999999999973761e-05, 8.000000000002028e-03, 4.120601753460666e-04, -4.865262836498874e-06, 1.277662371667358e+01, 3.384596058700010e+02, 9.650093527641512e+01, 3.785751271559927e+02
394, -4.999999999966106e-05, 8.000000000000966e-03, 4.119158664829780e-04, -8.610347210378791e-06, 1.468442540588227e+01, 1.792733868045709e+02, 9.501589468865976e+01, 2.513992983049971e+02
395, 3.846478257435448e-16, 7.999999999999901e-03, 4.117738519413701e-04, -1.235525617836745e-05, 1.571006429855558e+01, 2.082032273995331e+01, 8.665449215235707e+01, 1.733843095036847e+02
396, 5.000000000027218e-05, 7.999999999998840e-03, 4.116341099454583e-04, -1.610032724496681e-05, 1.570354110122980e+01, -1.365969735161005e+02, 7.144816934560346e+01, 2.088415915569880e+02
397, 1.000000000001936e-04, 7.999999999997775e-03, 4.114966117699950e-04, -1.984589746325593e-05, 1.451467022489977e+01, -2.926757204243012e+02, 4.942854749684371e+01, 3.227052235985647e+02
398, 1.500000000001103e-04, 7.999999999996709e-03, 4.113613217366862e-04, -2.359230342928401e-05, 1.199310333196197e+01, -4.471128471751674e+02, 2.062744868690504e+01, 4.609557900150278e+02
399, 2.000000000000435e-04, 7.999999999995648e-03, 4.112281972101976e-04, -2.733988127602109e-05, 7.988413510987794e+00, -5.996048834611058e+02, -1.492315085770152e+01, 6.083259128555233e+02
400, -1.999999999999309e-04, 7.900000000004136e-03, 4.048600662096435e-04, 2.883942527678218e-06, 7.415940044387654e+00, 7.142937134872145e+02, 8.428073919296818e+01, 7.266974326245697e+02
401, -1.499999999998538e-04, 7.900000000003030e-03, 4.047108516272883e-04, -8.567729173659414e-07, 1.069818379835915e+01, 5.403231482040781e+02, 9.665140248397694e+01, 5.637983481088231e+02
402, -9.999999999974523e-05, 7.900000000001926e-03, 4.045641571494685e-04, -4.596607239069337e-06, 1.335796274032054e+01, 3.665236821849386e+02, 1.017810315960845e+02, 4.076316216412648e+02
403, -4.999999999967128e-05, 7.900000000000816e-03, 4.044199739258539e-04, -8.335913691719244e-06, 1.524613969876733e+01, 1.931983207350107e+02, 9.970152069927300e+01, 2.672612049186080e+02
404, 3.718271350539037e-16, 7.899999999999709e-03, 4.042782861471822e-04, -1.207504508838052e-05, 1.621180822329778e+01, 2.064900702924006e+01, 9.044396881931611e+01, 1.809423519146393e+02
405, 5.000000000026201e-05, 7.899999999998603e-03, 4.041390710473641e-04, -1.581435379651986e-05, 1.610432021543376e+01, -1.508217211268257e+02, 7.403955093545505e+01, 2.231405917557204e+02
406, 1.000000000001860e-04, 7.899999999997496e-03, 4.040022989008813e-04, -1.955419173928183e-05, 1.477295767909606e+01, -3.209109449382028e+02, 5.051953640167532e+01, 3.505603752698541e+02
407, 1.500000000001060e-04, 7.899999999996389e-03, 4.038679330193118e-04, -2.329491039262170e-05, 1.206682011136802e+01, -4.893154293534541e+02, 1.991535902479314e+01, 5.029618734842143e+02
408, 2.000000000000416e-04, 7.899999999995286e-03, 4.037359297465553e-04, -2.703686077948753e-05, 7.835169888620925e+00, -6.557312904135501e+02, -1.774129531784609e+01, 6.645144554305593e+02
409, -1.999999999999328e-04, 7.800000000004094e-03, 3.973758748771482e-04, 3.138215219843371e-06, 7.891112085787299e+00, 7.731515158451153e+02, 8.999973135895962e+01, 7.861445745794022e+02
410, -1.499999999998583e-04, 7.800000000002947e-03, 3.972263874265730e-04, -5.962644609254543e-07, 1.124236884717403e+01, 5.843588364057945e+02, 1.023392862231477e+02, 6.085686513496440e+02
411, -9.999999999975283e-05, 7.800000000001799e-03, 3.970796318373147e-04, -4.329834171841234e-06, 1.392818670452437e+01, 3.957776349440192e+02, 1.071376863003957e+02, 4.378617777609900e+02
412, -4.999999999968147e-05, 7.800000000000654e-03, 3.969355982599799e-04, -8.062862036580346e-06, 1.579919942787969e+01, 2.077105183429269e+02, 1.044251235256669e+02, 2.836342363346077e+02
413, 3.590064443642627e-16, 7.799999999999507e-03, 3.967942698977761e-04, -1.179571572929139e-05, 1.670549114944727e+01, 2.046027855556386e+01, 9.423246219962084e+01, 1.885023240102811e+02
414, 5.000000000025183e-05, 7.799999999998360e-03, 3.966556229966004e-04, -1.552876249174565e-05, 1.649674266457177e+01, -1.656699244608068e+02, 7.659050033372056e+01, 2.380107425664797e+02
415, 1.000000000001784e-04, 7.799999999997211e-03, 3.965196268386787e-04, -1.926236913162507e-05, 1.502234128323599e+01, -3.503766080316837e+02, 5.153014847570778e+01, 3.796548655926343e+02
416, 1.500000000001016e-04, 7.799999999996065e-03, 3.963862437374933e-04, -2.299690202000540e-05, 1.213141367459372e+01, -5.333559837652733e+02, 1.908243597389807e+01, 5.468208648328182e+02
417, 2.000000000000397e-04, 7.799999999994919e-03, 3.962554290329274e-04, -2.673272709041912e-05, 7.672132569180640e+00, -7.143045377436747e+02, -2.072140487902326e+01, 7.231651394783070e+02
418, -1.999999999999347e-04, 7.700000000003952e-03, 3.899041696082619e-04, 3.389443195361384e-06, 8.381890899127939e+00, 8.344343847678853e+02, 9.587416725668113e+01, 8.480154163784063e+02
419, -1.499999999998626e-04, 7.700000000002785e-03, 3.897544174586777e-04, -3.382777887861195e-07, 1.179328123855387e+01, 6.302091291477526e+02, 1.081447426689578e+02, 6.551483056629191e+02
420, -9.999999999976044e-05, 7.700000000001617e-03, 3.896076175084446e-04, -4.065060546712989e-06, 1.449918146557881e+01, 4.262370603373521e+02, 1.125725638263842e+02, 4.692743434320786e+02
421, -4.999999999969162e-05, 7.700000000000449e-03, 3.894637589428192e-04, -7.791288015239115e-06, 1.634884630904897e+01, 2.228192595228447e+02, 1.091880754444625e+02, 3.005298234946711e+02
422, 3.461857536746216e-16, 7.699999999999279e-03, 3.893228239985054e-04, -1.151734273241605e-05, 1.719256549522298e+01, 2.025908287548336e+01, 9.802127088715390e+01, 1.960665236958483e+02
423, 5.000000000024164e-05, 7.699999999998113e-03, 3.891847879492121e-04, -1.524360682230598e-05, 1.687985107747248e+01, -1.811399680725268e+02, 7.910241508817641e+01, 2.534573279022073e+02
424, 1.000000000001708e-04, 7.699999999996944e-03, 3.890496190973912e-04, -1.897046198987593e-05, 1.525984468443088e+01, -3.810740657032616e+02, 5.246196793602812e+01, 4.099873179039600e+02
425, 1.500000000000973e-04, 7.699999999995776e-03, 3.889172787687609e-04, -2.269828951510296e-05, 1.218143926712550e+01, -5.792390782386395e+02, 1.813058167844792e+01, 5.925310966479162e+02
426, 2.000000000000377e-04, 7.699999999994609e-03, 3.887877213088869e-04, -2.642747024790478e-05, 7.493462961497563e+00, -7.753304604868993e+02, -2.386116773089261e+01, 7.842771936152859e+02
427, -1.999999999999367e-04, 7.600000000003967e-03, 3.824460081753286e-04, 3.637464602773060e-06, 8.882654806859392e+00, 8.981412715000943e+02, 1.019013224428507e+02, 9.123137647901476e+02
428, -1.499999999998669e-04, 7.600000000002791e-03, 3.822960008019615e-04, -8.295377522473619e-08, 1.234991339645975e+01, 6.778780576894676e+02, 1.140647398696057e+02, 7.035415910748831e+02
429, -9.999999999976803e-05, 7.600000000001615e-03, 3.821491745462994e-04, -3.802406129749166e-06, 1.506976161405615e+01, 4.579050111199917e+02, 1.180850209060916e+02, 5.018758281234039e+02
430, -4.999999999970180e-05, 7.600000000000435e-03, 3.820055176751254e-04, -7.521290253457901e-06, 1.689479709702853e+01, 2.385273537474698e+02, 1.139908876368355e+02, 3.179570411617672e+02
431, 3.333650629849805e-16, 7.599999999999259e-03, 3.818650114864060e-04, -1.124000356202405e-05, 1.767408838799705e+01, 2.004815898216926e+01, 1.018117189303967e+02, 2.036372771803691e+02
432, 5.000000000023146e-05, 7.599999999998081e-03, 3.817276303025728e-04, -1.495894308029426e-05, 1.725659552360648e+01, -1.972288602578822e+02, 8.157723131753146e+01, 2.694872713497413e+02
433, 1.000000000001632e-04, 7.599999999996904e-03, 3.815933414643277e-04, -1.867850542868508e-05, 1.549106160918245e+01, -4.129995686092414e+02, 5.331744261586584e+01, 4.415599833922529e+02
434, 1.500000000000929e-04, 7.599999999995727e-03, 3.814621053264103e-04, -2.239908681234348e-05, 1.222617021973478e+01, -6.269593706955316e+02, 1.706263204788372e+01, 6.400958438896065e+02
435, 2.000000000000358e-04, 7.599999999994550e-03, 3.813338752557804e-04, -2.612108301260139e-05, 7.311288560407988e+00, -8.388028140911988e+02, -2.715653590452220e+01, 8.478555209912053e+02
436, -1.999999999999386e-04, 7.500000000004145e-03, 3.750024908323841e-04, 3.882114471417665e-06, 9.363819112706352e+00, 9.642516320392218e+02, 1.080820483552890e+02, 9.790493613614607e+02
437, -1.499999999998712e-04, 7.500000000002950e-03, 3.748522388294009e-04, 1.695637736535766e-07, 1.288697193554674e+01, 7.273463011556225e+02, 1.201021049313669e+02, 7.537573850685517e+02
438, -9.999999999977570e-05, 7.500000000001755e-03, 3.747054055414277e-04, -3.541993551653676e-06, 1.562612960744416e+01, 4.907711739835233e+02, 1.236775399516754e+02, 5.356746668913318e+02
439, -4.999999999971198e-05, 7.500000000000564e-03, 3.745619783150542e-04, -7.252970181875561e-06, 1.742915507962947e+01, 2.548289456757299e+02, 1.188361382531403e+02, 3.359267354569300e+02
440, 3.205443722953394e-16, 7.499999999999370e-03, 3.744219375169167e-04, -1.096377843893719e-05, 1.814552134999910e+01, 1.982398008639282e+01, 1.056066939378905e+02, 2.112200569114942e+02
441, 5.000000000022125e-05, 7.499999999998177e-03, 3.742852565285310e-04, -1.467483026842143e-05, 1.762426845477904e+01, -2.139392073494420e+02, 8.401840269867557e+01, 2.861083908148786e+02
442, 1.000000000001556e-04, 7.499999999996980e-03, 3.741519017418272e-04, -1.838653722520456e-05, 1.571417300212478e+01, -4.461557465255253e+02, 5.410079281604381e+01, 4.743747523823079e+02
443, 1.500000000000885e-04, 7.499999999995787e-03, 3.740218325541713e-04, -2.209931046056675e-05, 1.226378223261607e+01, -6.765203888845255e+02, 1.588375668737385e+01, 6.895163589702152e+02
444, 2.000000000000339e-04, 7.499999999994593e-03, 3.738950013643334e-04, -2.581356070504494e-05, 7.121111858195562e+00, -9.047278100842370e+02, -3.060233743288139e+01, 9.139006886270523e+02
445, -1.999999999999404e-04, 7.400000000004559e-03, 3.675747586569903e-04, 4.123225414902729e-06, 9.887192624294670e+00, 1.032814875113856e+03, 1.144096717598440e+02, 1.048207677691899e+03
446, -1.499999999998756e-04, 7.400000000003323e-03, 3.674242743089518e-04, 4.191285536613230e-07, 1.345272103136908e+01, 7.786520780318904e+02, 1.262529475304312e+02, 8.057848863030991e+02
447, -9.999999999978329e-05, 7.400000000002085e-03, 3.672774548129382e-04, -3.283947984251300e-06, 1.619791092837811e+01, 5.248588295429396e+02, 1.293477542400658e+02, 5.706656606399262e+02
448, -4.999999999972218e-05, 7.400000000000849e-03, 3.671342866420048e-04, -6.986431813542479e-06, 1.796989918748474e+01, 2.717382675692770e+02, 1.237227164637601e+02, 3.544398779311450e+02
449, 3.077507866600104e-16, 7.399999999999613e-03, 3.669947492661458e-04, -1.068875019429854e-05, 1.861685404306344e+01, 1.959456076094219e+01, 1.094062364202920e+02, 2.188146571439799e+02
450, 5.000000000021107e-05, 7.399999999998373e-03, 3.668588151557324e-04, -1.439133001777973e-05, 1.798713172152314e+01, -2.312675480140176e+02, 8.642702388107455e+01, 3.033255960149527e+02
451, 1.000000000001480e-04, 7.399999999997137e-03, 3.667264497788001e-04, -1.809459779624228e-05, 1.592891120940249e+01, -4.805428949925614e+02, 5.481407756091239e+01, 5.084314966137083e+02
452, 1.500000000000842e-04, 7.399999999995899e-03, 3.665976115961341e-04, -2.179897965234050e-05, 1.228996099616889e+01, -7.279259857979312e+02, 1.459670502185948e+01, 7.407914032156872e+02
453, 2.000000000000320e-04, 7.399999999994663e-03, 3.664722520529430e-04, -2.550490130840225e-05, 6.917396732941597e+00, -9.731110084047002e+02, -3.419542393000550e+01, 9.824118194258664e+02
454, -1.999999999999424e-04, 7.300000000004963e-03, 3.601639969358295e-04, 4.360627386928439e-06, 1.041145234387831e+01, 1.103805291961691e+03, 1.208771270960250e+02, 1.119801414508009e+03
455, -1.499999999998800e-04, 7.300000000003675e-03, 3.600132935651745e-04, 6.655916610152883e-07, 1.402155817329472e+01, 8.317799351281525e+02, 1.325094478602022e+02, 8.596300240037605e+02
456, -9.999999999979085e-05, 7.300000000002383e-03, 3.598665098281463e-04, -3.028397187332033e-06, 1.677080383495280e+01, 5.601600890955692e+02, 1.350899563594506e+02, 6.068517945700058e+02
457, -4.999999999973237e-05, 7.300000000001096e-03, 3.597236313191694e-04, -6.721781751428074e-06, 1.850868835562991e+01, 2.892511999315400e+02, 1.286467517578791e+02, 3.734989351067085e+02
458, 2.949029909160572e-16, 7.299999999999806e-03, 3.595846366247050e-04, -1.041500425608113e-05, 1.908330886255793e+01, 1.935789675430859e+01, 1.132080472631951e+02, 2.264162610306371e+02
459, 5.000000000020089e-05, 7.299999999998517e-03, 3.594494973222038e-04, -1.410850656286934e-05, 1.834266545012915e+01, -2.492147455613324e+02, 8.880212194662343e+01, 3.211389662374344e+02
460, 1.000000000001404e-04, 7.299999999997227e-03, 3.593181779768939e-04, -1.780273016542711e-05, 1.613456200929971e+01, -5.161611710763123e+02, 5.545743454245157e+01, 5.437286599447102e+02
461, 1.500000000000799e-04, 7.299999999995936e-03, 3.591906361360889e-04, -2.149811618379771e-05, 1.230655352689952e+01, -7.811752640470761e+02, 1.320263658409424e+01, 7.939210497723225e+02
462, 2.000000000000302e-04, 7.299999999994650e-03, 3.590668223217722e-04, -2.519510536078601e-05, 6.705637582651150e+00, -1.043950494125836e+03, -3.793348362238147e+01, 1.053391714328321e+03
463, -1.999999999999443e-04, 7.200000000005343e-03, 3.527714335608198e-04, 4.594147312644710e-06, 1.093478464159654e+01, 1.177228508203356e+03, 1.274832562565012e+02, 1.193837917023327e+03
464, -1.499999999998843e-04, 7.200000000003976e-03, 3.526205256117353e-04, 9.088013524077374e-07, 1.458642242698672e+01, 8.867301353700911e+02, 1.388702058422236e+02, 9.153001651419224e+02
465, -9.999999999979844e-05, 7.200000000002606e-03, 3.524738007439824e-04, -2.775471655566258e-06, 1.733913429708072e+01, 5.966751846286834e+02, 1.409020638985065e+02, 6.442389507451845e+02
466, -4.999999999974257e-05, 7.200000000001237e-03, 3.523312436729161e-04, -6.459129261748878e-06, 1.904143452160648e+01, 3.073680843415093e+02, 1.336064333350971e+02, 3.931093653304025e+02
467, 2.821094052807283e-16, 7.199999999999870e-03, 3.521928321098238e-04, -1.014262866539482e-05, 1.954193619006431e+01, 1.911409874140710e+01, 1.170109657253026e+02, 2.340223225351680e+02
468, 5.000000000019069e-05, 7.199999999998501e-03, 3.520585367548869e-04, -1.382642671217554e-05, 1.868870110466804e+01, -2.677812587678670e+02, 9.114338611512386e+01, 3.395489732564274e+02
469, 1.000000000001328e-04, 7.199999999997132e-03, 3.519283212908707e-04, -1.751097989382993e-05, 1.632940277961858e+01, -5.530120277611103e+02, 5.603151700959283e+01, 5.802652739254254e+02
470, 1.500000000000756e-04, 7.199999999995762e-03, 3.518021423759038e-04, -2.119674434605054e-05, 1.231133019538254e+01, -8.362717441122611e+02, 1.170332729046201e+01, 8.489058283932810e+02
471, 2.000000000000282e-04, 7.199999999994395e-03, 3.516799496355764e-04, -2.488417584409063e-05, 6.481953453394119e+00, -1.117252921034367e+03, -4.181311258626407e+01, 1.126842231049507e+03
472, -1.999999999999461e-04, 7.100000000005715e-03, 3.453983387212587e-04, 4.823609699521724e-06, 1.148011638840465e+01, 1.253105814399885e+03, 1.342221716013975e+02, 1.270313638185498e+03
473, -1.499999999998886e-04, 7.100000000004259e-03, 3.452472419367439e-04, 1.148603353151482e-06, 1.516348820854490e+01, 9.435197720200092e+02, 1.453306855791202e+02, 9.727946455320470e+02
474, -9.999999999980600e-05, 7.100000000002804e-03, 3.451006002825885e-04, -2.525304421978632e-06, 1.791176760498865e+01, 6.344152216459281e+02, 1.467807942725478e+02, 6.828286132797371e+02
475, -4.999999999975274e-05, 7.100000000001348e-03, 3.449583976312840e-04, -6.198586137718258e-06, 1.957341588729878e+01, 3.260965704451950e+02, 1.385995567330988e+02, 4.132744763308881e+02
476, 2.692616095367750e-16, 7.099999999999895e-03, 3.448206108480657e-04, -9.871713967705484e-06, 1.999659751549456e+01, 1.886881106815626e+01, 1.208139775279348e+02, 2.416305869850754e+02
477, 5.000000000018050e-05, 7.099999999998441e-03, 3.446872097848487e-04, -1.354515974880479e-05, 1.902925521003857e+01, -2.869623731954957e+02, 9.345110560952789e+01, 3.585572662948600e+02
478, 1.000000000001252e-04, 7.099999999996985e-03, 3.445581572727307e-04, -1.721939498095186e-05, 1.651896166365385e+01, -5.910907470771538e+02, 5.653807040327459e+01, 6.180418851306046e+02
479, 1.500000000000712e-04, 7.099999999995530e-03, 3.444334091145921e-04, -2.089489082596794e-05, 1.231293908006205e+01, -8.932094837568058e+02, 1.010209761507455e+01, 9.057477947890623e+02
480, 2.000000000000263e-04, 7.099999999994075e-03, 3.443129140770685e-04, -2.457211810703821e-05, 6.257867000460408e+00, -1.193011328353040e+03, -4.582929045724410e+01, 1.202766768072301e+03
481, -1.999999999999481e-04, 7.000000000006086e-03, 3.380460260673671e-04, 5.048836521050221e-06, 1.201871958230954e+01, 1.331418804149788e+03, 1.410886373409041e+02, 1.349237042740645e+03
482, -1.499999999998929e-04, 7.000000000004546e-03, 3.378947571754380e-04, 1.384840879192804e-06, 1.573362554485033e+01, 1.002137963259570e+03, 1.518866648712500e+02, 1.032120028545741e+03
483, -9.999999999981362e-05, 7.000000000003004e-03, 3.377482241124489e-04, -2.278031023709928e-06, 1.847623659252781e+01, 6.733744511656885e+02, 1.527231517917228e+02, 7.226265396620192e+02
484, -4.999999999976293e-05, 7.000000000001462e-03, 3.376064099233077e-04, -5.940266656150363e-06, 2.009546254348191e+01, 3.454329678917685e+02, 1.436243471338525e+02, 4.340003510882772e+02
485, 2.564544713742900e-16, 6.999999999999921e-03, 3.374692906484263e-04, -9.602353167191679e-06, 2.043975291363631e+01, 1.861890422051671e+01, 1.246165257683741e+02, 2.492397028330010e+02
486, 5.000000000017032e-05, 6.999999999998381e-03, 3.373368353132377e-04, -1.326477738864309e-05, 1.935696401380778e+01, -3.067619049772870e+02, 9.572601244424746e+01, 3.781631850748242e+02
487, 1.000000000001176e-04, 6.999999999996837e-03, 3.372090059201275e-04, -1.692802583396184e-05, 1.669454049727086e+01, -6.304030419705845e+02, 5.697921132300536e+01, 6.570554035450205e+02
488, 1.500000000000668e-04, 6.999999999995296e-03, 3.370857574402223e-04, -2.059258469802162e-05, 1.229949994115013e+01, -9.519975133840270e+02, 8.402619036397851e+00, 9.644434384320006e+02
489, 2.000000000000244e-04, 6.999999999993755e-03, 3.369670378049056e-04, -2.425893985595249e-05, 6.017960676126776e+00, -1.271238066746975e+03, -4.997731118288148e+01, 1.281161147600459e+03
490, -1.999999999999499e-04, 6.900000000006458e-03, 3.307158515915110e-04, 5.269647316156347e-06, 1.256463352847739e+01, 1.412182803356224e+03, 1.480785827304678e+02, 1.430608292987926e+03
491, -1.499999999998973e-04, 6.900000000004828e-03, 3.305644284560275e-04, 1.617354718997611e-06, 1.630391618870524e+01, 1.062594426310945e+03, 1.585351013242689e+02, 1.093278255971205e+03
492, -9.999999999982122e-05, 6.900000000003202e-03, 3.304180304677800e-04, -2.033789410370212e-06, 1.903572395875466e+01, 7.135589591521561e+02, 1.587270102042072e+02, 7.636357635004890e+02
493, -4.999999999977310e-05, 6.900000000001573e-03, 3.302766398809935e-04, -5.684287490068765e-06, 2.060931268728967e+01, 3.653816816058286e+02, 1.486796427125540e+02, 4.552916988022425e+02
494, 2.436337806846489e-16, 6.899999999999946e-03, 3.301402319400851e-04, -9.334641648041278e-06, 2.087265858942636e+01, 1.836776227273712e+01, 1.284184278612755e+02, 2.568490703954441e+02
495, 5.000000000016015e-05, 6.899999999998319e-03, 3.300087748724881e-04, -1.298535371422022e-05, 1.967339806017030e+01, -3.271769459710118e+02, 9.796890961701654e+01, 3.983676570214229e+02
496, 1.000000000001100e-04, 6.899999999996692e-03, 3.298822298802578e-04, -1.663692522019345e-05, 1.685877552036284e+01, -6.709459313632981e+02, 5.735670418316550e+01, 6.973051562051863e+02
497, 1.500000000000625e-04, 6.899999999995065e-03, 3.297605511317051e-04, -2.028985739853052e-05, 1.227562471183872e+01, -1.012632045907922e+03, 6.607495822505346e+00, 1.024992863048032e+03
498, 2.000000000000225e-04, 6.899999999993437e-03, 3.296436857529150e-04, -2.394465118450111e-05, 5.770922364976485e+00, -1.351927069757190e+03, -5.425297613053676e+01, 1.362026937871879e+03
499, -1.999999999999519e-04, 6.800000000006828e-03, 3.234092142301992e-04, 5.485859367344289e-06, 1.310515203341102e+01, 1.495389158822747e+03, 1.551873783371031e+02, 1.514430046705367e+03
500, -1.499999999999017e-04, 6.800000000005111e-03, 3.232576557177106e-04, 1.845983390042346e-06, 1.686560046141508e+01, 1.124883610397950e+03, 1.652727204125552e+02, 1.156271680356302e+03
501, -9.999999999982880e-05, 6.800000000003401e-03, 3.231114203164655e-04, -1.792719790288497e-06, 1.958560446076510e+01, 7.549667142274532e+02, 1.647903474036107e+02, 8.058590515662751e+02
502, -4.999999999978328e-05, 6.800000000001686e-03, 3.229704895112400e-04, -5.430767560940379e-06, 2.111257652469331e+01, 3.859424383901363e+02, 1.537646002024287e+02, 4.771530542817568e+02
503, 2.308130899950078e-16, 6.799999999999972e-03, 3.228348377781090e-04, -9.068677028195447e-06, 2.129457767117867e+01, 1.811611832263472e+01, 1.322201363495219e+02, 2.644593738723871e+02
504, 5.000000000014997e-05, 6.799999999998255e-03, 3.227044325765562e-04, -1.270696502191243e-05, 1.997933336009240e+01, -3.482061340646605e+02, 1.001816354392698e+02, 4.191729699538496e+02
505, 1.000000000001024e-04, 6.799999999996542e-03, 3.225792343402955e-04, -1.634614809468303e-05, 1.701412865190845e+01, -7.127175177359495e+02, 5.767386012091139e+01, 7.387918328628976e+02
506, 1.500000000000582e-04, 6.799999999994830e-03, 3.224591964680880e-04, -1.998674252094901e-05, 1.224589108979673e+01, -1.075110496750681e+03, 4.721682588078046e+00, 1.087397393469077e+03
507, 2.000000000000206e-04, 6.799999999993115e-03, 3.223442653160418e-04, -2.362926429456352e-05, 5.521113498171729e+00, -1.435076969965478e+03, -5.864982567376111e+01, 1.445365713681278e+03
508, -1.999999999999538e-04, 6.700000000007203e-03, 3.161275553211770e-04, 5.697287867724295e-06, 1.365515581832153e+01, 1.581051133686962e+03, 1.624078186293052e+02, 1.600698394341204e+03
509, -1.499999999999060e-04, 6.700000000005407e-03, 3.159758814193543e-04, 2.070563337700210e-06, 1.743114842897519e+01, 1.189017198284762e+03, 1.720945460473973e+02, 1.221097868040775e+03
510, -9.999999999983645e-05, 6.700000000003612e-03, 3.158298371865140e-04, -1.554964472976638e-06, 2.013303400801472e+01, 7.976055033026988e+02, 1.709097414269947e+02, 8.492961788267637e+02
511, -4.999999999979346e-05, 6.700000000001816e-03, 3.156894033777094e-04, -5.179827905662425e-06, 2.160883858545878e+01, 4.071201694914366e+02, 1.588775725507365e+02, 4.995871480486227e+02
512, 2.179923993053667e-16, 6.700000000000018e-03, 3.155545537409610e-04, -8.804559046287447e-06, 2.170666917420293e+01, 1.786671826094712e+01, 1.360217336682738e+02, 2.720705668452718e+02
513, 5.000000000013978e-05, 6.699999999998221e-03, 3.154252550061076e-04, -1.242968972637572e-05, 2.027409009740860e+01, -3.698486180981859e+02, 1.023659812866915e+02, 4.405801901459189e+02
514, 1.000000000000948e-04, 6.699999999996424e-03, 3.153014668743831e-04, -1.605575152350870e-05, 1.715816974966248e+01, -7.557188891576873e+02, 5.793417059301245e+01, 7.815141845638350e+02
515, 1.500000000000538e-04, 6.699999999994629e-03, 3.151831420085728e-04, -1.968327575952452e-05, 1.220543362200405e+01, -1.139436497869912e+03, 2.750304035643239e+00, 1.151655067743630e+03
516, 2.000000000000187e-04, 6.699999999992831e-03, 3.150702260229111e-04, -2.331279349643022e-05, 5.261841142328123e+00, -1.520693192599892e+03, -6.316144951449306e+01, 1.531174790748041e+03
517, -1.999999999999557e-04, 6.600000000007607e-03, 3.088723595973508e-04, 5.903746013193128e-06, 1.420698986892219e+01, 1.669168011544838e+03, 1.697324196384710e+02, 1.689417757800572e+03
518, -1.499999999999103e-04, 6.600000000005753e-03, 3.087205911650109e-04, 2.290928953998067e-06, 1.799336576672425e+01, 1.254994901517877e+03, 1.789937337745104e+02, 1.287760779948230e+03
519, -9.999999999984406e-05, 6.600000000003900e-03, 3.085747675645477e-04, -1.320667826468943e-06, 2.067223730000482e+01, 8.414752698460910e+02, 1.770808648940038e+02, 8.939508650274271e+02
520, -4.999999999980367e-05, 6.600000000002050e-03, 3.084348688636977e-04, -4.931591622727620e-06, 2.209377674105151e+01, 4.289151414376093e+02, 1.640163583365968e+02, 5.225983983725605e+02
521, 2.051717086157256e-16, 6.600000000000198e-03, 3.083008681212587e-04, -8.542389500843576e-06, 2.210582327548606e+01, 1.762002960011220e+01, 1.398229345546403e+02, 2.796818450575277e+02
522, 5.000000000012958e-05, 6.599999999998345e-03, 3.081727313739960e-04, -1.215360829991753e-05, 2.055562298088319e+01, -3.921037871477557e+02, 1.045234000948040e+02, 4.625887519571029e+02
523, 1.000000000000872e-04, 6.599999999996491e-03, 3.080504176258816e-04, -1.576579462961261e-05, 1.728992636443267e+01, -7.999492508325063e+02, 5.814068797517724e+01, 8.254703090592886e+02
524, 1.500000000000495e-04, 6.599999999994639e-03, 3.079338788378962e-04, -1.937949486779827e-05, 1.215501606956479e+01, -1.205608508698652e+03, 6.978557341113429e-01, 1.217764324599145e+03
525, 2.000000000000168e-04, 6.599999999992787e-03, 3.078230599177063e-04, -2.299525516011804e-05, 4.996516318672974e+00, -1.608773071813434e+03, -6.778187700549041e+01, 1.619453554437923e+03
526, -1.999999999999576e-04, 6.500000000008018e-03, 3.016451548453518e-04, 6.105044779080352e-06, 1.473814498180690e+01, 1.759726780392910e+03, 1.771571945430333e+02, 1.780596536003408e+03
527, -1.499999999999147e-04, 6.500000000006126e-03, 3.014933134618775e-04, 2.506912500325149e-06, 1.853274787987331e+01, 1.322805224210598e+03, 1.859684406599146e+02, 1.356268312761086e+03
528, -9.999999999985163e-05, 6.500000000004228e-03, 3.013477407321821e-04, -1.089976290395669e-06, 2.119024635172903e+01, 8.865691089232341e+02, 1.833026216981617e+02, 9.398297613244803e+02
529, -4.999999999981387e-05, 6.500000000002332e-03, 3.012084160639698e-04, -4.686183832944631e-06, 2.255876588392758e+01, 4.513232528263412e+02, 1.691808737174108e+02, 5.461937910578416e+02
530, 1.923510179260846e-16, 6.500000000000438e-03, 3.010753118532693e-04, -8.282272178163692e-06, 2.248621232036072e+01, 1.737353101990269e+01, 1.436248123629473e+02, 2.872951207647762e+02
531, 5.000000000011942e-05, 6.499999999998543e-03, 3.009483934723846e-04, -1.187880317721763e-05, 2.081981968517316e+01, -4.149734943077584e+02, 1.066562394689705e+02, 4.851989552663850e+02
532, 1.000000000000796e-04, 6.499999999996646e-03, 3.008276192586587e-04, -1.547633847815466e-05, 1.740625685137589e+01, -8.454104749774499e+02, 5.829708828254516e+01, 8.706588968894005e+02
533, 1.500000000000451e-04, 6.499999999994751e-03, 3.007129405032545e-04, -1.907543952345691e-05, 1.209165441678320e+01, -1.273629262821320e+03, -1.430560749665901e+00, 1.285724100668501e+03
534, 2.000000000000149e-04, 6.499999999992855e-03, 3.006043014403704e-04, -2.267666754639937e-05, 4.721809663909454e+00, -1.699320740319364e+03, -7.250455900027112e+01, 1.710201349682777e+03
535, -1.999999999999595e-04, 6.400000000008258e-03, 2.944475107115250e-04, 6.300993431135350e-06, 1.527363781821552e+01, 1.852746734554674e+03, 1.846764661877204e+02, 1.874227566194834e+03
536, -1.499999999999190e-04, 6.400000000006336e-03, 2.942956189766215e-04, 2.718344473587066e-06, 1.906920459783996e+01, 1.392463858588325e+03, 1.930151334030541e+02, 1.426615660400530e+03
537, -9.999999999985919e-05, 6.400000000004416e-03, 2.941503283125857e-04, -8.630380802197923e-07, 2.169970879979732e+01, 9.328973975388191e+02, 1.895729441269390e+02, 9.869310171147513e+02
538, -4.999999999982406e-05, 6.400000000002495e-03, 2.940116175150150e-04, -4.443731440827883e-06, 2.301202231879313e+01, 4.743516383373798e+02, 1.743704223554784e+02, 5.703749869669224e+02
539, 1.795438797635995e-16, 6.400000000000575e-03, 2.938794583605733e-04, -8.024312649244799e-06, 2.285354751698154e+01, 1.713234616761986e+01, 1.474281546933799e+02, 2.949118094109839e+02
540, 5.000000000010922e-05, 6.399999999998654e-03, 2.937538155993718e-04, -1.160535857339853e-05, 2.107137411445632e+01, -4.384537171164902e+02, 1.087668568123030e+02, 5.084134400604707e+02
541, 1.000000000000720e-04, 6.399999999996736e-03, 2.936346469439956e-04, -1.518744590535197e-05, 1.751204842089024e+01, -8.920989429008581e+02, 5.840737888614173e+01, 9.170811540789239e+02
542, 1.500000000000408e-04, 6.399999999994814e-03, 2.935219030580811e-04, -1.877115115861738e-05, 1.202154969148532e+01, -1.343494880791577e+03, -3.629288911583657e+00, 1.355535864616484e+03
543, 2.000000000000129e-04, 6.399999999992895e-03, 2.934155275446059e-04, -2.235705066630835e-05, 4.445429831889015e+00, -1.792332147143611e+03, -7.732188354592515e+01, 1.803420182825485e+03
544, -1.999999999999615e-04, 6.300000000008254e-03, 2.872810400991907e-04, 6.491399718731869e-06, 1.580974726905066e+01, 1.948225754505791e+03, 1.922804954243443e+02, 1.970309310922351e+03
545, -1.499999999999234e-04, 6.300000000006307e-03, 2.871291214237139e-04, 2.925053846212492e-06, 1.960274975831538e+01, 1.463971547211042e+03, 2.001258196136979e+02, 1.498800386228684e+03
546, -9.999999999986685e-05, 6.300000000004357e-03, 2.869841448293765e-04, -6.400029799727387e-07, 2.220149403755838e+01, 9.804617795237987e+02, 1.958864327156236e+02, 1.035252989770317e+03
547, -4.999999999983422e-05, 6.300000000002410e-03, 2.868460885376149e-04, -4.204362950749010e-06, 2.345403594543203e+01, 4.980016920631223e+02, 1.795820832940706e+02, 5.951423161629054e+02
548, 1.667096365468024e-16, 6.300000000000461e-03, 2.867149237509891e-04, -7.768618104571550e-06, 2.320779027505745e+01, 1.689732779826731e+01, 1.512323447151398e+02, 3.025305113353469e+02
549, 5.000000000009904e-05, 6.299999999998514e-03, 2.865906146422451e-04, -1.133336033218841e-05, 2.130961324032108e+01, -4.625444132789979e+02, 1.108568382194063e+02, 5.322327247539109e+02
550, 1.000000000000644e-04, 6.299999999996569e-03, 2.864731183432068e-04, -1.489918137591793e-05, 1.760580640826787e+01, -9.400157437549640e+02, 5.847529721316612e+01, 9.647364794977452e+02
551, 1.500000000000364e-04, 6.299999999994618e-03, 2.863623849330287e-04, -1.846667282819037e-05, 1.194210151187198e+01, -1.415207975178592e+03, -5.892401391646231e+00, 1.427198732823932e+03
552, 2.000000000000111e-04, 6.299999999992672e-03, 2.862583574261148e-04, -2.203642612868887e-05, 4.163278144865885e+00, -1.887811793342021e+03, -8.222625674653329e+01, 1.899108817398835e+03
553, -1.999999999999633e-04, 6.200000000008235e-03, 2.801473992616121e-04, 6.676069761311733e-06, 1.634267960812289e+01, 2.046166148912236e+03, 1.999603975238435e+02, 2.068845078503792e+03
554, -1.499999999999277e-04, 6.200000000006244e-03, 2.799954777021480e-04, 3.126867999512226e-06, 2.012754452737900e+01, 1.537328286230376e+03, 2.072931961050967e+02, 1.572825472590646e+03
555, -9.999999999987445e-05, 6.200000000004252e-03, 2.798508478379136e-04, -4.210223433617035e-07, 2.269079400456442e+01, 1.029262084413873e+03, 2.022378975655841e+02, 1.084797875884375e+03
556, -4.999999999984441e-05, 6.200000000002263e-03, 2.797134873575455e-04, -3.968208426039597e-06, 2.388127877576719e+01, 5.222734426531545e+02, 1.848128676411950e+02, 6.204981331135750e+02
557, 1.538618408028491e-16, 6.200000000000271e-03, 2.795833669307283e-04, -7.515297287935361e-06, 2.354632174781250e+01, 1.666851387288361e+01, 1.550365325709713e+02, 3.101493349463832e+02
558, 5.000000000008886e-05, 6.199999999998280e-03, 2.794604501951232e-04, -1.106289584825040e-05, 2.153252569846111e+01, -4.872457423715627e+02, 1.129273917249497e+02, 5.566558265818602e+02
559, 1.000000000000568e-04, 6.199999999996288e-03, 2.793446937444958e-04, -1.461161090609649e-05, 1.768589043489635e+01, -9.891614501717709e+02, 5.850402934996220e+01, 1.013623427653210e+03
560, 1.500000000000321e-04, 6.199999999994299e-03, 2.792360471165000e-04, -1.816204914006830e-05, 1.185178294816322e+01, -1.488769809886875e+03, -8.214868628924449e+00, 1.500711531623959e+03
561, 2.000000000000091e-04, 6.199999999992307e-03, 2.791344527794799e-04, -2.171481710847837e-05, 3.875153035048513e+00, -1.985760868409145e+03, -8.721052443525618e+01, 1.997266682272893e+03
562, -1.999999999999653e-04, 6.100000000008216e-03, 2.730482875481090e-04, 6.854808117257008e-06, 1.686040073048284e+01, 2.146561944391479e+03, 2.077095004115987e+02, 2.169839074981593e+03
563, -1.499999999999321e-04, 6.100000000006179e-03, 2.728963877134320e-04, 3.323612772384229e-06, 2.063374050274047e+01, 1.612529650207279e+03, 2.145125054577919e+02, 1.648694952780882e+03
564, -9.999999999988203e-05, 6.100000000004146e-03, 2.727521378146679e-04, -2.062490224009479e-07, 2.316089834314656e+01, 1.079295934484372e+03, 2.086240554614607e+02, 1.135569108700027e+03
565, -4.999999999985460e-05, 6.100000000002112e-03, 2.726155150455672e-04, -3.735399394321443e-06, 2.428958218977411e+01, 5.471660268124594e+02, 1.900610795318299e+02, 6.464461556483095e+02
566, 1.410275975860520e-16, 6.100000000000079e-03, 2.724864895804454e-04, -7.264460382719713e-06, 2.386703557961314e+01, 1.644611636260782e+01, 1.588408035842216e+02, 3.177682702460244e+02
567, 5.000000000007866e-05, 6.099999999998046e-03, 2.723650245626178e-04, -1.079405393652531e-05, 2.173988584145565e+01, -5.125566583570385e+02, 1.149805235124770e+02, 5.816828004086648e+02
568, 1.000000000000492e-04, 6.099999999996011e-03, 2.722510760918736e-04, -1.432480191455459e-05, 1.775411994752290e+01, -1.039534186959774e+03, 5.849759728251360e+01, 1.063741716524367e+03
569, 1.500000000000277e-04, 6.099999999993980e-03, 2.721445932113319e-04, -1.785732608639758e-05, 1.175510332550942e+01, -1.564177342430329e+03, -1.059053812862333e+01, 1.576074779817695e+03
570, 2.000000000000072e-04, 6.099999999991945e-03, 2.720455178942027e-04, -2.139224813299202e-05, 3.587582139679128e+00, -2.086175985438907e+03, -9.226630679656014e+01, 2.097895148442430e+03
571, -1.999999999999672e-04, 6.000000000008407e-03, 2.659854468189420e-04, 7.027418124694636e-06, 1.737465318973219e+01, 2.249422699146133e+03, 2.155195428298340e+02, 2.273286865493246e+03
572, -1.499999999999365e-04, 6.000000000006308e-03, 2.658335939852410e-04, 3.515112769122621e-06, 2.113070454197097e+01, 1.689583720471694e+03, 2.217778717612991e+02, 1.726405851466240e+03
573, -9.999999999988962e-05, 6.000000000004209e-03, 2.656897579149377e-04, 4.162881327961403e-09, 2.361755835146178e+01, 1.130569117566670e+03, 2.150408628420707e+02, 1.187565596174136e+03
574, -4.999999999986476e-05, 6.000000000002106e-03, 2.655539153536199e-04, -3.506068639222109e-06, 2.468203471613978e+01, 5.726833722200515e+02, 1.953246140935451e+02, 6.729875818982438e+02
575, 1.282204594235670e-16, 6.000000000000007e-03, 2.654260360284156e-04, -7.016218829437976e-06, 2.417122539473434e+01, 1.623257104463329e+01, 1.626451165913739e+02, 3.253870895364117e+02
576, 5.000000000006848e-05, 5.999999999997906e-03, 2.653060826371267e-04, -1.052692466553895e-05, 2.193170732477529e+01, -5.384760744691464e+02, 1.170183704693318e+02, 6.073138216806653e+02
577, 1.000000000000416e-04, 5.999999999995806e-03, 2.651940108347337e-04, -1.403882306575412e-05, 1.780938771174783e+01, -1.091134307241501e+03, 5.846041798612967e+01, 1.115090400129521e+03
578, 1.500000000000234e-04, 5.999999999993707e-03, 2.650897692192756e-04, -1.755255089205214e-05, 1.164945941190857e+01, -1.641432848700335e+03, -1.301262217936232e+01, 1.653287159188516e+03
579, 2.000000000000053e-04, 5.999999999991606e-03, 2.649932993174051e-04, -2.106874495089730e-05, 3.296291089298677e+00, -2.189061468991332e+03, -9.738454031114104e+01, 2.200992399567116e+03
580, -1.999999999999690e-04, 5.900000000008779e-03, 2.589606621982493e-04, 7.193702141153493e-06, 1.788696856162628e+01, 2.354751248998936e+03, 2.233792352506935e+02, 2.379186372722516e+03
581, -1.499999999999408e-04, 5.900000000006594e-03, 2.588088821697900e-04, 3.701191579991615e-06, 2.162071733479951e+01, 1.768494427522310e+03, 2.290800284448702e+02, 1.805956366326022e+03
582, -9.999999999989724e-05, 5.900000000004408e-03, 2.586654942978324e-04, 2.100582127669514e-07, 2.406213777983714e+01, 1.183085122261829e+03, 2.214819122308077e+02, 1.240786536169379e+03
583, -4.999999999987495e-05, 5.900000000002220e-03, 2.585304749304402e-04, -3.280350027464265e-06, 2.505920458234041e+01, 5.988283435503973e+02, 2.005998407588399e+02, 7.001229958243288e+02
584, 1.153862162067698e-16, 5.900000000000033e-03, 2.584037934029117e-04, -6.770685169703142e-06, 2.445906717878512e+01, 1.603018700350324e+01, 1.664484893927300e+02, 3.330036704084449e+02
585, 5.000000000005830e-05, 5.899999999997847e-03, 2.582854120225026e-04, -1.026159921537794e-05, 2.210816366449612e+01, -5.650021156408815e+02, 1.190424837462099e+02, 6.335478922795853e+02
586, 1.000000000000340e-04, 5.899999999995659e-03, 2.581752860533850e-04, -1.375374414219351e-05, 1.785220652924480e+01, -1.143960232230510e+03, 5.839648725784456e+01, 1.167668078587880e+03
587, 1.500000000000191e-04, 5.899999999993472e-03, 2.580733637017541e-04, -1.724777190631215e-05, 1.153617781454207e+01, -1.720534742431086e+03, -1.547476779990265e+01, 1.732347409301720e+03
588, 2.000000000000034e-04, 5.899999999991286e-03, 2.579795861008996e-04, -2.074433444437718e-05, 3.004363712561258e+00, -2.294415105643591e+03, -1.025564669240812e+02, 2.306557507154007e+03
589, -1.999999999999710e-04, 5.800000000009150e-03, 2.519757623552748e-04, 7.353461484835391e-06, 1.838637658255740e+01, 2.462544308900172e+03, 2.312780290863185e+02, 2.487542181564632e+03
590, -1.499999999999452e-04, 5.800000000006880e-03, 2.518240812374793e-04, 3.881671771935221e-06, 2.209328594853366e+01, 1.849258813424439e+03, 2.364106970971694e+02, 1.887351036665988e+03
591, -9.999999999990477e-05, 5.800000000004606e-03, 2.516811762486797e-04, 4.112808027623257e-07, 2.448661538209737e+01, 1.236842311931409e+03, 2.279415548677318e+02, 1.295235787298067e+03
592, -4.999999999988512e-05, 5.800000000002332e-03, 2.515470233932506e-04, -3.058378429215360e-06, 2.541522116060210e+01, 6.256002302401440e+02, 2.058837851086623e+02, 7.278561513145912e+02
593, 1.025655255171287e-16, 5.800000000000059e-03, 2.514215916680107e-04, -6.527972938026532e-06, 2.472637763393999e+01, 1.583878013079982e+01, 1.702505432619805e+02, 3.406170566976584e+02
594, 5.000000000004811e-05, 5.799999999997786e-03, 2.513048430427126e-04, -9.998169748493629e-06, 2.226638835567113e+01, -5.921347657779204e+02, 1.210550122299018e+02, 6.603832539856051e+02
595, 1.000000000000264e-04, 5.799999999995513e-03, 2.511967324435825e-04, -1.346963589853749e-05, 1.788076979046554e+01, -1.198011992173812e+03, 5.831043125864599e+01, 1.221472731652818e+03
596, 1.500000000000147e-04, 5.799999999993240e-03, 2.510972077377781e-04, -1.694303844070599e-05, 1.141430900014487e+01, -1.801483324953364e+03, -1.796988008609007e+01, 1.813253842559134e+03
597, 2.000000000000015e-04, 5.799999999990969e-03, 2.510062097184185e-04, -2.041904444339350e-05, 2.711100516534231e+00, -2.402238029794662e+03, -1.077725091689320e+02, 2.414588986621709e+03
598, -1.999999999999729e-04, 5.700000000009518e-03, 2.450326189651586e-04, 7.506496543411128e-06, 1.886442395352711e+01, 2.572799652764730e+03, 2.392077344163281e+02, 2.598358426734329e+03
599, -1.499999999999495e-04, 5.700000000007160e-03, 2.448810630945171e-04, 4.056374977083978e-06, 2.254013595608802e+01, 1.931874815608397e+03, 2.437643331088519e+02, 1.970594610595238e+03
600, -9.999999999991239e-05, 5.700000000004800e-03, 2.447386759143905e-04, 6.076735788877608e-07, 2.488433612241752e+01, 1.291839393359423e+03, 2.344163940638070e+02, 1.350917947279529e+03
601, -4.999999999989533e-05, 5.700000000002444e-03, 2.446054331439790e-04, -2.840289587999204e-06, 2.574517579430301e+01, 6.529984983253565e+02, 2.111751700050349e+02, 7.561921318903467e+02
602, 8.974483482748763e-17, 5.700000000000083e-03, 2.444813034938521e-04, -6.288196517396817e-06, 2.496974159613265e+01, 1.565831677149734e+01, 1.740522088156045e+02, 3.482289307433086e+02
603, 5.000000000003792e-05, 5.699999999997726e-03, 2.443662486480959e-04, -9.736729255650329e-06, 2.240425004646116e+01, -6.198737837946060e+02, 1.230591735505006e+02, 6.878192448125277e+02
604, 1.000000000000188e-04, 5.699999999995369e-03, 2.442602232475170e-04, -1.318656990107046e-05, 1.789410678232156e+01, -1.253289242283856e+03, 5.820781526454502e+01, 1.276502920472409e+03
605, 1.500000000000104e-04, 5.699999999993010e-03, 2.441631748734694e-04, -1.663840060424126e-05, 1.128394330778684e+01, -1.884278298315578e+03, -2.049001700584458e+01, 1.896005162191230e+03
606, 1.999999999999996e-04, 5.699999999990651e-03, 2.440750440321239e-04, -2.009290356821012e-05, 2.417657105525819e+00, -2.512529987108917e+03, -1.130223478265145e+02, 2.525085712916029e+03
607, -1.999999999999748e-04, 5.600000000009672e-03, 2.381331462924491e-04, 7.652607101041636e-06, 1.932296071185917e+01, 2.685519140616373e+03, 2.471598612314746e+02, 2.711633097923329e+03
608, -1.499999999999538e-04, 5.600000000007281e-03, 2.379817422762653e-04, 4.225122210451155e-06, 2.296349795439269e+01, 2.016344835116766e+03, 2.511353412749583e+02, 2.055686015396420e+03
609, -9.999999999991998e-05, 5.600000000004890e-03, 2.378399080855429e-04, 7.990788460046643e-07, 2.525677440061804e+01, 1.348078594375388e+03, 2.409030718634196e+02, 1.407833345085380e+03
610, -4.999999999990553e-05, 5.600000000002499e-03, 2.377076192131834e-04, -2.626219869880672e-06, 2.604982815754704e+01, 6.810250136560401e+02, 2.164728465180831e+02, 7.851334069681099e+02
611, 7.692414413784654e-17, 5.600000000000110e-03, 2.375848441406402e-04, -6.051470910843158e-06, 2.518951624379051e+01, 1.549029783096645e+01, 1.778546307569505e+02, 3.558414725191324e+02
612, 5.000000000002774e-05, 5.599999999997718e-03, 2.374715443229699e-04, -9.477371343373044e-06, 2.252197027015035e+01, -6.482180566879119e+02, 1.250585000589642e+02, 7.158566179841421e+02
613, 1.000000000000112e-04, 5.599999999995330e-03, 2.373676741722840e-04, -1.290461832601329e-05, 1.789250220320901e+01, -1.309791309520304e+03, 5.809462861063162e+01, 1.332758135374272e+03
614, 1.500000000000060e-04, 5.599999999992939e-03, 2.372731810408669e-04, -1.633390910923109e-05, 1.114558979003681e+01, -1.968919484805662e+03, -2.302669705844788e+01, 1.980600569207066e+03
615, 1.999999999999977e-04, 5.599999999990549e-03, 2.371880052043236e-04, -1.976594103506699e-05, 2.124864974193173e+00, -2.625291385284325e+03, -1.182950491130499e+02, 2.638046820414901e+03
616, -1.999999999999767e-04, 5.500000000009695e-03, 2.312793014378629e-04, 7.791592683933050e-06, 1.977246194836158e+01, 2.800710818373717e+03, 2.551225906722808e+02, 2.827360657454777e+03
617, -1.499999999999582e-04, 5.500000000007305e-03, 2.311280761305175e-04, 4.387734204196444e-06, 2.337212804229273e+01, 2.102675749343860e+03, 2.585147483071936e+02, 2.142620603356352e+03
618, -9.999999999992762e-05, 5.500000000004914e-03, 2.309868303230743e-04, 9.853385863148440e-07, 2.560990696284037e+01, 1.405565052241130e+03, 2.473956876790138e+02, 1.465979095385986e+03
619, -4.999999999991570e-05, 5.500000000002524e-03, 2.308555393450131e-04, -2.416305996861331e-06, 2.633301543909960e+01, 7.096835521409198e+02, 2.217739100291615e+02, 8.146794613154034e+02
620, 6.410345344820545e-17, 5.500000000000133e-03, 2.307341715138439e-04, -5.817911500898160e-06, 2.538811266673460e+01, 1.533746503014964e+01, 1.816578156575218e+02, 3.634546236819164e+02
621, 5.000000000001756e-05, 5.499999999997745e-03, 2.306226881200340e-04, -9.220190012986045e-06, 2.262112629976119e+01, -6.771656527027421e+02, 1.270558479959981e+02, 7.444959973744834e+02
622, 1.000000000000036e-04, 5.499999999995354e-03, 2.305210434103192e-04, -1.262385375310548e-05, 1.787716153844818e+01, -1.367516937125914e+03, 5.797653369447791e+01, 1.390238081211613e+03
623, 1.500000000000017e-04, 5.499999999992964e-03, 2.304291845703598e-04, -1.602961507463001e-05, 1.100045798462821e+01, -2.055406232354001e+03, -2.557149211698585e+01, 2.067039480685505e+03
624, 1.999999999999958e-04, 5.499999999990576e-03, 2.303470517069659e-04, -1.943818646452878e-05, 1.834369516986044e+00, -2.740522087171365e+03, -1.235794601313884e+02, 2.753471711749687e+03
625, -1.999999999999786e-04, 5.400000000009719e-03, 2.244730850207742e-04, 7.923252640937594e-06, 2.020672707455253e+01, 2.918372499139504e+03, 2.630827793923501e+02, 2.945541552519681e+03
626, -1.499999999999625e-04, 5.400000000007331e-03, 2.243220652916027e-04, 4.544031520439326e-06, 2.376113910493245e+01, 2.190866246615957e+03, 2.658921304843271e+02, 2.231398451019975e+03
627, -9.999999999993521e-05, 5.400000000004939e-03, 2.241814432808882e-04, 1.166294601668866e-06, 2.594043016845885e+01, 1.464298468390383e+03, 2.538871017577458e+02, 1.525355200559336e+03
628, -4.999999999992589e-05, 5.400000000002551e-03, 2.240511942145769e-04, -2.210684884890570e-06, 2.659249633517072e+01, 7.389743911204559e+02, 2.270745134290023e+02, 8.448309313785485e+02
629, 5.128276275856436e-17, 5.400000000000158e-03, 2.239312863100012e-04, -5.587633875816624e-06, 2.556401671921952e+01, 1.520033411958235e+01, 1.854611173537159e+02, 3.710669887195319e+02
630, 5.000000000000737e-05, 5.399999999997771e-03, 2.238216807578154e-04, -8.965279479937638e-06, 2.270076279613403e+01, -7.067160642175428e+02, 1.290536777181377e+02, 7.737365924272989e+02
631, 9.999999999999598e-05, 5.399999999995381e-03, 2.237223317042168e-04, -1.234434898088547e-05, 1.784763400784391e+01, -1.426465808028470e+03, 5.785902287845023e+01, 1.448941677556616e+03
632, 1.499999999999973e-04, 5.399999999992991e-03, 2.236331862329430e-04, -1.572556983858286e-05, 1.084864845839007e+01, -2.143738539793083e+03, -2.811592492413106e+01, 2.155320851454545e+03
633, 1.999999999999938e-04, 5.399999999990601e-03, 2.235541843470153e-04, -1.910966969054363e-05, 1.546896361168791e+00, -2.858222566501561e+03, -1.288641281511398e+02, 2.871359475025514e+03
634, -1.999999999999805e-04, 5.300000000009745e-03, 2.177165409675340e-04, 8.047386210364075e-06, 2.061995446299753e+01, 3.038503669514092e+03, 2.710284405711925e+02, 3.066178041139230e+03
635, -1.499999999999669e-04, 5.300000000007331e-03, 2.175657535660092e-04, 4.693834626727496e-06, 2.412450519597348e+01, 2.280915550075221e+03, 2.732584155647175e+02, 2.322022064269615e+03
636, -9.999999999994280e-05, 5.300000000004915e-03, 2.174257906492751e-04, 1.341788619432317e-06, 2.624347544527708e+01, 1.524278535070445e+03, 2.603711030884248e+02, 1.585963897811080e+03
637, -4.999999999993605e-05, 5.300000000002501e-03, 2.172966274033209e-04, -2.009493509885147e-06, 2.682461758275602e+01, 7.688976351647900e+02, 2.323714134848694e+02, 8.755902344379649e+02
638, 3.846207206892327e-17, 5.300000000000087e-03, 2.171782320087696e-04, -5.360753674098140e-06, 2.571460625980251e+01, 1.507921438190689e+01, 1.892643087984536e+02, 3.786779976447299e+02
639, 4.999999999999720e-05, 5.299999999997673e-03, 2.170705656210006e-04, -8.712734002880542e-06, 2.275912605226145e+01, -7.368689815955108e+02, 1.310547876019467e+02, 8.035771844335185e+02
640, 9.999999999998842e-05, 5.299999999995259e-03, 2.169735823509632e-04, -1.206617684506677e-05, 1.780291965399647e+01, -1.486637800955791e+03, 5.774791116364895e+01, 1.508867511348811e+03
641, 1.499999999999930e-04, 5.299999999992844e-03, 2.168872292462050e-04, -1.542182477039582e-05, 1.068980680331686e+01, -2.233916677174012e+03, -3.065116769662378e+01, 2.245443440445057e+03
642, 1.999999999999920e-04, 5.299999999990430e-03, 2.168114462720594e-04, -1.878042057074077e-05, 1.262722944121833e+00, -2.978393601914070e+03, -1.341371946527469e+02, 2.991709037026272e+03
643, -1.999999999999824e-04, 5.200000000009989e-03, 2.110117562501512e-04, 8.163792779512205e-06, 2.101078502393028e+01, 3.161106003205929e+03, 2.789476349243740e+02, 3.189270310175834e+03
644, -1.499999999999712e-04, 5.200000000007502e-03, 2.108612277453113e-04, 4.836964125113592e-06, 2.446087323283916e+01, 2.372825642320980e+03, 2.806048771961030e+02, 2.414492384978540e+03
645, -9.999999999995044e-05, 5.200000000005017e-03, 2.107219590280403e-04, 1.511662505261405e-06, 2.651743948547642e+01, 1.585507003943042e+03, 2.668419218513561e+02, 1.647806695919424e+03
646, -4.999999999994625e-05, 5.200000000002529e-03, 2.105939253141573e-04, -1.812868701343468e-06, 2.702786537211540e+01, 7.994548128424428e+02, 2.376618020571667e+02, 9.069597112367051e+02
647, 2.564138137928218e-17, 5.200000000000042e-03, 2.104770948157972e-04, -5.137386378886645e-06, 2.583872463169396e+01, 1.497543022460437e+01, 1.930675979025698e+02, 3.862879762623328e+02
648, 4.999999999998700e-05, 5.199999999997556e-03, 2.103714287211715e-04, -8.462647676061103e-06, 2.279561368645622e+01, -7.676232881496832e+02, 1.330624431239456e+02, 8.340170834343273e+02
649, 9.999999999998081e-05, 5.199999999995069e-03, 2.102768811743580e-04, -1.178941000771363e-05, 1.774313379532663e+01, -1.548032027162719e+03, 5.764954605062687e+01, 1.570014565318605e+03
650, 1.499999999999887e-04, 5.199999999992581e-03, 2.101933992554126e-04, -1.511843105612989e-05, 1.052491477923556e+01, -2.325940004961137e+03, -3.316778615449072e+01, 2.337406410817542e+03
651, 1.999999999999900e-04, 5.199999999990096e-03, 2.101209229607560e-04, -1.845046877200295e-05, 9.836655249304158e-01, -3.101034948452639e+03, -1.393861089985452e+02, 3.114519775341029e+03
652, -1.999999999999843e-04, 5.100000000010360e-03, 2.043608609283952e-04, 8.272272162303158e-06, 2.137943051337226e+01, 3.286181808420999e+03, 2.868273871501769e+02, 3.314817395705060e+03
653, -1.499999999999755e-04, 5.100000000007788e-03, 2.042106176194700e-04, 4.973241027253863e-06, 2.477046186585068e+01, 2.466599115166066e+03, 2.879218665582657e+02, 2.508809115307006e+03
654, -9.999999999995803e-05, 5.100000000005215e-03, 2.040720779226955e-04, 1.675758520421647e-06, 2.676203596525787e+01, 1.647986168539018e+03, 2.732932447898496e+02, 1.710884121917846e+03
655, -4.999999999995644e-05, 5.100000000002642e-03, 2.039452171576325e-04, -1.620946898950889e-06, 2.720163306277175e+01, 8.306478192146851e+02, 2.429426521717141e+02, 9.389410540704679e+02
656, 1.282069068964109e-17, 5.100000000000066e-03, 2.038300036413307e-04, -4.917647083684050e-06, 2.593574129997481e+01, 1.489050371776369e+01, 1.968712211004880e+02, 3.938973318818452e+02
657, 4.999999999997683e-05, 5.099999999997495e-03, 2.037263986672451e-04, -8.215114200531234e-06, 2.280980348958761e+01, -7.989778369801086e+02, 1.350801464790368e+02, 8.650557842821137e+02
658, 9.999999999997324e-05, 5.099999999994921e-03, 2.036343564846282e-04, -1.151412073122723e-05, 1.766824796662081e+01, -1.610647739231090e+03, 5.757070729872081e+01, 1.632381848563367e+03
659, 1.499999999999843e-04, 5.099999999992348e-03, 2.035538242780068e-04, -1.481543947357360e-05, 1.035449117631876e+01, -2.419808216738234e+03, -3.565571088406145e+01, 2.431208774624916e+03
660, 1.999999999999881e-04, 5.099999999989774e-03, 2.034847421466694e-04, -1.811984354197346e-05, 7.109112858856861e-01, -3.226146779791069e+03, -1.445975868683597e+02, 3.239790796791531e+03
661, -1.999999999999862e-04, 5.000000000010596e-03, 1.977660282986833e-04, 8.372624812189152e-06, 2.172423019549939e+01, 3.413732751752336e+03, 2.946538714707924e+02, 3.442819400753560e+03
662, -1.499999999999799e-04, 5.000000000007969e-03, 1.976160960755833e-04, 5.102486976846296e-06, 2.505119484783921e+01, 2.562237210960146e+03, 2.951990365715797e+02, 2.604972699497442e+03
663, -9.999999999996564e-05, 5.000000000005344e-03, 1.974783198051115e-04, 1.833919551201276e-06, 2.697531669767466e+01, 1.711717160325417e+03, 2.797182713317267e+02, 1.775196982010008e+03
664, -4.999999999996662e-05, 5.000000000002718e-03, 1.973526749868195e-04, -1.433863921887617e-06, 2.734424187460417e+01, 8.624777358079770e+02, 2.482106433487676e+02, 9.715359214027031e+02
665, 0.000000000000000e+00, 5.000000000000093e-03, 1.972391301172926e-04, -4.701650263560595e-06, 2.600423318850795e+01, 1.482534595999510e+01, 2.006752890206560e+02, 4.015062316001621e+02
666, 4.999999999996663e-05, 4.999999999997467e-03, 1.971376466695358e-04, -7.970226658735134e-06, 2.280052923287798e+01, -8.309320253049893e+02, 1.371114157267407e+02, 8.966924979992400e+02
667, 9.999999999996559e-05, 4.999999999994841e-03, 1.970481790721331e-04, -1.124038065742451e-05, 1.757735067928542e+01, -1.674484793677666e+03, 5.751830890404528e+01, 1.695968078650825e+03
668, 1.499999999999799e-04, 4.999999999992216e-03, 1.969706746881426e-04, -1.451290017603147e-05, 1.017788003391394e+01, -2.515521781079676e+03, -3.810464825500166e+01, 2.526849151616269e+03
669, 1.999999999999863e-04, 4.999999999989590e-03, 1.969050737937401e-04, -1.778857349874511e-05, 4.442151135404515e-01, -3.353730243680737e+03, -1.497579517429108e+02, 3.367520761104348e+03
670, -1.999999999999881e-04, 4.900000000010410e-03, 1.912294748982651e-04, 8.464652011019437e-06, 2.203888199502779e+01, 3.543756353339869e+03, 3.024136931939602e+02, 3.573277223404356e+03
671, -1.499999999999843e-04, 4.900000000007836e-03, 1.910798791029432e-04, 5.224524456542725e-06, 2.529804384418929e+01, 2.659738283627632e+03, 3.024264193313270e+02, 2.702983968400203e+03
672, -9.999999999997321e-05, 4.900000000005265e-03, 1.909429001222432e-04, 1.985989332047264e-06, 2.715388026882653e+01, 1.776699557065920e+03, 2.861103593969421e+02, 1.840746214505517e+03
673, -4.999999999997681e-05, 4.900000000002690e-03, 1.908185137074283e-04, -1.251754737846173e-06, 2.745335596779995e+01, 8.949448469257813e+02, 2.534625034670038e+02, 1.004745962688851e+03
674, -1.282069068964109e-17, 4.900000000000120e-03, 1.907066886084302e-04, -4.489509540779215e-06, 2.604264746142240e+01, 1.478057691900679e+01, 2.044799592431617e+02, 4.091149583689682e+02
675, 4.999999999995644e-05, 4.899999999997547e-03, 1.906073865533019e-04, -7.728077279044334e-06, 2.276692603169752e+01, -8.634851454741120e+02, 1.391598695653971e+02, 9.289265909845469e+02
676, 9.999999999995801e-05, 4.899999999994974e-03, 1.905205622264590e-04, -1.096826057185972e-05, 1.747028701337453e+01, -1.739542560203242e+03, 5.749944099011219e+01, 1.760772241983881e+03
677, 1.499999999999756e-04, 4.899999999992402e-03, 1.904461632465400e-04, -1.421086245722015e-05, 9.995751122826505e+00, -2.613080241153425e+03, -4.050402633794766e+01, 2.624326573781240e+03
678, 1.999999999999843e-04, 4.899999999989829e-03, 1.903841301443073e-04, -1.745668639327572e-05, 1.852924586869165e-01, -3.483785074513873e+03, -1.548531251216017e+02, 3.497708890028246e+03
679, -1.999999999999901e-04, 4.800000000010084e-03, 1.847534602960812e-04, 8.548156188158867e-06, 2.232801166537314e+01, 3.676257367254707e+03, 3.100922727456698e+02, 3.706187880572676e+03
680, -1.499999999999886e-04, 4.800000000007600e-03, 1.846042256807241e-04, 5.339177093726416e-06, 2.551483798963392e+01, 2.759106919949737e+03, 3.095930508637877e+02, 2.802840897933303e+03
681, -9.999999999998080e-05, 4.800000000005114e-03, 1.844680772366001e-04, 2.131812729219504e-06, 2.729987358655922e+01, 1.842936973100391e+03, 2.924620655059246e+02, 1.907530947631247e+03
682, -4.999999999998701e-05, 4.800000000002629e-03, 1.843449910454199e-04, -1.074753192961763e-06, 2.752999222860637e+01, 9.280519393659414e+02, 2.586944323106410e+02, 1.038571622234170e+03
683, -2.564138137928218e-17, 4.800000000000143e-03, 1.842349361919133e-04, -4.281337422652361e-06, 2.605142216742445e+01, 1.475832968216261e+01, 2.082851176833020e+02, 4.167232834043097e+02
684, 4.999999999994627e-05, 4.799999999997659e-03, 1.841378747410446e-04, -7.488757177586240e-06, 2.270926192985087e+01, -8.966356333962578e+02, 1.412290942990156e+02, 9.617575915313872e+02
685, 9.999999999995042e-05, 4.799999999995174e-03, 1.840537617148837e-04, -1.069783014670577e-05, 1.734746417063076e+01, -1.805820021679929e+03, 5.752139153723467e+01, 1.826793508692258e+03
686, 1.499999999999713e-04, 4.799999999992687e-03, 1.839825450694168e-04, -1.390937449247805e-05, 9.808818349751363e+00, -2.712483214308425e+03, -4.284286726788199e+01, 2.723640203143051e+03
687, 1.999999999999824e-04, 4.799999999990203e-03, 1.839241656712067e-04, -1.712420885220048e-05, -6.495969091440656e-02, -3.616311816268222e+03, -1.598684165119196e+02, 3.630354386295830e+03
688, -1.999999999999919e-04, 4.700000000009747e-03, 1.783402874785170e-04, 8.622941221357599e-06, 2.259392201020046e+01, 3.811240496162125e+03, 3.176727593060430e+02, 3.841550050676623e+03
689, -1.499999999999929e-04, 4.700000000007334e-03, 1.781914380350886e-04, 5.446269928256333e-06, 2.570244580209294e+01, 2.860347111600016e+03, 3.166858655349863e+02, 2.904543015872754e+03
690, -9.999999999998839e-05, 4.700000000004922e-03, 1.780561525929650e-04, 2.271235996869775e-06, 2.741296323910808e+01, 1.910432357144673e+03, 2.987646251349813e+02, 1.975551376895236e+03
691, -4.999999999999717e-05, 4.700000000002511e-03, 1.779344076530170e-04, -9.029917605952551e-07, 2.757334990292458e+01, 9.618012944079773e+02, 2.639018601740617e+02, 1.073013802104826e+03
692, -3.846207206892327e-17, 4.700000000000096e-03, 1.778261727223028e-04, -4.077245051566707e-06, 2.602971475856259e+01, 1.476039312638642e+01, 2.120902813578852e+02, 4.243302338932697e+02
693, 4.999999999993608e-05, 4.699999999997685e-03, 1.777314102890829e-04, -7.252356108134289e-06, 2.262695122306496e+01, -9.303821043028677e+02, 1.433226153818549e+02, 9.951842785303687e+02
694, 9.999999999994281e-05, 4.699999999995272e-03, 1.776500757987204e-04, -1.042915769023589e-05, 1.720878113410748e+01, -1.873316167491550e+03, 5.759164769484930e+01, 1.894030562824390e+03
695, 1.499999999999669e-04, 4.699999999992859e-03, 1.775821176298021e-04, -1.360848308794583e-05, 9.617776653625782e+00, -2.813729960656334e+03, -4.510975084408088e+01, 2.824788842419576e+03
696, 1.999999999999805e-04, 4.699999999990447e-03, 1.775274770703444e-04, -1.679116612394292e-05, -3.048318449469889e-01, -3.751310004763297e+03, -1.647885837219245e+02, 3.765456269373014e+03
697, -1.999999999999939e-04, 4.600000000009572e-03, 1.719923030562741e-04, 8.688812521471568e-06, 2.282165884566024e+01, 3.948698507449141e+03, 3.251395166166766e+02, 3.979368272912637e+03
698, -1.499999999999973e-04, 4.600000000007185e-03, 1.718438617555469e-04, 5.545629545326969e-06, 2.584822440848444e+01, 2.963453220536536e+03, 3.236932267631345e+02, 3.008094468843326e+03
699, -9.999999999999598e-05, 4.600000000004799e-03, 1.717094707830933e-04, 2.404106951943639e-06, 2.748416306905455e+01, 1.979182510418175e+03, 3.050103140750547e+02, 2.044810897323746e+03
700, -5.000000000000737e-05, 4.600000000002412e-03, 1.715891071421834e-04, -7.366013363899349e-07, 2.757704097429871e+01, 9.961912232463116e+02, 2.690809623285477e+02, 1.108075670362412e+03
701, -5.126921023140829e-17, 4.600000000000025e-03, 1.714827408448953e-04, -3.877341980503580e-06, 2.597292826710014e+01, 1.478587641967482e+01, 2.158955286869472e+02, 4.319359528415094e+02
702, 4.999999999992590e-05, 4.599999999997638e-03, 1.713903348862034e-04, -7.018962225676640e-06, 2.251660477726409e+01, -9.647252089353983e+02, 1.454444186749535e+02, 1.029204894293380e+03
703, 9.999999999993524e-05, 4.599999999995251e-03, 1.713118452189542e-04, -1.016230990387789e-05, 1.705161732088101e+01, -1.942031873553535e+03, 5.771809711918051e+01, 1.962481500334952e+03
704, 1.499999999999625e-04, 4.599999999992864e-03, 1.712472207290087e-04, -1.330823343618617e-05, 9.420283463920271e+00, -2.916822119657867e+03, -4.729288272915069e+01, 2.927770665345102e+03
705, 1.999999999999786e-04, 4.599999999990477e-03, 1.711964032103864e-04, -1.645758183412089e-05, -5.361590416699187e-01, -3.888781971440304e+03, -1.695979068500876e+02, 3.903012848770451e+03
706, -1.999999999999958e-04, 4.500000000009600e-03, 1.657118965787595e-04, 8.745577343214752e-06, 2.301265535969350e+01, 4.088634739107859e+03, 3.324777596309931e+02, 4.119641825505922e+03
707, -1.500000000000016e-04, 4.500000000007212e-03, 1.655638853544973e-04, 5.637084378711954e-06, 2.595298131515119e+01, 3.068428274701648e+03, 3.306045547865077e+02, 3.113495366537356e+03
708, -1.000000000000036e-04, 4.500000000004825e-03, 1.654304192666406e-04, 2.530275270322117e-06, 2.751343617623405e+01, 2.049189888638010e+03, 3.111921774400714e+02, 2.115310370522019e+03
709, -5.000000000001756e-05, 4.500000000002437e-03, 1.653114759102181e-04, -5.757109475918009e-07, 2.754076762943657e+01, 1.031223877256452e+03, 2.742284977809445e+02, 1.143759091999416e+03
710, -6.409667718462742e-17, 4.500000000000053e-03, 1.652070258902217e-04, -3.681735885871639e-06, 2.588094136298412e+01, 1.483676990230282e+01, 2.197014467362519e+02, 4.395416664154395e+02
711, 4.999999999991571e-05, 4.499999999997665e-03, 1.651170327967191e-04, -6.788661800867272e-06, 2.237869057629524e+01, -9.996629905202311e+02, 1.475990110888974e+02, 1.063819096555564e+03
712, 9.999999999992765e-05, 4.499999999995279e-03, 1.650414531793042e-04, -9.897351596625273e-06, 1.687748410422216e+01, -2.011965056740301e+03, 5.790923752435241e+01, 2.032145657846177e+03
713, 1.499999999999582e-04, 4.499999999992891e-03, 1.649802365214364e-04, -1.300866882712718e-05, 9.219526841484196e+00, -3.021757168163982e+03, -4.937975195522074e+01, 3.032585228032166e+03
714, 1.999999999999767e-04, 4.499999999990504e-03, 1.649333252147232e-04, -1.612347769924003e-05, -7.542104365953719e-01, -4.028725139217322e+03, -1.742796648155849e+02, 4.043024042641300e+03
715, -1.999999999999977e-04, 4.400000000009622e-03, 1.595015007194702e-04, 8.793045239088260e-06, 2.317273523461444e+01, 4.231054595006597e+03, 3.396702590807573e+02, 4.262367098856465e+03
716, -1.500000000000059e-04, 4.400000000007235e-03, 1.593539403770319e-04, 5.720465126680389e-06, 2.602159035738674e+01, 3.175277379230146e+03, 3.374068046267734e+02, 3.220742993624668e+03
717, -1.000000000000112e-04, 4.400000000004850e-03, 1.592214284314292e-04, 2.649592863753153e-06, 2.750362423231650e+01, 2.120458367423932e+03, 3.173015930995919e+02, 2.187048413040377e+03
718, -5.000000000002772e-05, 4.400000000002464e-03, 1.591039431642993e-04, -4.204474058444754e-07, 2.746586516627025e+01, 1.066902101774997e+03, 2.793401867141753e+02, 1.180064171826835e+03
719, -7.691736787426851e-17, 4.400000000000076e-03, 1.590014558687817e-04, -3.490532240897125e-06, 2.575409797296300e+01, 1.491504391628160e+01, 2.235080676314173e+02, 4.471475263021865e+02
720, 4.999999999990552e-05, 4.399999999997690e-03, 1.589139308246103e-04, -6.561538907229401e-06, 2.221289580728092e+01, -1.035194331705078e+03, 1.497907318940530e+02, 1.099026432002796e+03
721, 9.999999999991999e-05, 4.399999999995304e-03, 1.588413252721333e-04, -9.634345380838835e-06, 1.668555627870126e+01, -2.083115561285315e+03, 5.817372388617888e+01, 2.103021983224673e+03
722, 1.499999999999539e-04, 4.399999999992917e-03, 1.587835893859240e-04, -1.270983035084115e-05, 9.014088669187061e+00, -3.128536189383543e+03, -5.135732961199540e+01, 3.139231123783062e+03
723, 1.999999999999748e-04, 4.399999999990530e-03, 1.587406662483770e-04, -1.578887322116060e-05, -9.609658227409454e-01, -4.171141900802911e+03, -1.788167345988641e+02, 4.185488111172041e+03
724, -1.999999999999997e-04, 4.300000000009517e-03, 1.533635917356004e-04, 8.831028280644739e-06, 2.329662611545649e+01, 4.375956298077802e+03, 3.466985781741807e+02, 4.407544195621792e+03
725, -1.500000000000103e-04, 4.300000000007164e-03, 1.532165017152511e-04, 5.795605009261215e-06, 2.604951783722004e+01, 3.283999372751803e+03, 3.440858432996566e+02, 3.329837462606079e+03
726, -1.000000000000188e-04, 4.300000000004808e-03, 1.530849718049592e-04, 2.761914153868723e-06, 2.745157107496391e+01, 2.192987889277581e+03, 3.233290082974256e+02, 2.260025251160025e+03
727, -5.000000000003792e-05, 4.300000000002456e-03, 1.529689810654960e-04, -2.709350247523433e-07, 2.735004285448031e+01, 1.103226412728837e+03, 2.844110659121738e+02, 1.216991610861480e+03
728, -8.973805856390960e-17, 4.300000000000101e-03, 1.528685015736685e-04, -3.303834030225671e-06, 2.559072208100423e+01, 1.502142596478444e+01, 2.273149586075839e+02, 4.547527588123713e+02
729, 4.999999999989533e-05, 4.299999999997747e-03, 1.527834983952489e-04, -6.337675136539734e-06, 2.201805918829029e+01, -1.071318550416250e+03, 1.520236147064913e+02, 1.134825827876358e+03
730, 9.999999999991241e-05, 4.299999999995395e-03, 1.527139295577718e-04, -9.373351392389888e-06, 1.647516442925905e+01, -2.155482948384384e+03, 5.851999536065937e+01, 2.175109285356726e+03
731, 1.499999999999495e-04, 4.299999999993039e-03, 1.526597460231837e-04, -1.241175662449668e-05, 8.803778184105227e+00, -3.237159169140735e+03, -5.321287425232850e+01, 3.247707175123789e+03
732, 1.999999999999729e-04, 4.299999999990687e-03, 1.526208916601775e-04, -1.545378544102371e-05, -1.155559652320505e+00, -4.316032429712019e+03, -1.831918705621410e+02, 4.330404074625879e+03
733, -2.000000000000014e-04, 4.200000000009198e-03, 1.473006892950507e-04, 8.859341300828222e-06, 2.338123630859224e+01, 4.523340157330546e+03, 3.535445786902162e+02, 4.555173472807598e+03
734, -1.500000000000147e-04, 4.200000000006931e-03, 1.471540875163717e-04, 5.862340011265504e-06, 2.603363701777994e+01, 3.394594837661692e+03, 3.506280202365833e+02, 3.440779649553812e+03
735, -1.000000000000264e-04, 4.200000000004664e-03, 1.470235660067498e-04, 2.867096333407792e-06, 2.735459036672887e+01, 2.266779345300525e+03, 3.292652092542322e+02, 2.334241963702826e+03
736, -5.000000000004811e-05, 4.200000000002396e-03, 1.469091047038694e-04, -1.272953427086425e-07, 2.719127921048585e+01, 1.140197979839810e+03, 2.894364534885244e+02, 1.254542848243069e+03
737, -1.025587492535507e-16, 4.200000000000129e-03, 1.468106765668669e-04, -3.121741459371857e-06, 2.538957192571559e+01, 1.515727897940798e+01, 2.311220140871217e+02, 4.623572659769605e+02
738, 4.999999999988515e-05, 4.199999999997860e-03, 1.467282475470833e-04, -6.117149296541581e-06, 2.179388910782427e+01, -1.108034129741328e+03, 1.543021449368832e+02, 1.171216444516167e+03
739, 9.999999999990481e-05, 4.199999999995591e-03, 1.466617765594614e-04, -9.114426976019155e-06, 1.624723866854140e+01, -2.229065514558090e+03, 5.895713092807068e+01, 2.248406798813603e+03
740, 1.499999999999452e-04, 4.199999999993324e-03, 1.466112154541928e-04, -1.211448346502598e-05, 8.591248874006794e+00, -3.347624015736802e+03, -5.493267965503455e+01, 3.358012998721556e+03
741, 1.999999999999710e-04, 4.199999999991056e-03, 1.465765089887030e-04, -1.511822857915036e-05, -1.333910645356809e+00, -4.463394724921158e+03, -1.873868308580364e+02, 4.477771991494397e+03
742, -2.000000000000034e-04, 4.100000000008875e-03, 1.413153563925805e-04, 8.877802254457853e-06, 2.342721144813271e+01, 4.673209228595426e+03, 3.601892605686340e+02, 4.705254299259740e+03
743, -1.500000000000190e-04, 4.100000000006694e-03, 1.411692591160628e-04, 5.920509215892219e-06, 2.597370251762874e+01, 3.507066625027322e+03, 3.570191536739869e+02, 3.553569844467313e+03
744, -1.000000000000340e-04, 4.100000000004513e-03, 1.410397706950016e-04, 2.964999685031241e-06, 2.721150355688928e+01, 2.341834903344408e+03, 3.351007971413255e+02, 2.409699495751065e+03
745, -5.000000000005830e-05, 4.100000000002334e-03, 1.409268720504303e-04, 1.035319082166386e-08, 2.698800266261929e+01, 1.177818452286935e+03, 2.944116982611226e+02, 1.292719504020303e+03
746, -1.153726636796137e-16, 4.100000000000152e-03, 1.408305371279125e-04, -2.944351642523205e-06, 2.514897039320624e+01, 1.532376347291870e+01, 2.349293245975613e+02, 4.699613653423989e+02
747, 4.999999999987496e-05, 4.099999999997971e-03, 1.407507328675261e-04, -5.900037098828517e-06, 2.153870674267489e+01, -1.145340491545079e+03, 1.566311615673528e+02, 1.208197147195946e+03
748, 9.999999999989721e-05, 4.099999999995790e-03, 1.406874191743700e-04, -8.857626373454339e-06, 1.600006181218646e+01, -2.303863461355333e+03, 5.949473435788317e+01, 2.322913097769368e+03
749, 1.499999999999408e-04, 4.099999999993610e-03, 1.406405488893954e-04, -1.181804357650145e-05, 8.374441503573678e+00, -3.459932118604317e+03, -5.650236404779774e+01, 3.470147037729005e+03
750, 1.999999999999691e-04, 4.099999999991429e-03, 1.406100677603634e-04, -1.478221373556135e-05, -1.498192989352049e+00, -4.613231256869291e+03, -1.913824639023431e+02, 4.627590176586598e+03
751, -2.000000000000054e-04, 4.000000000008551e-03, 1.354101994835554e-04, 8.886232522212015e-06, 2.342970391697435e+01, 4.825562576801968e+03, 3.666132051318797e+02, 4.857787675223256e+03
752, -1.500000000000234e-04, 4.000000000006458e-03, 1.352646211099576e-04, 5.969955121063629e-06, 2.586544536700438e+01, 3.621414369519790e+03, 3.632448014889958e+02, 3.668209264642815e+03
753, -1.000000000000416e-04, 4.000000000004365e-03, 1.351361886047055e-04, 3.055487902288077e-06, 2.701902882566714e+01, 2.418154957829126e+03, 3.408262703539660e+02, 2.486399247350436e+03
754, -5.000000000006849e-05, 4.000000000002271e-03, 1.350248839788099e-04, 1.418955368879966e-07, 2.673768027844631e+01, 1.216088631169858e+03, 2.993321609874151e+02, 1.331523433812522e+03
755, -1.282069068964109e-16, 4.000000000000177e-03, 1.349306822700211e-04, -2.771758281629894e-06, 2.486706170002788e+01, 1.552185972120947e+01, 2.387370866702412e+02, 4.775656174885311e+02
756, 4.999999999986478e-05, 3.999999999998083e-03, 1.348535515126205e-04, -5.686410840046344e-06, 2.125135572745387e+01, -1.183236627843354e+03, 1.590156837539301e+02, 1.245766933774288e+03
757, 9.999999999988963e-05, 3.999999999995989e-03, 1.347934527073438e-04, -8.603000408367209e-06, 1.573326805131558e+01, -2.379875844354128e+03, 6.014263171255124e+01, 2.398627016448627e+03
758, 1.499999999999365e-04, 3.999999999993896e-03, 1.347503397914054e-04, -1.152246624282607e-05, 8.154022721125784e+00, -3.574082551645652e+03, -5.790732391013546e+01, 3.584108244372756e+03
759, 1.999999999999672e-04, 3.999999999991804e-03, 1.347241596086297e-04, -1.444574858884769e-05, -1.646580297120920e+00, -4.765541218580758e+03, -1.951593351504050e+02, 4.779857821008171e+03
760, -2.000000000000072e-04, 3.900000000008219e-03, 1.295878683377424e-04, 8.884457233544380e-06, 2.338642067824338e+01, 4.980400525686628e+03, 3.727969719327763e+02, 5.012773600152021e+03
761, -1.500000000000277e-04, 3.900000000006203e-03, 1.294428212624917e-04, 6.010523980688417e-06, 2.570706640877484e+01, 3.737638941327358e+03, 3.692905922625625e+02, 3.784698192745509e+03
762, -1.000000000000492e-04, 3.900000000004186e-03, 1.293154654876210e-04, 3.138428435800446e-06, 2.677559815872860e+01, 2.495740694854102e+03, 3.464321190582751e+02, 2.564341923605513e+03
763, -5.000000000007867e-05, 3.900000000002170e-03, 1.292057842219775e-04, 2.672204143438838e-07, 2.643894299291338e+01, 1.255009826164412e+03, 3.041932440670142e+02, 1.370956065642095e+03
764, -1.410275975860520e-16, 3.900000000000153e-03, 1.291137537039305e-04, -2.604051319096759e-06, 2.454272518776907e+01, 1.575283431348589e+01, 2.425456489967843e+02, 4.851709282002239e+02
765, 4.999999999985460e-05, 3.899999999998138e-03, 1.290393431708688e-04, -5.476339053708033e-06, 2.093106541739178e+01, -1.221721449519000e+03, 1.614610318943604e+02, 1.283925205048685e+03
766, 9.999999999988204e-05, 3.899999999996121e-03, 1.289825148282753e-04, -8.350596135672566e-06, 1.544656292324345e+01, -2.457101864138089e+03, 6.091113126025535e+01, 2.475547694513093e+03
767, 1.499999999999321e-04, 3.899999999994104e-03, 1.289432238188240e-04, -1.122777697104313e-05, 7.930303710637020e+00, -3.690074913263099e+03, -5.913224414644857e+01, 3.699895819338180e+03
768, 1.999999999999652e-04, 3.899999999992088e-03, 1.289214181917661e-04, -1.410883702833208e-05, -1.778210259253456e+00, -4.920324838968326e+03, -1.986971855795973e+02, 4.934574269885336e+03
769, -2.000000000000091e-04, 3.800000000007874e-03, 1.238510560522732e-04, 8.872305684481163e-06, 2.330086330606792e+01, 5.137727463206419e+03, 3.787197546198886e+02, 5.170210252584091e+03
770, -1.500000000000321e-04, 3.800000000005924e-03, 1.237065505253269e-04, 6.042066199525230e-06, 2.550082922349156e+01, 3.855744158377889e+03, 3.751408125265043e+02, 3.903035546523237e+03
771, -1.000000000000568e-04, 3.800000000003971e-03, 1.235802901286068e-04, 3.213692873959468e-06, 2.648214218348164e+01, 2.574595123779517e+03, 3.519078944664654e+02, 2.643527270850353e+03
772, -5.000000000008884e-05, 3.800000000002021e-03, 1.234722593826168e-04, 3.862206697273754e-07, 2.609189084862174e+01, 1.294584432919510e+03, 3.089897539893102e+02, 1.411018072730099e+03
773, -1.538415120121150e-16, 3.800000000000070e-03, 1.233824358407912e-04, -2.441316575405508e-06, 2.417563610394313e+01, 1.601856569742387e+01, 2.463550638516014e+02, 4.927776453319726e+02
774, 4.999999999984441e-05, 3.799999999998119e-03, 1.233107900578906e-04, -5.269886153116277e-06, 2.057738576351045e+01, -1.260793587565544e+03, 1.639724872106187e+02, 1.322671341467106e+03
775, 9.999999999987444e-05, 3.799999999996168e-03, 1.232572855580539e-04, -8.100456488192575e-06, 1.513957083385435e+01, -2.535540734245469e+03, 6.181072229058779e+01, 2.553674270591276e+03
776, 1.499999999999278e-04, 3.799999999994218e-03, 1.232218788027737e-04, -1.093399714141184e-05, 7.703056566362534e+00, -3.807909164164148e+03, -6.016145768840885e+01, 3.817508902799416e+03
777, 1.999999999999633e-04, 3.799999999992265e-03, 1.232045191590837e-04, -1.377147881145825e-05, -1.892787822756645e+00, -5.077582698247853e+03, -2.019751809782827e+02, 5.091738795511408e+03
778, -2.000000000000110e-04, 3.700000000007529e-03, 1.182024993372253e-04, 8.849611665759766e-06, 2.316904734039008e+01, 5.297542567657870e+03, 3.843596479809158e+02, 5.330098065496569e+03
779, -1.500000000000364e-04, 3.700000000005644e-03, 1.180585432278122e-04, 6.064436672207886e-06, 2.524325850572683e+01, 3.975729938969802e+03, 3.807789100790870e+02, 4.023222008038848e+03
780, -1.000000000000644e-04, 3.700000000003758e-03, 1.179333944713666e-04, 3.281157286975629e-06, 2.613588548527713e+01, 2.654718837215730e+03, 3.572425230570483e+02, 2.723956169847203e+03
781, -5.000000000009902e-05, 3.700000000001873e-03, 1.178270390155307e-04, 4.987936261141256e-07, 2.569429307311253e+01, 1.334813404991462e+03, 3.137161063688052e+02, 1.451710725582305e+03
782, -1.666825314924902e-16, 3.699999999999988e-03, 1.177394558454136e-04, -2.283635397069834e-06, 2.376407150396926e+01, 1.632015446410071e+01, 2.501652126313544e+02, 5.003857975047448e+02
783, 4.999999999983423e-05, 3.699999999998102e-03, 1.176706169502286e-04, -5.067112077041866e-06, 2.018914737214055e+01, -1.300451958941696e+03, 1.665553767436314e+02, 1.362004297267335e+03
784, 9.999999999986681e-05, 3.699999999996217e-03, 1.176204872901985e-04, -7.852619920176572e-06, 1.481180335676987e+01, -2.615191509776128e+03, 6.285215410532042e+01, 2.633005696954097e+03
785, 1.499999999999234e-04, 3.699999999994331e-03, 1.175890247633156e-04, -1.064114364815113e-05, 7.472657025092701e+00, -3.927584602649480e+03, -6.097883646585771e+01, 3.936946699017461e+03
786, 1.999999999999614e-04, 3.699999999992445e-03, 1.175761801717263e-04, -1.343366919998870e-05, -1.989254633807320e+00, -5.237314777488485e+03, -2.049718376209416e+02, 5.251350983044689e+03
787, -2.000000000000130e-04, 3.600000000007325e-03, 1.126449784132892e-04, 8.816213796647483e-06, 2.298912832121198e+01, 5.459847069450589e+03, 3.896945831556448e+02, 5.492437686909610e+03
788, -1.500000000000407e-04, 3.600000000005489e-03, 1.125015770210691e-04, 6.077495116925937e-06, 2.493184860413083e+01, 4.097597311058390e+03, 3.861883405495207e+02, 4.145258702008035e+03
789, -1.000000000000720e-04, 3.600000000003653e-03, 1.123775535888421e-04, 3.340702570580811e-06, 2.573431927448365e+01, 2.736112925361124e+03, 3.624249452579144e+02, 2.805629974197055e+03
790, -5.000000000010923e-05, 3.600000000001818e-03, 1.122728956111882e-04, 6.048414341902197e-07, 2.524385344777215e+01, 1.375697909557516e+03, 3.183667474479120e+02, 1.493035733392041e+03
791, -1.794761171278192e-16, 3.599999999999982e-03, 1.121875836241159e-04, -2.131084300349235e-06, 2.330602502850388e+01, 1.665874799140448e+01, 2.539760804328252e+02, 5.079956535444881e+02
792, 4.999999999982404e-05, 3.599999999998146e-03, 1.121215911710411e-04, -4.868071930010481e-06, 1.976472228810860e+01, -1.340695536133720e+03, 1.692152571623732e+02, 1.401922725320943e+03
793, 9.999999999985923e-05, 3.599999999996311e-03, 1.120748847687604e-04, -7.607120045057437e-06, 1.446214801238028e+01, -2.696053365071857e+03, 6.404659536235771e+01, 2.713540530778994e+03
794, 1.499999999999191e-04, 3.599999999994474e-03, 1.120474238732195e-04, -1.034922853321940e-05, 7.238801900245505e+00, -4.049100595220555e+03, -6.156755526955514e+01, 4.058207924698021e+03
795, 1.999999999999595e-04, 3.599999999992638e-03, 1.120391608447979e-04, -1.309539858392183e-05, -2.066766455494133e+00, -5.399520679168156e+03, -2.076647657512418e+02, 5.413409956727395e+03
796, -2.000000000000149e-04, 3.500000000007369e-03, 1.071813169899258e-04, 8.771955920766334e-06, 2.275909311855958e+01, 5.624641400994678e+03, 3.947019014539205e+02, 5.657229335579461e+03
797, -1.500000000000451e-04, 3.500000000005565e-03, 1.070384728613402e-04, 6.081106469002177e-06, 2.456471392827223e+01, 4.221347190136304e+03, 3.913521643617407e+02, 4.269146193187731e+03
798, -1.000000000000796e-04, 3.500000000003764e-03, 1.069155856742076e-04, 3.392214834061672e-06, 2.527546809492048e+01, 2.818778480978010e+03, 3.674438020243748e+02, 2.888549614178613e+03
799, -5.000000000011939e-05, 3.500000000001962e-03, 1.068126445920044e-04, 7.042714562756037e-07, 2.473847543556661e+01, 1.417238996676407e+03, 3.229359014317186e+02, 1.534994490996654e+03
800, -1.923239128717724e-16, 3.500000000000160e-03, 1.067296318237136e-04, -1.983734591029046e-06, 2.279927713586159e+01, 1.703515423349268e+01, 2.577874956608085e+02, 5.156072117310997e+02
801, 4.999999999981385e-05, 3.499999999998358e-03, 1.066665225893352e-04, -4.672815606525151e-06, 1.930170783545071e+01, -1.381523998767286e+03, 1.719575782591753e+02, 1.442425143694500e+03
802, 9.999999999985163e-05, 3.499999999996555e-03, 1.066232850849136e-04, -7.363985265908059e-06, 1.408786764087228e+01, -2.778126783975893e+03, 6.540512862154652e+01, 2.795277085389450e+03
803, 1.499999999999148e-04, 3.499999999994753e-03, 1.065998804473268e-04, -1.005825862692949e-05, 6.998106894325360e+00, -4.172458885433166e+03, -6.191086225484514e+01, 4.181290777998550e+03
804, 1.999999999999576e-04, 3.499999999992950e-03, 1.065962627188660e-04, -1.275665213436574e-05, -2.128926707340099e+00, -5.564203276898579e+03, -2.100314349584592e+02, 5.577913937283197e+03
805, -2.000000000000167e-04, 3.400000000007423e-03, 1.018143822844549e-04, 8.716687528096271e-06, 2.247915910456607e+01, 5.791927112525156e+03, 3.993581566607332e+02, 5.824472288233061e+03
806, -1.500000000000494e-04, 3.400000000005649e-03, 1.016720950328090e-04, 6.075141303377951e-06, 2.414199134443913e+01, 4.346981571205255e+03, 3.962526456695714e+02, 4.394884147507391e+03
807, -1.000000000000872e-04, 3.400000000003875e-03, 1.015503520649223e-04, 3.435585817672387e-06, 2.475911100212249e+01, 2.902717568666155e+03, 3.722871518289813e+02, 2.972715219745692e+03
808, -5.000000000012958e-05, 3.400000000002102e-03, 1.014491443392119e-04, 7.969966795883139e-07, 2.417780831676379e+01, 1.459438749934517e+03, 3.274174420171978e+02, 1.577587619082319e+03
809, -2.051242747706794e-16, 3.400000000000329e-03, 1.013684558649704e-04, -1.841651952912856e-06, 2.224366064647313e+01, 1.745147723000298e+01, 2.615991517851710e+02, 5.232202498764558e+02
810, 4.999999999980369e-05, 3.399999999998554e-03, 1.013082636667392e-04, -4.481387379177494e-06, 1.880048003255519e+01, -1.422935184584049e+03, 1.747878485791774e+02, 1.483511002544717e+03
811, 9.999999999984403e-05, 3.399999999996781e-03, 1.012685377483386e-04, -7.123238361653784e-06, 1.369029608894647e+01, -2.861409463535674e+03, 6.693906817604392e+01, 2.878215068959694e+03
812, 1.499999999999104e-04, 3.399999999995008e-03, 1.012492410568022e-04, -9.768235131220894e-06, 6.753365982578941e+00, -4.297656861049277e+03, -6.199165849824065e+01, 4.306195451378152e+03
813, 1.999999999999557e-04, 3.399999999993234e-03, 1.012503294465065e-04, -1.241740939273350e-05, -2.171656276115129e+00, -5.731360028991656e+03, -2.120487421659273e+02, 5.744863626429748e+03
814, -2.000000000000187e-04, 3.300000000007353e-03, 9.654708513109522e-05, 8.650264172233696e-06, 2.214919638583916e+01, 5.961705532421544e+03, 4.036388598183084e+02, 5.994166062561462e+03
815, -1.500000000000538e-04, 3.300000000005614e-03, 9.640535122058942e-05, 6.059476248673558e-06, 2.366286966518504e+01, 4.474501831418003e+03, 4.008712386109437e+02, 4.522472605029111e+03
816, -1.000000000000948e-04, 3.300000000003875e-03, 9.628475728440526e-05, 3.470713307083868e-06, 2.418420474811046e+01, 2.987931708234730e+03, 3.769425523693703e+02, 3.058127207225055e+03
817, -5.000000000013977e-05, 3.300000000002137e-03, 9.618529620677546e-05, 8.829361324170243e-07, 2.356078879484278e+01, 1.502298765836778e+03, 3.318050584789017e+02, 1.620815964900033e+03
818, -2.179652942510546e-16, 3.300000000000398e-03, 9.610695392914630e-05, -1.704896028521362e-06, 2.163828301648800e+01, 1.790930625562891e+01, 2.654108842155148e+02, 5.308348661381697e+02
819, 4.999999999979350e-05, 3.299999999998659e-03, 9.604970941305238e-05, -4.293825474221095e-06, 1.826050964729416e+01, -1.464927598130153e+03, 1.777120727218671e+02, 1.525179755378641e+03
820, 9.999999999983644e-05, 3.299999999996922e-03, 9.601353460314083e-05, -6.884896054640509e-06, 1.326946525647298e+01, -2.945900083609088e+03, 6.866062155684740e+01, 2.962354054252040e+03
821, 1.499999999999061e-04, 3.299999999995182e-03, 9.599839439021744e-05, -9.479153176862475e-06, 6.505325564519410e+00, -4.424693484638006e+03, -6.179147578403334e+01, 4.432921795098415e+03
822, 1.999999999999538e-04, 3.299999999993444e-03, 9.600424657446885e-05, -1.207764380932843e-05, -2.193676851913324e+00, -5.900990434432813e+03, -2.136921836994309e+02, 5.914259090092677e+03
823, -2.000000000000206e-04, 3.200000000007042e-03, 9.138238002653719e-05, 8.572547864749729e-06, 2.176673238934501e+01, 6.133976391425096e+03, 4.075188680476262e+02, 6.166311168540655e+03
824, -1.500000000000580e-04, 3.200000000005365e-03, 9.124119253933477e-05, 6.033994382409594e-06, 2.312462610842260e+01, 4.603908097600037e+03, 4.051890743103519e+02, 4.651912505244772e+03
825, -1.000000000001024e-04, 3.200000000003689e-03, 9.112174905645240e-05, 3.497501533054606e-06, 2.354814917475562e+01, 3.074421451016645e+03, 3.813973722415656e+02, 3.144786753677062e+03
826, -5.000000000014997e-05, 3.200000000002012e-03, 9.102404452231247e-05, 9.620152866398256e-07, 2.288495272763913e+01, 1.545819822667416e+03, 3.360923781082500e+02, 1.664681039889720e+03
827, -2.307656561499616e-16, 3.200000000000335e-03, 9.094806694493008e-05, -1.573520016411055e-06, 2.098076666909532e+01, 1.840940841490698e+01, 2.692226006788005e+02, 5.384513411147741e+02
828, 4.999999999978330e-05, 3.199999999998658e-03, 9.089379735770194e-05, -4.110161671786981e-06, 1.767943219774986e+01, -1.507500736105782e+03, 1.807364587459397e+02, 1.567430131095636e+03
829, 9.999999999982882e-05, 3.199999999996980e-03, 9.086120978124550e-05, -6.648968617673709e-06, 1.282290399708739e+01, -3.031598684462100e+03, 7.058231552246916e+01, 3.047692612671825e+03
830, 1.499999999999017e-04, 3.199999999995303e-03, 9.085027118528054e-05, -9.191001440489418e-06, 6.251232039137278e+00, -4.553569645342876e+03, -6.129148648852590e+01, 4.561468296401144e+03
831, 1.999999999999519e-04, 3.199999999993626e-03, 9.086094145035234e-05, -1.173732238041924e-05, -2.197470843391159e+00, -6.073095967685698e+03, -2.149365982641437e+02, 6.086098875639110e+03
832, -2.000000000000225e-04, 3.100000000006703e-03, 8.632326506843871e-05, 8.483407501978545e-06, 2.133040621645659e+01, 6.308739953334875e+03, 4.109726234517859e+02, 6.340907884688377e+03
833, -1.500000000000624e-04, 3.100000000005093e-03, 8.618261349516417e-05, 5.998585657362061e-06, 2.252578972836972e+01, 4.735201221749388e+03, 4.091869927669619e+02, 4.783204543794169e+03
834, -1.000000000001100e-04, 3.100000000003483e-03, 8.606431828410141e-05, 3.515861596756844e-06, 2.284930294249665e+01, 3.162187979553658e+03, 3.856387883887497e+02, 3.232694917078704e+03
835, -5.000000000016015e-05, 3.100000000001875e-03, 8.596837657794506e-05, 1.034166481711918e-06, 2.214859613218960e+01, 1.590003288602910e+03, 3.402729316243653e+02, 1.709184310917760e+03
836, -2.436134518939148e-16, 3.100000000000265e-03, 8.589477858970496e-05, -1.447570248834762e-06, 2.026948768171638e+01, 1.895322797380220e+01, 2.730342091552314e+02, 5.460700046841149e+02
837, 4.999999999977311e-05, 3.099999999998656e-03, 8.584350756344895e-05, -3.930420885822563e-06, 1.705586023025330e+01, -1.550653169446055e+03, 1.838673021004160e+02, 1.610260954272746e+03
838, 9.999999999982122e-05, 3.099999999997047e-03, 8.581453973489883e-05, -6.415459456653599e-06, 1.234964221870115e+01, -3.118503921174417e+03, 7.271682319310347e+01, 3.134229567359828e+03
839, 1.499999999998973e-04, 3.099999999995438e-03, 8.580784429201540e-05, -8.903761731279348e-06, 5.990818499868112e+00, -4.684284073919119e+03, -6.047264593872720e+01, 4.691834004958324e+03
840, 1.999999999999499e-04, 3.099999999993829e-03, 8.582338333574017e-05, -1.139640522765869e-05, -2.182505108363614e+00, -6.247675644909552e+03, -2.157565305177017e+02, 6.260382422915381e+03
841, -2.000000000000244e-04, 3.000000000006373e-03, 8.137278196818041e-05, 8.382719329267430e-06, 2.084034995061143e+01, 6.485997178909305e+03, 4.139737156105139e+02, 6.517955950441574e+03
842, -1.500000000000668e-04, 3.000000000004845e-03, 8.123265199431512e-05, 5.953147363521231e-06, 2.186609295035271e+01, 4.868382675095019e+03, 4.128451068825443e+02, 4.916348981725225e+03
843, -1.000000000001176e-04, 3.000000000003318e-03, 8.111549905304643e-05, 3.525711925883384e-06, 2.208685021346810e+01, 3.251232914258610e+03, 3.896534935916885e+02, 3.321852447537528e+03
844, -5.000000000017031e-05, 3.000000000001789e-03, 8.102132262829952e-05, 1.099329377136409e-06, 2.135057103550713e+01, 1.634850847874340e+03, 3.443400113416806e+02, 1.754327026811747e+03
845, -2.564273663199779e-16, 3.000000000000262e-03, 8.095011528154379e-05, -1.327085740687792e-06, 1.950320331066109e+01, 1.954245258192833e+01, 2.768456115826139e+02, 5.536912245563508e+02
846, 4.999999999976296e-05, 2.999999999998735e-03, 8.090186261118389e-05, -3.754620712018631e-06, 1.638867910535737e+01, -1.594383280433738e+03, 1.871111251344251e+02, 1.653671248535723e+03
847, 9.999999999981362e-05, 2.999999999997206e-03, 8.087654321204046e-05, -6.184364654656489e-06, 1.184891996639897e+01, -3.206614326541103e+03, 7.507729919316100e+01, 3.221964008572437e+03
848, 1.499999999998930e-04, 2.999999999995678e-03, 8.087412863479512e-05, -8.617408526175956e-06, 5.723828504349285e+00, -4.816835618612373e+03, -5.931516518305259e+01, 4.824018322545792e+03
849, 1.999999999999481e-04, 2.999999999994151e-03, 8.089458334534185e-05, -1.105484512955229e-05, -2.148683308339912e+00, -6.424729009691720e+03, -2.161255521277139e+02, 6.437109527262751e+03
850, -2.000000000000263e-04, 2.900000000006043e-03, 7.653401613320271e-05, 8.270367400260296e-06, 2.029641407495842e+01, 6.665748943783165e+03, 4.164947246595202e+02, 6.697455542762642e+03
851, -1.500000000000711e-04, 2.900000000004594e-03, 7.639438939739143e-05, 5.897584584224211e-06, 2.114448534125938e+01, 5.003453411988112e+03, 4.161427650927200e+02, 5.051346498142942e+03
852, -1.000000000001252e-04, 2.900000000003146e-03, 7.627836866417338e-05, 3.526978731436730e-06, 2.125935392898941e+01, 3.341557444509124e+03, 3.934276842061935e+02, 3.412260362444444e+03
853, -5.000000000018052e-05, 2.900000000001698e-03, 7.618595590624267e-05, 1.157451409295680e-06, 2.048926840006857e+01, 1.680363895647203e+03, 3.482866523340120e+02, 1.800110592978928e+03
854, -2.692480570096190e-16, 2.900000000000249e-03, 7.611714618080939e-05, -1.212097732951530e-06, 1.868027949971889e+01, 2.017858906690566e+01, 2.806566856045429e+02, 5.613153709187627e+02
855, 4.999999999975274e-05, 2.899999999998802e-03, 7.607192758823486e-05, -3.582770971581734e-06, 1.567639010201333e+01, -1.638689545060725e+03, 1.904746663339267e+02, 1.697659872143700e+03
856, 9.999999999980604e-05, 2.899999999997354e-03, 7.605028123062100e-05, -5.955672515752977e-06, 1.131955175469795e+01, -3.295928451437851e+03, 7.767737289970813e+01, 3.310894811325709e+03
857, 1.499999999998886e-04, 2.899999999995905e-03, 7.605218117023937e-05, -8.331908514464035e-06, 5.449658254249869e+00, -4.951222929497336e+03, -5.779848583895401e+01, 4.958020351110825e+03
858, 1.999999999999462e-04, 2.899999999994458e-03, 7.607759438778245e-05, -1.071258706308370e-05, -2.095576374645304e+00, -6.604254705659329e+03, -2.160162324042833e+02, 6.616279711366929e+03
859, -2.000000000000283e-04, 2.800000000005697e-03, 7.181009669450949e-05, 8.146244020508437e-06, 1.969602920918419e+01, 6.847994084662066e+03, 4.185077179608958e+02, 6.879407617961954e+03
860, -1.500000000000755e-04, 2.800000000004316e-03, 7.167095053689272e-05, 5.831810648970137e-06, 2.035834866166078e+01, 5.140412939764497e+03, 4.190590366608707e+02, 5.188198234522442e+03
861, -1.000000000001328e-04, 2.800000000002934e-03, 7.155604764447799e-05, 3.519596466811485e-06, 2.036437204159608e+01, 3.433161809276799e+03, 3.969473247106450e+02, 3.503919956559927e+03
862, -5.000000000019071e-05, 2.800000000001552e-03, 7.146539262730170e-05, 1.208488253432430e-06, 1.956226059834739e+01, 1.726543095976088e+03, 3.521057298798200e+02, 1.846536583012558e+03
863, -2.820416426449479e-16, 2.800000000000171e-03, 7.139898318759342e-05, -1.102629230427646e-06, 1.779820464783893e+01, 2.086244841802608e+01, 2.844672449401769e+02, 5.689427417282881e+02
864, 4.999999999974258e-05, 2.799999999998790e-03, 7.135681007770132e-05, -3.414873250919304e-06, 1.491630754006275e+01, -1.683571290022680e+03, 1.939647014605227e+02, 1.742225398943873e+03
865, 9.999999999979847e-05, 2.799999999997408e-03, 7.133885705764106e-05, -5.729363109105626e-06, 1.075856009727755e+01, -3.386446073810318e+03, 8.053080050111799e+01, 3.401020459209360e+03
866, 1.499999999998843e-04, 2.799999999996027e-03, 7.134510085240073e-05, -8.047220148820876e-06, 5.164810964534070e+00, -5.087446652461677e+03, -5.590185363789267e+01, 5.093838590530786e+03
867, 1.999999999999443e-04, 2.799999999994645e-03, 7.137551110887464e-05, -1.036956776397270e-05, -2.027175287121111e+00, -6.786254481963566e+03, -2.154007429766666e+02, 6.797891589967725e+03
868, -2.000000000000301e-04, 2.700000000005420e-03, 6.720419643130823e-05, 8.010250247086995e-06, 1.903991095168681e+01, 7.032733106573615e+03, 4.199842149725367e+02, 7.063811945799360e+03
869, -1.500000000000799e-04, 2.700000000004097e-03, 6.706550367811061e-05, 5.755747633017191e-06, 1.950821392210196e+01, 5.279262603675015e+03, 4.215724523933049e+02, 5.326904314045134e+03
870, -1.000000000001404e-04, 2.700000000002773e-03, 6.695169972958810e-05, 3.503508323236513e-06, 1.940175170564612e+01, 3.526047615708472e+03, 4.001979599795809e+02, 3.596831778692937e+03
871, -5.000000000020087e-05, 2.700000000001450e-03, 6.686279198617751e-05, 1.252404316159901e-06, 1.856896151562137e+01, 1.773390280593705e+03, 3.557898644935585e+02, 1.893605970785983e+03
872, -2.948962146524792e-16, 2.700000000000125e-03, 6.679878094953501e-05, -9.986945109668539e-07, 1.685625439378282e+01, 2.159607634043385e+01, 2.882770259772938e+02, 5.765735345446748e+02
873, 4.999999999973239e-05, 2.699999999998801e-03, 6.675966017932131e-05, -3.250920411596386e-06, 1.410789461292188e+01, -1.729026244086302e+03, 1.975881111000932e+02, 1.787367022212029e+03
874, 9.999999999979085e-05, 2.699999999997478e-03, 6.674541624967234e-05, -5.505407778792959e-06, 1.016598520953568e+01, -3.478164635756786e+03, 8.365163002580066e+01, 3.492340318754056e+03
875, 1.499999999998800e-04, 2.699999999996155e-03, 6.675602870550927e-05, -7.763293153711111e-06, 4.870464766229077e+00, -5.225503740963225e+03, -5.360403500588488e+01, 5.231472823425126e+03
876, 1.999999999999424e-04, 2.699999999994831e-03, 6.679147001884057e-05, -1.002571523439404e-05, -1.940929584830315e+00, -6.970724908392343e+03, -2.142505750171318e+02, 6.981945529640357e+03
877, -2.000000000000321e-04, 2.600000000005380e-03, 6.271953186951860e-05, 7.862296420179021e-06, 1.833030104197064e+01, 7.219967430348781e+03, 4.208944566405889e+02, 7.250667963486781e+03
878, -1.500000000000841e-04, 2.600000000004088e-03, 6.258126058416200e-05, 5.669326875802419e-06, 1.859490666159229e+01, 5.420003844254039e+03, 4.236604161034776e+02, 5.467464778468669e+03
879, -1.000000000001480e-04, 2.600000000002797e-03, 6.246853190135800e-05, 3.478666741330069e-06, 1.837130833190281e+01, 3.620216364348114e+03, 4.031643911915714e+02, 3.690996330646768e+03
880, -5.000000000021105e-05, 2.600000000001504e-03, 6.238135617082910e-05, 1.289173243104829e-06, 1.750848722063699e+01, 1.820907009025864e+03, 3.593312687652578e+02, 1.941319672619395e+03
881, -3.077169053421203e-16, 2.600000000000212e-03, 6.231973685321055e-05, -9.002986193517972e-07, 1.585306273732817e+01, 2.238101176682227e+01, 2.920856633267597e+02, 5.842077995051628e+02
882, 4.999999999972220e-05, 2.599999999998920e-03, 6.228367047551152e-05, -3.090896083869344e-06, 1.324944979216616e+01, -1.775053025500332e+03, 2.013519670453272e+02, 1.833083795594017e+03
883, 9.999999999978321e-05, 2.599999999997628e-03, 6.227314658640755e-05, -5.283768635248107e-06, 9.539847496467132e+00, -3.571083119210874e+03, 8.705439066396670e+01, 3.584853511295487e+03
884, 1.499999999998756e-04, 2.599999999996335e-03, 6.228814771148044e-05, -7.480068014321420e-06, 4.564244541365667e+00, -5.365393881330245e+03, -5.088299433580896e+01, 5.370922322103052e+03
885, 1.999999999999405e-04, 2.599999999995043e-03, 6.232864930861701e-05, -9.680948225911175e-06, -1.839591007756042e+00, -7.157666515865316e+03, -2.125362503064790e+02, 7.168440946907058e+03
886, -2.000000000000340e-04, 2.500000000005436e-03, 5.835936339829606e-05, 7.702302640388697e-06, 1.756483823235203e+01, 7.409694954839814e+03, 4.212078736854357e+02, 7.439976609659030e+03
887, -1.500000000000885e-04, 2.500000000004174e-03, 5.822147659100367e-05, 5.572489466810370e-06, 1.761583395902267e+01, 5.562635487023666e+03, 4.252999274785299e+02, 5.609880842417789e+03
888, -1.000000000001556e-04, 2.500000000002911e-03, 5.810979443501489e-05, 3.445033903977276e-06, 1.727074210722822e+01, 3.715667989491627e+03, 4.058311463235173e+02, 3.786414910804881e+03
889, -5.000000000022121e-05, 2.500000000001650e-03, 5.802433039059445e-05, 1.318778416622896e-06, 1.637870138665664e+01, 1.869093981572799e+03, 3.627220321597357e+02, 1.989679119831027e+03
890, -3.205375960317614e-16, 2.500000000000388e-03, 5.796509103984161e-05, -8.074368668864803e-07, 1.478663517979567e+01, 2.321847197656058e+01, 2.958928322256020e+02, 5.918457303400273e+02
891, 4.999999999971200e-05, 2.499999999999127e-03, 5.793207604054377e-05, -2.934774165456011e-06, 1.233916837610388e+01, -1.821650098461291e+03, 2.052635477035512e+02, 1.879374663801276e+03
892, 9.999999999977564e-05, 2.499999999997865e-03, 5.792527808019345e-05, -5.064398055321561e-06, 8.878637137785176e+00, -3.665199827619462e+03, 9.075397460135997e+01, 3.678559188162771e+03
893, 1.499999999998713e-04, 2.499999999996604e-03, 5.794468282993857e-05, -7.197475479470366e-06, 4.245075701565725e+00, -5.507115339975584e+03, -4.771625712870947e+01, 5.512186589391772e+03
894, 1.999999999999386e-04, 2.499999999995341e-03, 5.799026889840344e-05, -9.335175756522991e-06, -1.723687664327372e+00, -7.347077686983148e+03, -2.102276143161424e+02, 7.357377792025716e+03
895, -2.000000000000358e-04, 2.400000000005491e-03, 5.412699514152001e-05, 7.530199291183637e-06, 1.674450404850302e+01, 7.601915696423244e+03, 4.208934398929645e+02, 7.631738148587868e+03
896, -1.500000000000929e-04, 2.400000000004260e-03, 5.398945052620428e-05, 5.465186765669939e-06, 1.657133315796159e+01, 5.707158360307356e+03, 4.264676814153538e+02, 5.754153234553988e+03
897, -1.000000000001632e-04, 2.400000000003029e-03, 5.387878084465157e-05, 3.402582256016821e-06, 1.609947203772094e+01, 3.812403610910054e+03, 4.081825807481579e+02, 3.883088614971864e+03
898, -5.000000000023145e-05, 2.400000000001797e-03, 5.379500283510961e-05, 1.341213475880965e-06, 1.517845726746009e+01, 1.917952645092920e+03, 3.659542218997216e+02, 2.038685748211274e+03
899, -3.333650629849805e-16, 2.400000000000566e-03, 5.373812636853896e-05, -7.200943107041162e-07, 1.365550135913918e+01, 2.411018197825399e+01, 2.996983629975661e+02, 5.994878943569514e+02
900, 4.999999999970184e-05, 2.399999999999334e-03, 5.370815440166337e-05, -2.782518299783828e-06, 1.137548808601900e+01, -1.868815518443938e+03, 2.093304983054247e+02, 1.926238627771576e+03
901, 9.999999999976805e-05, 2.399999999998102e-03, 5.370508292985028e-05, -4.847238158118690e-06, 8.180955425409024e+00, -3.760512643514527e+03, 9.476588866744743e+01, 3.773456470838185e+03
902, 1.499999999998670e-04, 2.399999999996872e-03, 5.372890093986916e-05, -6.915436033399780e-06, 3.912081496699784e+00, -5.650665810265657e+03, -4.408039881467474e+01, 5.655265109634232e+03
903, 1.999999999999366e-04, 2.399999999995640e-03, 5.377959036243559e-05, -8.988296563577997e-06, -1.593443760700666e+00, -7.538956134263637e+03, -2.072934448106489e+02, 7.548756097346868e+03
904, -2.000000000000378e-04, 2.300000000005451e-03, 5.002577502127839e-05, 7.345927599200511e-06, 1.587039355655054e+01, 7.796629273756250e+03, 4.199191939337744e+02, 7.825952802665145e+03
905, -1.500000000000972e-04, 2.300000000004251e-03, 4.988852474260847e-05, 5.347380954444225e-06, 1.546141240291206e+01, 5.853572601700714e+03, 4.271395192868872e+02, 5.900282614786406e+03
906, -1.000000000001708e-04, 2.300000000003051e-03, 4.977882789811195e-05, 3.351295050443171e-06, 1.485673021250830e+01, 3.910423925831145e+03, 4.102024843733165e+02, 3.981018473748171e+03
907, -5.000000000024163e-05, 2.300000000001851e-03, 4.969670467492175e-05, 1.356482857336196e-06, 1.390627664731289e+01, 1.967484069869235e+03, 3.690195740439846e+02, 2.088340963128447e+03
908, -3.461857536746216e-16, 2.300000000000652e-03, 4.964216840443429e-05, -6.382452182446906e-07, 1.245757798933062e+01, 2.505742837208317e+01, 3.035019646307202e+02, 6.071346855257863e+02
909, 4.999999999969163e-05, 2.299999999999453e-03, 4.961522551436810e-05, -2.634081345355024e-06, 1.035578332692558e+01, -1.916547972497614e+03, 2.135605316522545e+02, 1.973674361927289e+03
910, 9.999999999976044e-05, 2.299999999998253e-03, 4.961587548060142e-05, -4.632220279988668e-06, 7.443646752310997e+00, -3.857020458115202e+03, 9.910588828781434e+01, 3.869543994604886e+03
911, 1.499999999998626e-04, 2.299999999997052e-03, 4.964411077881319e-05, -6.633859376045451e-06, 3.561508284881938e+00, -5.796044688931868e+03, -3.995158309556462e+01, 5.800156597779262e+03
912, 1.999999999999347e-04, 2.299999999995853e-03, 4.969991683589027e-05, -8.640198596325554e-06, -1.452742972872102e+00, -7.733301651740085e+03, -2.037017171424355e+02, 7.742574836982322e+03
913, -2.000000000000396e-04, 2.200000000005174e-03, 4.605909479930206e-05, 7.149440172134174e-06, 1.494264317519719e+01, 7.993834147421708e+03, 4.182522321911956e+02, 8.022621102574196e+03
914, -1.500000000001016e-04, 2.200000000004032e-03, 4.592208514953973e-05, 5.219045587353413e-06, 1.428564235376200e+01, 6.001877663151123e+03, 4.272906980070666e+02, 6.048269799697239e+03
915, -1.000000000001784e-04, 2.200000000002889e-03, 4.581331563888314e-05, 3.291166899449980e-06, 1.354160385219075e+01, 4.009729265856738e+03, 4.118741772827424e+02, 4.080205531784731e+03
916, -5.000000000025179e-05, 2.200000000001748e-03, 4.573281007754753e-05, 1.364602346003974e-06, 1.256080288922112e+01, 2.017689269232735e+03, 3.719095241111173e+02, 2.138646053707654e+03
917, -3.590132206278407e-16, 2.200000000000606e-03, 4.568058543269131e-05, -5.618525168923758e-07, 1.119114746606101e+01, 2.606172703434316e+01, 3.073032107223963e+02, 6.147862941037891e+02
918, 4.999999999968146e-05, 2.199999999999464e-03, 4.565665177931138e-05, -2.489404826914238e-06, 9.278100894888439e+00, -1.964845595394886e+03, 2.179613782890761e+02, 2.021680740857837e+03
919, 9.999999999975283e-05, 2.199999999998322e-03, 4.566101225088626e-05, -4.419264427759572e-06, 6.664667763867897e+00, -3.954721198174374e+03, 1.037898701075245e+02, 3.966820808582487e+03
920, 1.499999999998582e-04, 2.199999999997180e-03, 4.569366298985561e-05, -6.352643880973564e-06, 3.191384158698725e+00, -5.943249824889921e+03, -3.530573115947251e+01, 5.946860434824616e+03
921, 1.999999999999328e-04, 2.199999999996038e-03, 4.575459309804518e-05, -8.290758477228768e-06, -1.303581743097197e+00, -7.930112355585761e+03, -1.994200744712604e+02, 7.938833795751923e+03
922, -2.000000000000416e-04, 2.100000000004828e-03, 4.223039006086679e-05, 6.940701580755840e-06, 1.396340984990741e+01, 8.193529823640662e+03, 4.158589561162048e+02, 8.221743209511105e+03
923, -1.500000000001059e-04, 2.100000000003754e-03, 4.209356120471432e-05, 5.080166162211609e-06, 1.304512547238335e+01, 6.152073859463824e+03, 4.268957784696948e+02, 6.198115344156927e+03
924, -1.000000000001860e-04, 2.100000000002678e-03, 4.198566737946915e-05, 3.222204346108338e-06, 1.215417218887660e+01, 4.110320514441732e+03, 4.131805341238831e+02, 4.180650665134523e+03
925, -5.000000000026199e-05, 2.100000000001603e-03, 4.190673619790399e-05, 1.365599647138958e-06, 1.114138312607838e+01, 2.068569682246135e+03, 3.746152924915210e+02, 2.189602172883029e+03
926, -3.718339113174818e-16, 2.100000000000528e-03, 4.185678844348938e-05, -4.908672209996795e-07, 9.855091411022045e+00, 2.712502697417722e+01, 3.111017126991787e+02, 6.224430522158672e+02
927, 4.999999999967128e-05, 2.099999999999452e-03, 4.183583802007863e-05, -2.348418359682044e-06, 8.141129233193283e+00, -2.013705980840843e+03, 2.225410800401487e+02, 2.070256956451656e+03
928, 9.999999999974523e-05, 2.099999999998377e-03, 4.184389190139504e-05, -4.208278698314052e-06, 5.842815477399427e+00, -4.053612040118913e+03, 1.088343485891984e+02, 4.065286384297645e+03
929, 1.499999999998539e-04, 2.099999999997302e-03, 4.188095008037363e-05, -6.071676006786036e-06, 2.800954881808593e+00, -6.092277987798033e+03, -3.011782159445090e+01, 6.095376579852109e+03
930, 1.999999999999309e-04, 2.099999999996226e-03, 4.194700551851911e-05, -7.939840907540879e-06, -1.146232306830029e+00, -8.129384838986323e+03, -1.944149981248745e+02, 8.137533509184375e+03
931, -2.000000000000435e-04, 2.000000000004496e-03, 3.854314027807589e-05, 6.719688936023554e-06, 1.293363688793295e+01, 8.395714405451730e+03, 4.127047705211852e+02, 8.423319673635024e+03
932, -1.500000000001103e-04, 2.000000000003499e-03, 3.840642594996201e-05, 4.930740702434756e-06, 1.173982529538705e+01, 6.304160288649393e+03, 4.259286594308066e+02, 6.349820169054738e+03
933, -1.000000000001936e-04, 2.000000000002501e-03, 3.829934971591054e-05, 3.144426443773681e-06, 1.069366011631371e+01, 4.212197713851372e+03, 4.141039682302681e+02, 4.282355041279080e+03
934, -5.000000000027220e-05, 2.000000000001505e-03, 3.822194317462180e-05, 1.359514964891846e-06, 9.646558017705502e+00, 2.120126088661071e+03, 3.771278692555089e+02, 2.241210737155576e+03
935, -3.846512138753339e-16, 2.000000000000507e-03, 3.817423111035119e-05, -4.252278543688513e-07, 8.447336029526582e+00, 2.824865088458432e+01, 3.148970830932737e+02, 6.301053751814832e+02
936, 4.999999999966107e-05, 1.999999999999510e-03, 3.815623144138442e-05, -2.211039073275763e-06, 6.942243432546775e+00, -2.063127470559284e+03, 2.273079236353958e+02, 2.119401847072886e+03
937, 9.999999999973761e-05, 1.999999999998513e-03, 3.816795516831165e-05, -3.999158704203222e-06, 4.974951906633351e+00, -4.153691223312524e+03, 1.142563339772470e+02, 4.164939662987643e+03
938, 1.499999999998495e-04, 1.999999999997515e-03, 3.820940632206213e-05, -5.790829726027560e-06, 2.386537362161107e+00, -6.243127607785532e+03, -2.436206741997054e+01, 6.245704201974011e+03
939, 1.999999999999290e-04, 1.999999999996517e-03, 3.828058191171056e-05, -7.587298096248767e-06, -9.845312311393855e-01, -8.331117641853438e+03, -1.886519673446684e+02, 8.338673509606788e+03
940, -2.000000000000454e-04, 1.900000000004165e-03, 3.500086879336185e-05, 6.486392487666731e-06, 1.185545720876917e+01, 8.600386449574955e+03, 4.087542848489430e+02, 8.627350976305761e+03
941, -1.500000000001146e-04, 1.900000000003247e-03, 3.486419600131502e-05, 4.770780348407704e-06, 1.037050871685778e+01, 6.458136337909255e+03, 4.243626040085210e+02, 6.503385169803853e+03
942, -1.000000000002012e-04, 1.900000000002328e-03, 3.475787252009621e-05, 3.057865347735112e-06, 9.159769562596239e+00, 4.315361080470228e+03, 4.146264518283201e+02, 4.385319841047581e+03
943, -5.000000000028235e-05, 1.900000000001409e-03, 3.468193412218817e-05, 1.346401591993766e-06, 8.075137791297493e+00, 2.172359435994391e+03, 3.794379700619185e+02, 2.293473177507707e+03
944, -3.974685164331859e-16, 1.900000000000491e-03, 3.463640978146630e-05, -3.648598630500591e-07, 6.965943929207583e+00, 2.943414506990814e+01, 3.186888320149275e+02, 6.377735543801214e+02
945, 4.999999999965091e-05, 1.899999999999572e-03, 3.462132162061478e-05, -2.077171028003121e-06, 5.678899363813571e+00, -2.113108060434804e+03, 2.322702566089069e+02, 2.169114120887451e+03
946, 9.999999999973007e-05, 1.899999999998654e-03, 3.463668485815398e-05, -3.791786994850417e-06, 4.058067811358683e+00, -4.254956435922897e+03, 1.200730487784307e+02, 4.265779493971826e+03
947, 1.499999999998452e-04, 1.899999999997735e-03, 3.468250775513016e-05, -5.509965951447867e-06, 1.944834946965329e+00, -6.395796201222437e+03, -1.801236364163722e+01, 6.397842460303456e+03
948, 1.999999999999271e-04, 1.899999999996817e-03, 3.475879156133356e-05, -7.232969195788935e-06, -8.220731538442578e-01, -8.535308473320882e+03, -1.820958638504063e+02, 8.542253433910857e+03
949, -2.000000000000473e-04, 1.800000000003828e-03, 3.160714284257908e-05, 6.240816235418612e-06, 1.073059379402855e+01, 8.807543523856364e+03, 4.039711820907733e+02, 8.833837704551242e+03
950, -1.500000000001189e-04, 1.800000000002982e-03, 3.147043156126492e-05, 4.600309973440374e-06, 8.938062797846214e+00, 6.614000987177204e+03, 4.221702068640244e+02, 6.658811227934400e+03
951, -1.000000000002088e-04, 1.800000000002135e-03, 3.136478894359519e-05, 2.962566928023911e-06, 7.552392752288029e+00, 4.419810661014011e+03, 4.147294715869835e+02, 4.489546209168051e+03
952, -5.000000000029254e-05, 1.800000000001289e-03, 3.129025512775231e-05, 1.326326521087639e-06, 6.426131042097836e+00, 2.225270672872840e+03, 3.815360388450906e+02, 2.346390866109585e+03
953, -4.102858189910380e-16, 1.800000000000442e-03, 3.124686347062102e-05, -3.096750052446362e-07, 5.409212699851423e+00, 3.068324412151321e+01, 3.224764120602152e+02, 6.454478460768322e+02
954, 4.999999999964072e-05, 1.799999999999596e-03, 3.123464049398511e-05, -1.946704605290790e-06, 4.348888646285218e+00, -2.163645326424726e+03, 2.374365956055493e+02, 2.219392589046017e+03
955, 9.999999999972246e-05, 1.799999999998750e-03, 3.125360583041210e-05, -3.586032446152562e-06, 3.089703762681665e+00, -4.357404632696989e+03, 1.263021301826702e+02, 4.367804914445192e+03
956, 1.499999999998409e-04, 1.799999999997903e-03, 3.130377216877199e-05, -5.228931923628614e-06, 1.473483112258350e+00, -6.550280121324523e+03, -1.104186889912367e+01, 6.551790822723624e+03
957, 1.999999999999252e-04, 1.799999999997057e-03, 3.138514519946184e-05, -6.876679677455448e-06, -6.607775298741672e-01, -8.741953128852281e+03, -1.747106872665753e+02, 8.748273387833069e+03
958, -2.000000000000492e-04, 1.700000000003484e-03, 2.836557356075644e-05, 5.982978564799057e-06, 9.561908184342769e+00, 9.017183438196778e+03, 3.983183899914573e+02, 9.042780312888570e+03
959, -1.500000000001233e-04, 1.700000000002704e-03, 2.822873641949572e-05, 4.419368812589192e-06, 7.443887076592773e+00, 6.771753163868621e+03, 4.193233365372809e+02, 6.816099194873395e+03
960, -1.000000000002164e-04, 1.700000000001925e-03, 2.812369541113389e-05, 2.858591397470385e-06, 5.871616900141021e+00, 4.525546336315852e+03, 4.143940188924851e+02, 4.595035275261873e+03
961, -5.000000000030273e-05, 1.700000000001145e-03, 2.805049523635578e-05, 1.299371071076479e-06, 4.698481838144517e+00, 2.278860515446625e+03, 3.834122322398305e+02, 2.399965148586700e+03
962, -4.231031215488901e-16, 1.700000000000365e-03, 2.800917383290435e-05, -2.595707265023331e-07, 3.775064673096949e+00, 3.199734366138637e+01, 3.262591940148466e+02, 6.531284282192609e+02
963, 4.999999999963053e-05, 1.699999999999585e-03, 2.799976232059238e-05, -1.819515884759000e-06, 2.949202738908184e+00, -2.214737371581776e+03, 2.428155757103166e+02, 2.270235969486948e+03
964, 9.999999999971485e-05, 1.699999999998805e-03, 2.802228494610550e-05, -3.381749640217888e-06, 2.065963283590236e+00, -4.461033636313041e+03, 1.329615374560250e+02, 4.471014774935360e+03
965, 1.499999999998365e-04, 1.699999999998025e-03, 2.807675902754041e-05, -4.947560593669145e-06, 9.676100897695505e-01, -6.706577248778069e+03, -3.423240937967648e+00, 6.707548353015313e+03
966, 1.999999999999232e-04, 1.699999999997246e-03, 2.816319489846598e-05, -6.518240727160103e-06, -5.063397790704585e-01, -8.951049691157405e+03, -1.664595345780152e+02, 8.956732740877704e+03
967, -2.000000000000511e-04, 1.600000000003144e-03, 2.527981600629188e-05, 5.712912887086261e-06, 8.352115476244876e+00, 9.229303225056594e+03, 3.917578331027238e+02, 9.254179389036091e+03
968, -1.500000000001277e-04, 1.600000000002436e-03, 2.514275796341590e-05, 4.228011105065809e-06, 5.889183882654379e+00, 6.931391122010375e+03, 4.157932557605001e+02, 6.975250047213682e+03
969, -1.000000000002240e-04, 1.600000000001727e-03, 2.503823162140977e-05, 2.746013953434577e-06, 4.117590276872306e+00, 4.632567674692509e+03, 4.136006764260386e+02, 4.701788198344055e+03
970, -5.000000000031292e-05, 1.600000000001018e-03, 2.496628644493498e-05, 1.265631529233655e-06, 2.891392776635030e+00, 2.333129655865849e+03, 3.850565037693785e+02, 2.454197304037600e+03
971, -4.359339766338982e-16, 1.600000000000309e-03, 2.492696515506964e-05, -2.144295176751664e-07, 2.061905006288157e+00, 3.337812132503086e+01, 3.300365424313296e+02, 6.608155436766219e+02
972, 4.999999999962034e-05, 1.599999999999600e-03, 2.492030367309639e-05, -1.695466002831458e-06, 1.477649039188236e+00, -2.266381609473833e+03, 2.484160182887792e+02, 2.321643316487921e+03
973, 9.999999999970728e-05, 1.599999999998891e-03, 2.494633106448008e-05, -3.178778225477477e-06, 9.843206613928714e-01, -4.565839963430784e+03, 1.400696045492402e+02, 4.575408399066509e+03
974, 1.499999999998322e-04, 1.599999999998182e-03, 2.500506948278619e-05, -4.665669986935077e-06, 4.247530804381086e-01, -6.864683111931963e+03, 4.871441043058496e+00, 6.865114778501993e+03
975, 1.999999999999214e-04, 1.599999999997473e-03, 2.509653411344786e-05, -6.157448609199949e-06, -3.611359410831483e-01, -9.162592960822138e+03, -1.573048317415450e+02, 9.167631714528034e+03
976, -2.000000000000531e-04, 1.500000000002802e-03, 2.235356913286011e-05, 5.430668304232325e-06, 7.104739219736075e+00, 9.443899783490324e+03, 3.842506033013483e+02, 9.468035425161850e+03
977, -1.500000000001320e-04, 1.500000000002160e-03, 2.221618715182848e-05, 4.026306754314709e-06, 4.276119966324131e+00, 7.092913339051858e+03, 4.115505982146811e+02, 7.136264653400134e+03
978, -1.000000000002316e-04, 1.500000000001518e-03, 2.211208051759573e-05, 2.624925437569899e-06, 2.291026518430954e+00, 4.740874331591511e+03, 4.123296498212449e+02, 4.809806097921635e+03
979, -5.000000000032311e-05, 1.500000000000877e-03, 2.204130366615050e-05, 1.225219811026530e-06, 1.004286874512218e+00, 2.388078737503579e+03, 3.864586653120348e+02, 2.509088606013167e+03
980, -4.487512791917503e-16, 1.500000000000236e-03, 2.200390430965416e-05, -1.741182542992670e-07, 2.679972030597355e-01, 3.482702853685794e+01, 3.338079047990896e+02, 6.685096827063634e+02
981, 4.999999999961016e-05, 1.499999999999595e-03, 2.199992337874916e-05, -1.574400491670085e-06, -6.853988582247439e-02, -2.318575895414382e+03, 2.542470398828475e+02, 2.373613824276559e+03
982, 9.999999999969963e-05, 1.499999999998952e-03, 2.202939496559973e-05, -2.976942256309836e-06, -1.588919920797025e-01, -4.671820831813307e+03, 1.476451786788442e+02, 4.680985118019781e+03
983, 1.499999999998278e-04, 1.499999999998311e-03, 2.209234626821473e-05, -4.383062543827082e-06, -1.595795629095846e-01, -7.024594384118001e+03, 1.387086179996476e+01, 7.024489584779327e+03
984, 1.999999999999195e-04, 1.499999999997670e-03, 2.218879753489892e-05, -5.794084010039763e-06, -2.301587845963695e-01, -9.376578983754482e+03, -1.472079745171802e+02, 9.380969994545338e+03
985, -2.000000000000549e-04, 1.400000000002461e-03, 1.959057580921928e-05, 5.136310285155735e-06, 5.823686807003355e+00, 9.660969637189588e+03, 3.757568259311203e+02, 9.684349027793482e+03
986, -1.500000000001364e-04, 1.400000000001890e-03, 1.945275851937251e-05, 3.814342003318069e-06, 2.607004161168675e+00, 7.256317947969465e+03, 4.065652265447659e+02, 7.299144031327636e+03
987, -1.000000000002392e-04, 1.400000000001320e-03, 1.934896827880904e-05, 2.495433007888349e-06, 3.927539507133133e-01, 4.850465805024366e+03, 4.105606547427849e+02, 4.919090241664833e+03
988, -5.000000000033329e-05, 1.400000000000748e-03, 1.927926470841280e-05, 1.178264131708618e-06, -9.633294403457739e-01, 2.443708371467397e+03, 3.876083168177431e+02, 2.564640433722492e+03
989, -4.615719698813914e-16, 1.400000000000178e-03, 1.924370072577169e-05, -1.384875243100617e-07, -1.608307744039621e+00, 3.634560135405513e+01, 3.375727532528230e+02, 6.762114714869837e+02
990, 4.999999999959998e-05, 1.399999999999606e-03, 1.924232248337268e-05, -1.456148607231483e-06, -1.692041137411138e+00, -2.371317873831692e+03, 2.603179622813807e+02, 2.426146811905121e+03
991, 9.999999999969204e-05, 1.399999999999035e-03, 1.927516931082822e-05, -2.776049524949495e-06, -1.367273949991613e+00, -4.778973073111629e+03, 1.557074494244546e+02, 4.787744397042095e+03
992, 1.499999999998235e-04, 1.399999999998463e-03, 1.934227366053395e-05, -4.099524460570079e-06, -7.897519030682361e-01, -7.186306991654021e+03, 2.360416080885534e+01, 7.185672315684045e+03
993, 1.999999999999176e-04, 1.399999999997893e-03, 1.944366105639190e-05, -5.427911392922997e-06, -1.182789295578459e-01, -9.593002674954094e+03, -1.361296343695287e+02, 9.596747164790024e+03
994, -2.000000000000568e-04, 1.300000000002126e-03, 1.699462282994832e-05, 4.829921351824457e-06, 4.512906295827861e+00, 9.880508579688592e+03, 3.662357053406387e+02, 9.903120968075571e+03
995, -1.500000000001407e-04, 1.300000000001629e-03, 1.685625017789603e-05, 3.592220116807758e-06, 8.836576109479211e-01, 7.421602036009430e+03, 4.008062940781448e+02, 7.463889334187077e+03
996, -1.000000000002468e-04, 1.300000000001133e-03, 1.675266431191060e-05, 2.357660819921469e-06, -1.577087689608220e+00, 4.961340556408391e+03, 4.082728845920977e+02, 5.029641988777317e+03
997, -5.000000000034346e-05, 1.300000000000637e-03, 1.668393025808157e-05, 1.124909687598693e-06, -3.012472170566525e+00, 2.500018623773550e+03, 3.884947525957936e+02, 2.620854318431505e+03
998, -4.743892724392434e-16, 1.300000000000140e-03, 1.665010635879614e-05, -1.073709450568178e-07, -3.568726710506326e+00, 3.793567829934977e+01, 3.413305110945835e+02, 6.839215502172603e+02
999, 4.999999999958981e-05, 1.299999999999644e-03, 1.665124420667344e-05, -1.340522644035875e-06, -3.395183221706020e+00, -2.424604154660401e+03, 2.666383567850903e+02, 2.479241201781593e+03
1000, 9.999999999968445e-05, 1.299999999999148e-03, 1.668738858274322e-05, -2.575890875151073e-06, -2.644020632620595e+00, -4.887292283909916e+03, 1.642761373771563e+02, 4.895685371138972e+03
1001, 1.499999999998191e-04, 1.299999999998652e-03, 1.675857740671657e-05, -3.814825005079758e-06, -1.470054243538016e+00, -7.349815909656227e+03, 3.410126061397418e+01, 7.348662354106542e+03
1002, 1.999999999999157e-04, 1.299999999998155e-03, 1.686484169098530e-05, -5.058678317636499e-06, -3.092499619344835e-02, -9.811858419913411e+03, -1.240295909799245e+02, 9.814962666651774e+03
1003, -2.000000000000587e-04, 1.200000000001781e-03, 1.456954088399809e-05, 4.511601790672755e-06, 3.177653719398336e+00, 1.010251232737744e+04, 3.556458418978763e+02, 1.012435166862494e+04
1004, -1.500000000001450e-04, 1.200000000001350e-03, 1.443048379463210e-05, 3.360062099204378e-06, -8.928088938338306e-01, 7.588759768926690e+03, 3.942423651064017e+02, 7.630500273363239e+03
1005, -1.000000000002543e-04, 1.200000000000919e-03, 1.432698124840443e-05, 2.211750744374796e-06, -3.620447939641167e+00, 5.073492720377438e+03, 4.054445872353157e+02, 5.141460821320370e+03
1006, -5.000000000035367e-05, 1.200000000000488e-03, 1.425910388660206e-05, 1.065319359565192e-06, -5.145918574865618e+00, 2.557006945558821e+03, 3.891059979432339e+02, 2.677730608132575e+03
1007, -4.872353741173022e-16, 1.200000000000057e-03, 1.422691568855884e-05, -8.058448379506494e-08, -5.615306728590895e+00, 3.960020034332479e+01, 3.450795309703570e+02, 6.916386143490377e+02
1008, 4.999999999957962e-05, 1.199999999999626e-03, 1.423047390360934e-05, -1.227317274033652e-06, -5.179215943210579e+00, -2.478426906945936e+03, 2.732175074287601e+02, 2.532892687524019e+03
1009, 9.999999999967686e-05, 1.199999999999196e-03, 1.426982899765331e-05, -2.376239541672625e-06, -3.991023819716247e+00, -4.996768927920501e+03, 1.733717542153729e+02, 5.004803918268515e+03
1010, 1.499999999998148e-04, 1.199999999998765e-03, 1.434502459056917e-05, -3.528715842074185e-06, -2.205161318246610e+00, -7.515113723504526e+03, 4.539362262990736e+01, 7.513457086300139e+03
1011, 1.999999999999137e-04, 1.199999999998334e-03, 1.445609741089008e-05, -4.686114756532437e-06, 2.374175877707785e-02, -1.003314199436046e+04, -1.108659259494310e+02, 1.003561556171736e+04
1012, -2.000000000000607e-04, 1.100000000001707e-03, 1.231920449251880e-05, 4.181470394099740e-06, 1.827169320552684e+00, 1.032697877255925e+04, 3.439466936724556e+02, 1.034804101954643e+04
1013, -1.500000000001494e-04, 1.100000000001301e-03, 1.217932457029161e-05, 3.118007523990124e-06, -2.723645923990603e+00, 7.757775344159706e+03, 3.868422407197920e+02, 7.798969948134850e+03
1014, -1.000000000002619e-04, 1.100000000000895e-03, 1.207577500793638e-05, 2.057863228409140e-06, -5.744449587254849e+00, 5.186901910112363e+03, 4.020516357320932e+02, 5.254536924228538e+03
1015, -5.000000000036384e-05, 1.100000000000489e-03, 1.200863219628793e-05, 9.996745006156199e-07, -7.371035839319234e+00, 2.614661397706716e+03, 3.894252544129519e+02, 2.735262729184476e+03
1016, -5.000628410705213e-16, 1.100000000000083e-03, 1.197796586446232e-05, -5.792581126591150e-08, -7.751037888729797e+00, 4.134508392174780e+01, 3.488129388011614e+02, 6.993513382251015e+02
1017, 4.999999999956943e-05, 1.099999999999677e-03, 1.198383912434646e-05, -1.116309022909826e-06, -7.042511618738331e+00, -2.532763831178103e+03, 2.800619554853203e+02, 2.587084648734506e+03
1018, 9.999999999966927e-05, 1.099999999999272e-03, 1.202630841590502e-05, -2.176850650961312e-06, -5.406418194675325e+00, -5.107376306636603e+03, 1.830159739377565e+02, 5.115083198681491e+03
1019, 1.499999999998105e-04, 1.099999999998866e-03, 1.210542342180233e-05, -3.240930442665409e-06, -2.998758132657031e+00, -7.682183762938894e+03, 5.751691151970087e+01, 7.680046557051854e+03
1020, 1.999999999999118e-04, 1.099999999998460e-03, 1.222122689408951e-05, -4.309932372342855e-06, 3.134525780637887e-02, -1.025685543017650e+04, -9.659256034206157e+01, 1.025870590352082e+04
1021, -2.000000000000626e-04, 1.000000000002109e-03, 1.024753191575074e-05, 3.839665190097959e-06, 4.787201255180662e-01, 1.055391331076821e+04, 3.311029647328645e+02, 1.057419019840258e+04
1022, -1.500000000001537e-04, 1.000000000001674e-03, 1.010668123453277e-05, 2.866215672699921e-06, -4.610165914784034e+00, 7.928613013612252e+03, 3.785775893177574e+02, 7.969273114953436e+03
1023, -1.000000000002696e-04, 1.000000000001239e-03, 1.000294505415067e-05, 1.896178578673452e-06, -7.961814533669667e+00, 5.301515716333452e+03, 3.980645070113416e+02, 5.368833491341629e+03
1024, -5.000000000037402e-05, 1.000000000000804e-03, 9.936405283764518e-06, 9.281759892985843e-07, -9.700186537019022e+00, 2.672950305129046e+03, 3.894219253486102e+02, 2.793422883167719e+03
1025, -5.128852258260569e-16, 1.000000000000369e-03, 9.907137228634765e-06, -3.917374399585276e-08, -9.981602068858365e+00, 4.318223221116261e+01, 3.525082085956165e+02, 7.070180632660781e+02
1026, 4.999999999955924e-05, 9.999999999999337e-04, 9.915209919110761e-06, -1.007256163167891e-06, -8.983412976695945e+00, -2.587562733442340e+03, 2.871685799927502e+02, 2.641767303392422e+03
1027, 9.999999999966167e-05, 9.999999999994987e-04, 9.960686316671890e-06, -1.977461224238650e-06, -6.886644692178606e+00, -5.219050604725926e+03, 1.932320860874642e+02, 5.226471821664163e+03
1028, 1.499999999998061e-04, 9.999999999990637e-04, 1.004362288997346e-05, -2.951183782597329e-06, -3.857812448277286e+00, -7.850991725563033e+03, 7.051730216662907e+01, 7.848401200880033e+03
1029, 1.999999999999099e-04, 9.999999999986283e-04, 1.016406910077466e-05, -3.929823668850677e-06, -3.485449922800399e-02, -1.048301852573197e+04, -8.115252046471016e+01, 1.048424005723082e+04
1030, -2.000000000000644e-04, 9.000000000025380e-04, 8.358485437628619e-06, 3.486344046744918e-06, -8.417368540888219e-01, 1.078333863626483e+04, 3.170901211335574e+02, 1.080281124983887e+04
1031, -1.500000000001581e-04, 9.000000000020734e-04, 8.216506440593877e-06, 2.604867199563829e-06, -6.539847870945664e+00, 8.101222178126986e+03, 3.694259302603468e+02, 8.141357819308090e+03
1032, -1.000000000002772e-04, 9.000000000016087e-04, 8.112435015883876e-06, 1.726899047854284e-06, -1.025641406527416e+01, 5.417272156763778e+03, 3.934432184763828e+02, 5.484273575581899e+03
1033, -5.000000000038420e-05, 9.000000000011442e-04, 8.046357679110836e-06, 8.510457684571153e-07, -1.212740173871282e+01, 2.731840296533825e+03, 3.890411254498155e+02, 2.852151945168442e+03
1034, -5.256991402521199e-16, 9.000000000006796e-04, 8.018354203793891e-06, -2.408784138351468e-08, -1.231770857149525e+01, 4.513343875902615e+01, 3.561140052676556e+02, 7.145413727144710e+02
1035, 4.999999999954906e-05, 9.000000000002148e-04, 8.028499552684490e-06, -8.998993685899457e-07, -1.102796428750253e+01, -2.642753091512021e+03, 2.945164963949907e+02, 2.696838336248584e+03
1036, 9.999999999965402e-05, 8.999999999997502e-04, 8.076864024398237e-06, -1.777791149436400e-06, -8.465133616377329e+00, -5.331710872008311e+03, 2.040442398916882e+02, 5.338865178915816e+03
1037, 1.499999999998018e-04, 8.999999999992857e-04, 8.163512695865227e-06, -2.659172568803247e-06, -4.809596146891863e+00, -8.021493904624867e+03, 8.445954229256586e+01, 8.018463753047343e+03
1038, 1.999999999999080e-04, 8.999999999988212e-04, 8.288503148301790e-06, -3.545460819918858e-06, -2.171088560799035e-01, -1.071168897714860e+04, -6.446879727865888e+01, 1.071224787280953e+04
1039, -2.000000000000664e-04, 8.000000000027327e-04, 6.656074321218391e-06, 3.121684724356075e-06, -2.187585524042902e+00, 1.101523003179277e+04, 3.018746094439904e+02, 1.103394780093103e+04
1040, -1.500000000001624e-04, 8.000000000022627e-04, 6.512798960953603e-06, 2.334165697074883e-06, -8.401538751831481e+00, 8.275701608386933e+03, 3.593477935595456e+02, 8.315220279666610e+03
1041, -1.000000000002848e-04, 8.000000000017928e-04, 6.408233970120191e-06, 1.550250549274325e-06, -1.242684331000339e+01, 5.534375962481867e+03, 3.881391120144876e+02, 5.600859688248059e+03
1042, -5.000000000039436e-05, 8.000000000013229e-04, 6.342468096290849e-06, 7.685280456728813e-07, -1.449059018807998e+01, 2.791525678843641e+03, 3.882310460624815e+02, 2.911463666710917e+03
1043, -5.385198309417610e-16, 8.000000000008525e-04, 6.315584751544981e-06, -1.240816305303474e-08, -1.477310414192107e+01, 4.723350947830590e+01, 3.595943257300989e+02, 7.218567285284429e+02
1044, 4.999999999953886e-05, 8.000000000003829e-04, 6.327664100565922e-06, -7.939623082619513e-07, -1.336727906179340e+01, -2.698472248093162e+03, 3.020936747186301e+02, 2.752241095532325e+03
1045, 9.999999999964645e-05, 7.999999999999128e-04, 6.378785733840172e-06, -1.577543968271104e-06, -1.037197486083244e+01, -5.445536693283199e+03, 2.154792556790743e+02, 5.452223468906544e+03
1046, 1.499999999997974e-04, 7.999999999994429e-04, 6.469025171592894e-06, -2.364575354066074e-06, -5.990822618315974e+00, -8.193807011072318e+03, 9.940649140712475e+01, 8.190229577859519e+03
1047, 1.999999999999061e-04, 7.999999999989728e-04, 6.598451126149800e-06, -3.156493652393253e-06, -4.847996831841783e-01, -1.094290842872394e+04, -4.645992874239587e+01, 1.094281814604010e+04
1048, -2.000000000000683e-04, 7.000000000024487e-04, 5.144367467138623e-06, 2.745884943603383e-06, -3.980713081668341e+00, 1.124924705269706e+04, 2.852493482009788e+02, 1.126767961521314e+04
1049, -1.500000000001667e-04, 7.000000000020254e-04, 4.999613324858932e-06, 2.054332784220904e-06, -9.891610038261092e+00, 8.452873105296012e+03, 3.481427164582099e+02, 8.491360316886712e+03
1050, -1.000000000002923e-04, 7.000000000016023e-04, 4.894376171064389e-06, 1.366474478132654e-06, -1.357113797053159e+01, 5.654572338276359e+03, 3.821202121882659e+02, 5.719433004553110e+03
1051, -5.000000000040459e-05, 7.000000000011791e-04, 4.828750746535857e-06, 6.808827630422731e-07, -1.603212826022104e+01, 2.853433514547803e+03, 3.872052997991001e+02, 2.972128000612644e+03
1052, -5.513337453678241e-16, 7.000000000007558e-04, 4.802826526634876e-06, -3.854943653235983e-09, -1.734712249584595e+01, 4.952560181454362e+01, 3.632706748944973e+02, 7.296124273954683e+02
1053, 4.999999999952868e-05, 7.000000000003326e-04, 4.816694150670686e-06, -6.891443880640420e-07, -1.677009092796720e+01, -2.756082697803564e+03, 3.101459547432995e+02, 2.808664382079516e+03
1054, 9.999999999963887e-05, 6.999999999999092e-04, 4.870438939563990e-06, -1.376397634678423e-06, -1.354866218183111e+01, -5.562262376987602e+03, 2.275729509199970e+02, 5.567349610077977e+03
1055, 1.499999999997930e-04, 6.999999999994860e-04, 4.964145824493642e-06, -2.067046055636468e-06, -7.749066930917479e+00, -8.368794945259469e+03, 1.152615357379386e+02, 8.364223159743977e+03
1056, 1.999999999999042e-04, 6.999999999990628e-04, 5.097891781072998e-06, -2.762547256125771e-06, -4.407223081595930e-01, -1.117643507017669e+04, -2.720519840850017e+01, 1.117612679575850e+04
1057, -2.000000000000702e-04, 6.000000000020976e-04, 3.827531171592263e-06, 2.359164911110049e-06, -8.249090112907993e+00, 1.148330829033659e+04, 2.661895748986416e+02, 1.150388276136811e+04
1058, -1.500000000001711e-04, 6.000000000017323e-04, 3.681082608328131e-06, 1.765575465597160e-06, -1.009152810583919e+01, 8.636383135184653e+03, 3.348435161683520e+02, 8.672370196445974e+03
1059, -1.000000000003000e-04, 6.000000000013669e-04, 3.574933955045491e-06, 1.175770281332394e-06, -1.120257267950660e+01, 5.784730778573450e+03, 3.755321198111703e+02, 5.844393972364099e+03
1060, -5.000000000041474e-05, 6.000000000010013e-04, 3.509206874606681e-06, 5.883416975784053e-07, -1.467759612834823e+01, 2.922930764096025e+03, 3.874064770246744e+02, 3.038071426385958e+03
1061, -5.641662945187267e-16, 6.000000000006360e-04, 3.484047573234977e-06, 1.872501575336157e-09, -1.996976936262263e+01, 5.203228601647231e+01, 3.692127852525160e+02, 7.419276374111536e+02
1062, 4.999999999951849e-05, 6.000000000002706e-04, 3.499568411595706e-06, -5.850745188782972e-07, -2.322792747534675e+01, -2.820944076406700e+03, 3.201019562967655e+02, 2.870030783753260e+03
1063, 9.999999999963128e-05, 5.999999999999052e-04, 3.555851007694749e-06, -1.173944783176505e-06, -2.049248050931624e+01, -5.688809488734186e+03, 2.404688296888993e+02, 5.688683392309606e+03
1064, 1.499999999997888e-04, 5.999999999995398e-04, 3.652940521667236e-06, -1.766178871144267e-06, -1.108089946425719e+01, -8.550204895465564e+03, 1.311055344742153e+02, 8.543148907970901e+03
1065, 1.999999999999023e-04, 5.999999999991742e-04, 3.790902670876396e-06, -2.363221594573073e-06, 1.918981527627011e+00, -1.141030038257780e+04, -7.610953915851752e+00, 1.141222951578441e+04
1066, -2.000000000000721e-04, 5.000000000017480e-04, 2.709890841621871e-06, 1.961797640495823e-06, -1.835782952910756e+01, 1.171331426564172e+04, 2.411207697018021e+02, 1.174157941040881e+04
1067, -1.500000000001754e-04, 5.000000000014432e-04, 2.561463049065337e-06, 1.467960510485544e-06, -7.447464394618919e+00, 8.836990187960524e+03, 3.165438731440130e+02, 8.867067016826782e+03
1068, -1.000000000003076e-04, 5.000000000011384e-04, 2.453957553828835e-06, 9.780888157677902e-07, -3.006278697859102e+00, 5.940929399787413e+03, 3.691694994945672e+02, 5.989617335639936e+03
1069, -5.000000000042491e-05, 5.000000000008338e-04, 2.387692330996290e-06, 4.909536575466431e-07, -8.645805257185884e+00, 3.011728433437990e+03, 3.941369736977443e+02, 3.121543906132978e+03
1070, -5.769852911424733e-16, 5.000000000005289e-04, 2.363001930338714e-06, 5.099241115214243e-09, -2.248212289148080e+01, 5.459032585486295e+01, 3.844390646342970e+02, 7.727313504856204e+02
1071, 4.999999999950832e-05, 5.000000000002242e-04, 2.380127073918999e-06, -4.811496569684958e-07, -3.416549888609813e+01, -2.904967866484649e+03, 3.371483562942327e+02, 2.948929007354544e+03
1072, 9.999999999962365e-05, 4.999999999999196e-04, 2.439039138465719e-06, -9.694795219127082e-07, -3.331853916481123e+01, -5.841397512678564e+03, 2.547882048173159e+02, 5.830390165317300e+03
1073, 1.499999999997844e-04, 4.999999999996149e-04, 2.539612413822101e-06, -1.461377388163719e-06, -1.755707515815755e+01, -8.748966104690802e+03, 1.438921041517624e+02, 8.736150375969559e+03
1074, 1.999999999999003e-04, 4.999999999993100e-04, 2.681733732810790e-06, -1.958117182105847e-06, 9.931462953086680e+00, -1.164051544666371e+04, 8.760456215916832e+00, 1.165046008431306e+04
1075, -2.000000000000740e-04, 4.000000000013997e-04, 1.795917174577419e-06, 1.554150057632342e-06, -3.946581610459521e+01, 1.193155178878222e+04, 2.012155959936022e+02, 1.197777998465468e+04
1076, -1.500000000001797e-04, 4.000000000011572e-04, 1.644983035076953e-06, 1.161088436078380e-06, 4.218110413174827e+00, 9.083268962812306e+03, 2.875356123136115e+02, 9.097245258529840e+03
1077, -1.000000000003152e-04, 4.000000000009148e-04, 1.535294002272333e-06, 7.726916133288594e-07, 4.440221504517240e+00, 6.142648767293671e+03, 3.675756592736175e+02, 6.182075024840829e+03
1078, -5.000000000043512e-05, 4.000000000006724e-04, 1.467627359934354e-06, 3.882793343342015e-07, -2.352928583739401e+01, 3.106773077845750e+03, 4.188157028814866e+02, 3.240435041780769e+03
1079, -5.898025937003254e-16, 4.000000000004300e-04, 1.442995644989722e-06, 6.183940882889853e-09, -2.475532328642851e+01, 5.644994183649271e+01, 4.231503174639950e+02, 8.501876614978618e+02
1080, 4.999999999949812e-05, 4.000000000001875e-04, 1.461793795717015e-06, -3.762130180381439e-07, -2.355092422880989e+01, -2.996193117138923e+03, 3.725327591859966e+02, 3.064592017501901e+03
1081, 9.999999999961606e-05, 3.999999999999452e-04, 1.523849095778979e-06, -7.615429968850826e-07, -4.442921957176236e+01, -6.039553179531984e+03, 2.746727521032268e+02, 6.020240176129269e+03
1082, 1.499999999997800e-04, 3.999999999997027e-04, 1.628375872879931e-06, -1.151514212506706e-06, -3.279139848877162e+01, -8.993634321202317e+03, 1.473956953721258e+02, 8.965690595241527e+03
1083, 1.999999999998984e-04, 3.999999999994603e-04, 1.774820085533822e-06, -1.546866304431031e-06, 2.874145894222045e+01, -1.185953220085558e+04, 1.271899424162774e+01, 1.188830087529334e+04
1084, -2.000000000000760e-04, 3.000000000010516e-04, 1.089247067029378e-06, 1.136806729948198e-06, -1.190469137107289e+01, 1.220039249784057e+04, 1.375800726313036e+02, 1.221539666745078e+04
1085, -1.500000000001842e-04, 3.000000000008717e-04, 9.351450603958853e-07, 8.434517299254248e-07, 4.192141045730295e+00, 9.376646432897720e+03, 2.574140151387437e+02, 9.386583369555408e+03
1086, -1.000000000003227e-04, 3.000000000006917e-04, 8.217790231178142e-07, 5.578508425791574e-07, -1.341650367088251e+02, 6.223181772875466e+03, 3.855190490445662e+02, 6.403933026354700e+03
1087, -5.000000000044532e-05, 3.000000000005118e-04, 7.521810684479950e-07, 2.798562361799787e-07, -1.031579227996172e+02, 3.135396700696356e+03, 4.688000321076656e+02, 3.371547112199937e+03
1088, -6.026207432911247e-16, 3.000000000003319e-04, 7.273928989259677e-07, 5.541935182089958e-09, -2.689225129693602e+01, 5.592968174923544e+01, 4.839763776765429e+02, 9.714895826457097e+02
1089, 4.999999999948792e-05, 3.000000000001520e-04, 7.477726733069440e-07, -2.689779080354494e-07, 5.228323720412504e+01, -3.025431006010294e+03, 4.334859556878799e+02, 3.197493589985669e+03
1090, 9.999999999960845e-05, 2.999999999999720e-04, 8.131832155099164e-07, -5.475974901151670e-07, 9.202185989119312e+01, -6.118876392805481e+03, 3.145094518148511e+02, 6.242669451963166e+03
1091, 1.499999999997756e-04, 2.999999999997920e-04, 9.228040150464920e-07, -8.342726264877186e-07, -3.276529170382025e+01, -9.283981731893780e+03, 1.501175217657413e+02, 9.256087008266797e+03
1092, 1.999999999998966e-04, 2.999999999996122e-04, 1.073848995824210e-06, -1.129229456859298e-06, -2.223186360513409e-01, -1.212911821778341e+04, -6.138139949751860e+00, 1.212890211187318e+04
1093, -2.000000000000778e-04, 2.000000000007014e-04, 5.879354218352364e-07, 7.092708009737422e-07, 1.519797823184213e+02, 1.257137638860348e+04, 1.102304375712846e+02, 1.242135318963572e+04
1094, -1.500000000001885e-04, 2.000000000005817e-04, 4.291524514073035e-07, 5.134331231428943e-07, -6.137278424088843e+02, 8.830448314001536e+03, 2.916263538168000e+02, 9.462169254154833e+03
1095, -1.000000000003304e-04, 2.000000000004620e-04, 3.155706526824037e-07, 3.361876355464792e-07, -4.421514190871428e+02, 5.850465891840752e+03, 4.198198118177576e+02, 6.348387773235674e+03
1096, -5.000000000045550e-05, 2.000000000003424e-04, 2.471539007918956e-07, 1.678436724301386e-07, -2.309375967367971e+02, 2.941877426752604e+03, 4.543348765588258e+02, 3.300369054137877e+03
1097, -6.154388928819240e-16, 2.000000000002227e-04, 2.233427309733079e-07, 3.700155902125263e-09, -2.886665172751611e+01, 4.982604543154321e+01, 4.549179676547260e+02, 9.132327029660036e+02
1098, 4.999999999947777e-05, 2.000000000001030e-04, 2.439576705457005e-07, -1.605614533883052e-07, 1.763517216257604e+02, -2.843697257272204e+03, 4.296990834402392e+02, 3.139946025679449e+03
1099, 9.999999999960084e-05, 1.999999999999833e-04, 3.093732497673997e-07, -3.292657581963552e-07, 3.972593253962348e+02, -5.756467566177699e+03, 3.701033986238093e+02, 6.198085249395313e+03
1100, 1.499999999997714e-04, 1.999999999998636e-04, 4.203524172335423e-07, -5.071197475669199e-07, 5.863250141570179e+02, -8.741269715028155e+03, 2.160303103056382e+02, 9.337596040298919e+03
1101, 1.999999999998946e-04, 1.999999999997439e-04, 5.771277019894660e-07, -7.037994968773471e-07, -1.582358570941734e+02, -1.249492059491433e+04, 7.974641730284759e+00, 1.233669504770251e+04
1102, -2.000000000000798e-04, 1.000000000003506e-04, 2.583902066886424e-07, 2.736046814672027e-07, -3.928491555965607e+03, 7.003955612164085e+03, 6.827734282733259e+02, 1.101740075069303e+04
1103, -1.500000000001928e-04, 1.000000000002906e-04, 1.200673021777770e-07, 1.966801742014375e-07, -1.815299021132082e+03, 5.912186768356600e+03, 5.519486309978463e+02, 7.805935292570077e+03
1104, -1.000000000003380e-04, 1.000000000002307e-04, 2.766102045929726e-08, 1.277528044431741e-07, -7.360767940621163e+02, 4.243182657094627e+03, 1.998931647035467e+02, 4.995283154248070e+03
1105, -5.000000000046567e-05, 1.000000000001708e-04, -2.593159336079523e-08, 6.364519088318430e-08, -2.600006632404431e+02, 2.207328971326392e+03, -2.026750960061355e+01, 2.467662580944436e+03
1106, -6.282434899455673e-16, 1.000000000001108e-04, -4.410031152264537e-08, 1.426058336944282e-09, -2.515356875542602e+01, 3.323612580556403e+01, -1.016500437785093e+02, 2.115189874021175e+02
1107, 4.999999999946757e-05, 1.000000000000509e-04, -2.788112094417231e-08, -6.084705683354385e-08, 2.105061116884269e+02, -2.143253512537044e+03, -3.771630091338182e+01, 2.354968035038350e+03
1108, 9.999999999959325e-05, 9.999999999999091e-05, 2.387671986139743e-08, -1.251234313963960e-07, 6.901724840741399e+02, -4.185609236731149e+03, 1.644647849201152e+02, 4.886864234952131e+03
1109, 1.499999999997670e-04, 9.999999999993101e-05, 1.146951235307933e-07, -1.943560601007487e-07, 1.780566037321660e+03, -5.861960031087818e+03, 4.976605855353425e+02, 7.707066169425298e+03
1110, 1.999999999998927e-04, 9.999999999987105e-05, 2.518593361874783e-07, -2.716999505659318e-07, 3.917105703849428e+03, -6.953270002028949e+03, 6.072735467001603e+02, 1.093801593658731e+04
