"PointID","x","y","Displacement_x","Displacement_y","Sxx","Syy","Sxy","Von_Mises_Stress"
0, -2.500000000000000e-04, 0.000000000000000e+00, 0.000000000000000e+00, 0.000000000000000e+00, 5.683458208150980e+04, 6.945066660383798e+04, 7.177166365218420e+03, 1.911053261451965e+04
1, 2.500000000000000e-04, 0.000000000000000e+00, 0.000000000000000e+00, 0.000000000000000e+00, -5.770991106990026e+04, -7.054488274439261e+04, 7.015026666594951e+03, 1.901522796122030e+04
2, 2.500000000000000e-04, 1.000000000000000e-02, 1.087713019311098e-03, -1.043432685642701e-04, 2.607875039805730e+01, 2.321315939142090e+01, 3.228923449191238e+00, 7.065083041285748e+00
3, -2.500000000000000e-04, 1.000000000000000e-02, 1.093039596144846e-03, -3.158133575624997e-05, 1.780278982135239e+01, 5.289081436131637e+01, 4.489943409328806e+00, 3.621888779895118e+01
4, -2.000000000000817e-04, 0.000000000000000e+00, 0.000000000000000e+00, 0.000000000000000e+00, 3.842933841078386e+04, 4.696267029217472e+04, 4.096360350468603e+03, 1.182955728172136e+04
5, -1.500000000001972e-04, 0.000000000000000e+00, 0.000000000000000e+00, 0.000000000000000e+00, 2.768736731506613e+04, 3.384549045124224e+04, 1.925763847180000e+03, 7.263383931799947e+03
6, -1.000000000003456e-04, 0.000000000000000e+00, 0.000000000000000e+00, 0.000000000000000e+00, 1.804953292336888e+04, 2.206432837906631e+04, 4.713042163051737e+02, 4.123965713765928e+03
7, -5.000000000047588e-05, 0.000000000000000e+00, 0.000000000000000e+00, 0.000000000000000e+00, 9.058987555308668e+03, 1.107187051751853e+04, -3.771004253506388e+02, 2.149538727902632e+03
8, -6.410887445906788e-16, 0.000000000000000e+00, 0.000000000000000e+00, 0.000000000000000e+00, 3.020305527719850e+02, 3.670154536169472e+02, -6.715795053690722e+02, 1.344730145964201e+03
9, 4.999999999945738e-05, 0.000000000000000e+00, 0.000000000000000e+00, 0.000000000000000e+00, -8.497189467461300e+03, -1.038588709562624e+04, -4.273643351560547e+02, 2.073099088439664e+03
10, 9.999999999958566e-05, 0.000000000000000e+00, 0.000000000000000e+00, 0.000000000000000e+00, -1.761665357463177e+04, -2.152779251838045e+04, 3.747470275948182e+02, 3.982304505694174e+03
11, 1.499999999997626e-04, 0.000000000000000e+00, 0.000000000000000e+00, 0.000000000000000e+00, -2.747939444292415e+04, -3.358004783584417e+04, 1.791483439549771e+03, 7.074999892386631e+03
12, 1.999999999998909e-04, 0.000000000000000e+00, 0.000000000000000e+00, 0.000000000000000e+00, -3.853129468199117e+04, -4.709874118518632e+04, 3.939417585760815e+03, 1.163946662201996e+04
13, 2.500000000000000e-04, 9.999999999981111e-05, 8.845164204987703e-07, -8.014349615575248e-07, 3.067458803239357e+03, -2.362345734348691e+04, 1.741342973024960e+03, 2.691717121375102e+04
14, 2.500000000000000e-04, 1.999999999996242e-04, 1.518067576363842e-06, -1.808072765586916e-06, -6.201729415529619e+03, -3.432501167320299e+04, -3.491212198562847e+02, 2.813194887400057e+04
15, 2.500000000000000e-04, 2.999999999994322e-04, 2.496702428681734e-06, -2.827409063483247e-06, -6.606159858543862e+03, -3.484930278390960e+04, -2.967603537215568e+02, 2.824937856188700e+04
16, 2.500000000000000e-04, 3.999999999992179e-04, 3.870118940298117e-06, -3.854574491182266e-06, -7.201284630041632e+03, -3.516739991710210e+04, -3.583211067869377e+02, 2.797529589318821e+04
17, 2.500000000000000e-04, 4.999999999990053e-04, 5.646317683962869e-06, -4.873495574763833e-06, -7.219251583413633e+03, -3.468201956321787e+04, -4.384199190829480e+02, 2.747676242235164e+04
18, 2.500000000000000e-04, 5.999999999988090e-04, 7.818658703274287e-06, -5.880897189608269e-06, -7.115513135911311e+03, -3.400667425303187e+04, -5.297300032454272e+02, 2.691202336748931e+04
19, 2.500000000000000e-04, 6.999999999986395e-04, 1.037874992643077e-05, -6.876849764110509e-06, -6.970046196021407e+03, -3.327730329631639e+04, -6.183346210115731e+02, 2.633630814968542e+04
20, 2.500000000000000e-04, 7.999999999985029e-04, 1.331814590863153e-05, -7.862627240525091e-06, -6.820103140131474e+03, -3.254729006579736e+04, -7.013941085518753e+02, 2.576540242049789e+04
21, 2.500000000000000e-04, 8.999999999983563e-04, 1.662865718041576e-05, -8.839656343606102e-06, -6.672215681562791e+03, -3.182594301539704e+04, -7.782228387942747e+02, 2.520183568576234e+04
22, 2.500000000000000e-04, 9.999999999981935e-04, 2.030227029972811e-05, -9.809292541153566e-06, -6.527302695948854e+03, -3.111402546298873e+04, -8.490063685288288e+02, 2.464528725088200e+04
23, 2.500000000000000e-04, 1.099999999998054e-03, 2.433108774022877e-05, -1.077278404111911e-05, -6.384853791380090e+03, -3.041069854799777e+04, -9.140163924444038e+02, 2.409528833883757e+04
24, 2.500000000000000e-04, 1.199999999997903e-03, 2.870730073484269e-05, -1.173128429497362e-05, -6.244503246803580e+03, -2.971550477063079e+04, -9.735094529292867e+02, 2.355161979888580e+04
25, 2.500000000000000e-04, 1.299999999997659e-03, 3.342318227504441e-05, -1.268586356001960e-05, -6.106065027259790e+03, -2.902831007813956e+04, -1.027715134565948e+03, 2.301421542794465e+04
26, 2.500000000000000e-04, 1.399999999997322e-03, 3.847108665906451e-05, -1.363751578098844e-05, -5.969450530053819e+03, -2.834912472995642e+04, -1.076849223187162e+03, 2.248306550032049e+04
27, 2.500000000000000e-04, 1.499999999997028e-03, 4.384345043873110e-05, -1.458716265929532e-05, -5.834603280855998e+03, -2.767799502186057e+04, -1.121119951030940e+03, 2.195817393430941e+04
28, 2.500000000000000e-04, 1.599999999996764e-03, 4.953279331677975e-05, -1.553565672545386e-05, -5.701477279823284e+03, -2.701496920688703e+04, -1.160730294856414e+03, 2.143954564338063e+04
29, 2.500000000000000e-04, 1.699999999996466e-03, 5.553171884516576e-05, -1.648378414824314e-05, -5.570031246371476e+03, -2.636008969926242e+04, -1.195878731071178e+03, 2.092718409706227e+04
30, 2.500000000000000e-04, 1.799999999996210e-03, 6.183291500644267e-05, -1.743226743864397e-05, -5.440225266854876e+03, -2.571339066145375e+04, -1.226759334503973e+03, 2.042109176748226e+04
31, 2.500000000000000e-04, 1.899999999995898e-03, 6.842915459891308e-05, -1.838176811467508e-05, -5.312027429032925e+03, -2.507490499398372e+04, -1.253561405796673e+03, 1.992126990027611e+04
32, 2.500000000000000e-04, 1.999999999995521e-03, 7.531329581220100e-05, -1.933288935568098e-05, -5.185403637321760e+03, -2.444465608077035e+04, -1.276470099978066e+03, 1.942772010157220e+04
33, 2.500000000000000e-04, 2.099999999995151e-03, 8.247828246004538e-05, -2.028617852419883e-05, -5.060327458931431e+03, -2.382266666813739e+04, -1.295665802129110e+03, 1.894044276368783e+04
34, 2.500000000000000e-04, 2.199999999994897e-03, 8.991714442582213e-05, -2.124212970970632e-05, -4.936773600929676e+03, -2.320895424236348e+04, -1.311324440855576e+03, 1.845943857623868e+04
35, 2.500000000000000e-04, 2.299999999994653e-03, 9.762299795828264e-05, -2.220118616281061e-05, -4.814718184824118e+03, -2.260353113040298e+04, -1.323617747078582e+03, 1.798470799802765e+04
36, 2.500000000000000e-04, 2.399999999994409e-03, 1.055890458412883e-04, -2.316374267106791e-05, -4.694146178347456e+03, -2.200641155698565e+04, -1.332712683028419e+03, 1.751625030999540e+04
37, 2.500000000000000e-04, 2.499999999994080e-03, 1.138085778418563e-04, -2.413014791821794e-05, -4.575041999518390e+03, -2.141760470824175e+04, -1.338771476546812e+03, 1.705406564027886e+04
38, 2.500000000000000e-04, 2.599999999993751e-03, 1.222749709620463e-04, -2.510070677822365e-05, -4.457388983315886e+03, -2.083711361973362e+04, -1.341952686259513e+03, 1.659815433153658e+04
39, 2.500000000000000e-04, 2.699999999993507e-03, 1.309816894909302e-04, -2.607568248015121e-05, -4.341177216557190e+03, -2.026494228080210e+04, -1.342410344297230e+03, 1.614851559590452e+04
40, 2.500000000000000e-04, 2.799999999993264e-03, 1.399222852710437e-04, -2.705529879657009e-05, -4.226400118335880e+03, -1.970109358605331e+04, -1.340293860197024e+03, 1.570514846942059e+04
41, 2.500000000000000e-04, 2.899999999993009e-03, 1.490903980051429e-04, -2.803974214458854e-05, -4.113047603280154e+03, -1.914556360170185e+04, -1.335748637574280e+03, 1.526805275514629e+04
42, 2.500000000000000e-04, 2.999999999992623e-03, 1.584797552047427e-04, -2.902916361773077e-05, -4.001120978403506e+03, -1.859835455680369e+04, -1.328915554412547e+03, 1.483722663928176e+04
43, 2.500000000000000e-04, 3.099999999992220e-03, 1.680841726590099e-04, -3.002368101613598e-05, -3.890611208461019e+03, -1.805945703009182e+04, -1.319931613881974e+03, 1.441267045964921e+04
44, 2.500000000000000e-04, 3.199999999991949e-03, 1.778975542602302e-04, -3.102338074961871e-05, -3.781517917595759e+03, -1.752886540005986e+04, -1.308930110509333e+03, 1.399438297819535e+04
45, 2.500000000000000e-04, 3.299999999991705e-03, 1.879138921994240e-04, -3.202831971533851e-05, -3.673841839334831e+03, -1.700657232494053e+04, -1.296039912069854e+03, 1.358236282892310e+04
46, 2.500000000000000e-04, 3.399999999991461e-03, 1.981272671118870e-04, -3.303852713367789e-05, -3.567585238060996e+03, -1.649256975827815e+04, -1.281385600362764e+03, 1.317660886097485e+04
47, 2.500000000000000e-04, 3.499999999991149e-03, 2.085318482405201e-04, -3.405400635016057e-05, -3.462745668626251e+03, -1.598684303352142e+04, -1.265088554101593e+03, 1.277712060693838e+04
48, 2.500000000000000e-04, 3.599999999990803e-03, 2.191218932687325e-04, -3.507473649090184e-05, -3.359328737744945e+03, -1.548938179450280e+04, -1.247266231623686e+03, 1.238389596895725e+04
49, 2.500000000000000e-04, 3.699999999990560e-03, 2.298917484612201e-04, -3.610067416059529e-05, -3.257347148947062e+03, -1.500018021839991e+04, -1.228031346885433e+03, 1.199693179328650e+04
50, 2.500000000000000e-04, 3.799999999990315e-03, 2.408358491271347e-04, -3.713175509529043e-05, -3.156798001646861e+03, -1.451921784126167e+04, -1.207493271428178e+03, 1.161622764127190e+04
51, 2.500000000000000e-04, 3.899999999990071e-03, 2.519487192339498e-04, -3.816789568325405e-05, -3.057687250304312e+03, -1.404647964900833e+04, -1.185758351873136e+03, 1.124178143614093e+04
52, 2.500000000000000e-04, 3.999999999989709e-03, 2.632249714848797e-04, -3.920899448216434e-05, -2.960022539086950e+03, -1.358195079966324e+04, -1.162928914497140e+03, 1.087359069551191e+04
53, 2.500000000000000e-04, 4.099999999989249e-03, 2.746593074148484e-04, -4.025493369330809e-05, -2.863810290092485e+03, -1.312561432330665e+04, -1.139103801326357e+03, 1.051165314766783e+04
54, 2.500000000000000e-04, 4.199999999988788e-03, 2.862465173303821e-04, -4.130558057547111e-05, -2.769058494990688e+03, -1.267745402606832e+04, -1.114378507321760e+03, 1.015596671078642e+04
55, 2.500000000000000e-04, 4.299999999988333e-03, 2.979814803232427e-04, -4.236078885038605e-05, -2.675777724925258e+03, -1.223745578858226e+04, -1.088844890480013e+03, 9.806529466387041e+03
56, 2.500000000000000e-04, 4.399999999988144e-03, 3.098591644284673e-04, -4.342040006213185e-05, -2.583970958991501e+03, -1.180559807238857e+04, -1.062592183517198e+03, 9.463340594759726e+03
57, 2.500000000000000e-04, 4.499999999988117e-03, 3.218746263208261e-04, -4.448424479136815e-05, -2.493653440901285e+03, -1.138186882842881e+04, -1.035705714777360e+03, 9.126396774498195e+03
58, 2.500000000000000e-04, 4.599999999988090e-03, 3.340230116681305e-04, -4.555214395042400e-05, -2.404834034394987e+03, -1.096625020241083e+04, -1.008267092724355e+03, 8.795695363247087e+03
59, 2.500000000000000e-04, 4.699999999988035e-03, 3.462995551228417e-04, -4.662390993320348e-05, -2.317515669770657e+03, -1.055871934347416e+04, -9.803555169747412e+02, 8.471235196245903e+03
60, 2.500000000000000e-04, 4.799999999987717e-03, 3.586995798863167e-04, -4.769934778837450e-05, -2.231716427569441e+03, -1.015926572069500e+04, -9.520475005310116e+02, 8.153012668210748e+03
61, 2.500000000000000e-04, 4.899999999987257e-03, 3.712184981644950e-04, -4.877825633447189e-05, -2.147439046399368e+03, -9.767865905618390e+03, -9.234158848129571e+02, 7.841026278619801e+03
62, 2.500000000000000e-04, 4.999999999986965e-03, 3.838518108935258e-04, -4.986042920371018e-05, -2.064694441160854e+03, -9.384503119517793e+03, -8.945306106028546e+02, 7.535272997109766e+03
63, 2.500000000000000e-04, 5.099999999987202e-03, 3.965951078111994e-04, -5.094565587092666e-05, -1.983491846661009e+03, -9.009158810266968e+03, -8.654588087074571e+02, 7.235749586724344e+03
64, 2.500000000000000e-04, 5.199999999987608e-03, 4.094440673745790e-04, -5.203372260894118e-05, -1.903841546457800e+03, -8.641815254172892e+03, -8.362646517219374e+02, 6.942452301365730e+03
65, 2.500000000000000e-04, 5.299999999988015e-03, 4.223944568010923e-04, -5.312441344892924e-05, -1.825749537554265e+03, -8.282451352714974e+03, -8.070098098137671e+02, 6.655378100637272e+03
66, 2.500000000000000e-04, 5.399999999988211e-03, 4.354421318866398e-04, -5.421751106256598e-05, -1.749224716815143e+03, -7.931048479356810e+03, -7.777534684898446e+02, 6.374523265477720e+03
67, 2.500000000000000e-04, 5.499999999988184e-03, 4.485830369644745e-04, -5.531279763012456e-05, -1.674278062602365e+03, -7.587590121299750e+03, -7.485518079822821e+02, 6.099883502204782e+03
68, 2.500000000000000e-04, 5.599999999988157e-03, 4.618132050041789e-04, -5.641005568290760e-05, -1.600916454902217e+03, -7.252056665079797e+03, -7.194581877357631e+02, 5.831454879417830e+03
69, 2.500000000000000e-04, 5.699999999988293e-03, 4.751287575293861e-04, -5.750906888089941e-05, -1.529146809977288e+03, -6.924428091689975e+03, -6.905236513178787e+02, 5.569232600719494e+03
70, 2.500000000000000e-04, 5.799999999988694e-03, 4.885259045044849e-04, -5.860962272228661e-05, -1.458977480850961e+03, -6.604685425125350e+03, -6.617969405086682e+02, 5.313210988624026e+03
71, 2.500000000000000e-04, 5.899999999989099e-03, 5.020009442072214e-04, -5.971150526177876e-05, -1.390415268188597e+03, -6.292809536852987e+03, -6.333248812114433e+02, 5.063385348369153e+03
72, 2.500000000000000e-04, 5.999999999989505e-03, 5.155502630908391e-04, -6.081450784013179e-05, -1.323469009335222e+03, -5.988784795559510e+03, -6.051518408445896e+02, 4.819751693511185e+03
73, 2.500000000000000e-04, 6.099999999989911e-03, 5.291703359086199e-04, -6.191842579710368e-05, -1.258142946754721e+03, -5.692592382144539e+03, -5.773197087963807e+02, 4.582306622181455e+03
74, 2.500000000000000e-04, 6.199999999990317e-03, 5.428577256353373e-04, -6.302305905204281e-05, -1.194447636488762e+03, -5.404218391652463e+03, -5.498672409413069e+02, 4.351044212792279e+03
75, 2.500000000000000e-04, 6.299999999990723e-03, 5.566090836455035e-04, -6.412821268386644e-05, -1.132377251912748e+03, -5.123634262231557e+03, -5.228326188062332e+02, 4.125960289625938e+03
76, 2.500000000000000e-04, 6.399999999990975e-03, 5.704211488966256e-04, -6.523369735551431e-05, -1.071951594809175e+03, -4.850831817736386e+03, -4.962511969786032e+02, 3.907044502080978e+03
77, 2.500000000000000e-04, 6.499999999990961e-03, 5.842907486684775e-04, -6.633932989281139e-05, -1.013171161153821e+03, -4.585786739091891e+03, -4.701546366101337e+02, 3.694287968882474e+03
78, 2.500000000000000e-04, 6.599999999990934e-03, 5.982147983202033e-04, -6.744493369450911e-05, -9.560280402661549e+02, -4.328468226142862e+03, -4.445741286607538e+02, 3.487683677000251e+03
79, 2.500000000000000e-04, 6.699999999991035e-03, 6.121903004202613e-04, -6.855033919314975e-05, -9.005418708878990e+02, -4.078867707976046e+03, -4.195398547093037e+02, 3.287219172105823e+03
80, 2.500000000000000e-04, 6.799999999991401e-03, 6.262143453277437e-04, -6.965538427103060e-05, -8.467077980540780e+02, -3.836957497356920e+03, -3.950788431658084e+02, 3.092885777627371e+03
81, 2.500000000000000e-04, 6.899999999991809e-03, 6.402841107631946e-04, -7.075991471287507e-05, -7.945334319105127e+02, -3.602722304763147e+03, -3.712156630830187e+02, 2.904673651150162e+03
82, 2.500000000000000e-04, 6.999999999992214e-03, 6.543968621133565e-04, -7.186378465481515e-05, -7.440029425223113e+02, -3.376128130389389e+03, -3.479750338688402e+02, 2.722577731009416e+03
83, 2.500000000000000e-04, 7.099999999992620e-03, 6.685499512411740e-04, -7.296685683600963e-05, -6.951318797615947e+02, -3.157166046414353e+03, -3.253810459613543e+02, 2.546586644520301e+03
84, 2.500000000000000e-04, 7.199999999993026e-03, 6.827408170140059e-04, -7.406900295295635e-05, -6.479400005261773e+02, -2.945830725049168e+03, -3.034519283903058e+02, 2.376685522576341e+03
85, 2.500000000000000e-04, 7.299999999993359e-03, 6.969669862273503e-04, -7.517010401743221e-05, -6.023901055006947e+02, -2.742070273701172e+03, -2.822064439956461e+02, 2.212869885538030e+03
86, 2.500000000000000e-04, 7.399999999993427e-03, 7.112260715024289e-04, -7.627005047947288e-05, -5.585103864585107e+02, -2.545884275481960e+03, -2.616627660713997e+02, 2.055121550508566e+03
87, 2.500000000000000e-04, 7.499999999993399e-03, 7.255157725520621e-04, -7.736874246487500e-05, -5.162907123285220e+02, -2.357236712033648e+03, -2.418355174763871e+02, 1.903423190959539e+03
88, 2.500000000000000e-04, 7.599999999993372e-03, 7.398338755044086e-04, -7.846608975643140e-05, -4.757381654626488e+02, -2.176103575411951e+03, -2.227351683364122e+02, 1.757750365725309e+03
89, 2.500000000000000e-04, 7.699999999993440e-03, 7.541782533746507e-04, -7.956201202528553e-05, -4.368244845379878e+02, -2.002432319486115e+03, -2.043723954526286e+02, 1.618085349091063e+03
90, 2.500000000000000e-04, 7.799999999993771e-03, 7.685468642422992e-04, -8.065643890351410e-05, -3.995409018162518e+02, -1.836189480041604e+03, -1.867612925067255e+02, 1.484411755151534e+03
91, 2.500000000000000e-04, 7.899999999994177e-03, 7.829377505287596e-04, -8.174931033022474e-05, -3.639191390797936e+02, -1.677375031124190e+03, -1.699134652971625e+02, 1.356705098060482e+03
92, 2.500000000000000e-04, 7.999999999994584e-03, 7.973490405484978e-04, -8.284057668297135e-05, -3.299378549014440e+02, -1.525945612682048e+03, -1.538363299443097e+02, 1.234948186084877e+03
93, 2.500000000000000e-04, 8.099999999994990e-03, 8.117789473421741e-04, -8.393019890375580e-05, -2.975897203816914e+02, -1.381870359886896e+03, -1.385371307353971e+02, 1.119122268376160e+03
94, 2.500000000000000e-04, 8.199999999995398e-03, 8.262257686381230e-04, -8.501814860696594e-05, -2.668740172289985e+02, -1.245120186914616e+03, -1.240213063279022e+02, 1.009203005444246e+03
95, 2.500000000000000e-04, 8.299999999995804e-03, 8.406878865976627e-04, -8.610440792955753e-05, -2.377875729360784e+02, -1.115658440876832e+03, -1.102921465402800e+02, 9.051600361996225e+02
96, 2.500000000000000e-04, 8.399999999996209e-03, 8.551637676008187e-04, -8.718896943648295e-05, -2.103202677065319e+02, -9.934379577455890e+02, -9.735005355773636e+01, 8.069581452360992e+02
97, 2.500000000000000e-04, 8.499999999996616e-03, 8.696519619985699e-04, -8.827183596367632e-05, -1.844424248547712e+02, -8.783919592301663e+02, -8.519452074106528e+01, 7.145616710382856e+02
98, 2.500000000000000e-04, 8.599999999997021e-03, 8.841511025871920e-04, -8.935302045240028e-05, -1.601396199216862e+02, -7.704650727979509e+02, -7.382635072104617e+01, 6.279319060788083e+02
99, 2.500000000000000e-04, 8.699999999997429e-03, 8.986599037411025e-04, -9.043254594489643e-05, -1.374210210513022e+02, -6.696178129045013e+02, -6.324523384993304e+01, 5.470221784148866e+02
100, 2.500000000000000e-04, 8.799999999997834e-03, 9.131771616962644e-04, -9.151044541782647e-05, -1.162720285587286e+02, -5.757912428894751e+02, -5.344648317825678e+01, 4.717881034910072e+02
101, 2.500000000000000e-04, 8.899999999997930e-03, 9.277017539191032e-04, -9.258676187839801e-05, -9.665826143671693e+01, -4.889147399036102e+02, -4.442643143027588e+01, 4.021939533828975e+02
102, 2.500000000000000e-04, 8.999999999997496e-03, 9.422326376324330e-04, -9.366154842241021e-05, -7.855579730274732e+01, -4.089237629224311e+02, -3.618389443934650e+01, 3.382012560220314e+02
103, 2.500000000000000e-04, 9.099999999997034e-03, 9.567688490528260e-04, -9.473486789054431e-05, -6.196476465948687e+01, -3.357637767452518e+02, -2.871171473301104e+01, 2.797558744169281e+02
104, 2.500000000000000e-04, 9.199999999996832e-03, 9.713095040961331e-04, -9.580679244123425e-05, -4.685125106820144e+01, -2.693323783295761e+02, -2.199440022667907e+01, 2.267881534666600e+02
105, 2.500000000000000e-04, 9.299999999997156e-03, 9.858537978953506e-04, -9.687740242041394e-05, -3.313031145101016e+01, -2.094567001886629e+02, -1.601052473655750e+01, 1.792103316626068e+02
106, 2.500000000000000e-04, 9.399999999997563e-03, 1.000401001564111e-03, -9.794678483440046e-05, -2.074799433423927e+01, -1.559623430235291e+02, -1.073330867420326e+01, 1.369077636653662e+02
107, 2.500000000000000e-04, 9.499999999997968e-03, 1.014950459657571e-03, -9.901503208798006e-05, -9.575509270489476e+00, -1.085798636043504e+02, -6.140589123421681e+00, 9.976316713194016e+01
108, 2.500000000000000e-04, 9.599999999998375e-03, 1.029501583734281e-03, -1.000822398222793e-04, 3.341793802921629e-01, -6.719793564622069e+01, -2.203831464361165e+00, 6.767580108463730e+01
109, 2.500000000000000e-04, 9.699999999998783e-03, 1.044053849364467e-03, -1.011485082117159e-04, 8.953318834699910e+00, -3.197069365501191e+01, 1.039703790165440e+00, 4.097680727122632e+01
110, 2.500000000000000e-04, 9.799999999999188e-03, 1.058606774224342e-03, -1.022139587121111e-04, 1.499890365866117e+01, -4.724476763383718e+00, 3.327872511981686e+00, 2.081611580234691e+01
111, 2.500000000000000e-04, 9.899999999999593e-03, 1.073159936744324e-03, -1.032787692017405e-04, 1.697362386356247e+01, 1.091062589860061e+01, 4.105311609457156e+00, 1.020658013078360e+01
112, 2.000000000000817e-04, 1.000000000000000e-02, 1.088245209249636e-03, -9.706694182206499e-05, 2.517813217022172e+01, 2.311615060135421e+01, 4.866287502196180e+00, 9.948607149067268e+00
113, 1.500000000001972e-04, 1.000000000000000e-02, 1.088777430013529e-03, -8.979079806712236e-05, 2.163327960042685e+01, 2.300077101555082e+01, 7.995898447661267e+00, 1.605015889988897e+01
114, 1.000000000003456e-04, 1.000000000000000e-02, 1.089309745141225e-03, -8.251480128794823e-05, 1.481496007039964e+01, 2.272147730449417e+01, 1.077890050522995e+01, 2.296196418383279e+01
115, 5.000000000047588e-05, 1.000000000000000e-02, 1.089842205254601e-03, -7.523888761464511e-05, 6.071960709376651e+00, 2.271924103017050e+01, 1.285389527007099e+01, 3.062715194945335e+01
116, 6.410887445906788e-16, 1.000000000000000e-02, 1.090374840676070e-03, -6.796297469544841e-05, -2.572887646068840e+00, 2.402209824580800e+01, 1.384110230001551e+01, 3.838746834719772e+01
117, -4.999999999945738e-05, 1.000000000000000e-02, 1.090907660198373e-03, -6.068696322578580e-05, -8.338448261677346e+00, 2.848205401106691e+01, 1.342549259156119e+01, 4.557109602501813e+01
118, -9.999999999958566e-05, 1.000000000000000e-02, 1.091440647072005e-03, -5.341075848791304e-05, -7.785191619897690e+00, 3.836778960658600e+01, 1.161195005551896e+01, 5.166669345390338e+01
119, -1.499999999997626e-04, 1.000000000000000e-02, 1.091973748875648e-03, -4.613431143588677e-05, 3.826326636357922e+00, 5.605574445495828e+01, 9.245863858740535e+00, 5.540628195112344e+01
120, -1.999999999998909e-04, 1.000000000000000e-02, 1.092506841558704e-03, -3.885771799814104e-05, 3.651355412682634e+01, 8.464642553876810e+01, 8.294475939711312e+00, 5.091136056732643e+01
121, -2.500000000000000e-04, 9.899999999999590e-03, 1.078486593483308e-03, -3.051809749916747e-05, -2.175715076645594e+01, 4.269758322003945e+01, -2.040451320313363e-02, 6.445474690545701e+01
122, -2.500000000000000e-04, 9.799999999999181e-03, 1.063933073586596e-03, -2.945609265193791e-05, 7.795863158303835e+00, 9.566444739060825e+01, 6.304184870896371e+00, 8.876857035311164e+01
123, -2.500000000000000e-04, 9.699999999999055e-03, 1.049379737889819e-03, -2.839499217266640e-05, 1.782942348364756e+01, 1.282413826522173e+02, 1.217601183605748e+01, 1.130655640960994e+02
124, -2.500000000000000e-04, 9.599999999999458e-03, 1.034826885785521e-03, -2.733494829110441e-05, 2.539434520626880e+01, 1.632579819148731e+02, 1.841760888226671e+01, 1.426997392929736e+02
125, -2.500000000000000e-04, 9.499999999999916e-03, 1.020274863428969e-03, -2.627621665236601e-05, 3.427837327892138e+01, 2.049794644152141e+02, 2.525728215850748e+01, 1.780184926440474e+02
126, -2.500000000000000e-04, 9.400000000000373e-03, 1.005724113295838e-03, -2.521905935296053e-05, 4.447069545366226e+01, 2.532203832134274e+02, 3.271658004189269e+01, 2.187645551234243e+02
127, -2.500000000000000e-04, 9.300000000000832e-03, 9.911751460832800e-04, -2.416374509420160e-05, 5.670581611567519e+01, 3.084633533884374e+02, 4.080895392607886e+01, 2.646570241951072e+02
128, -2.500000000000000e-04, 9.200000000001289e-03, 9.766285744650454e-04, -2.311055383076071e-05, 7.010625861049891e+01, 3.698964898356282e+02, 4.958153447677276e+01, 3.157649394443628e+02
129, -2.500000000000000e-04, 9.100000000001746e-03, 9.620850649853481e-04, -2.205977206494824e-05, 8.526569757648858e+01, 4.380095660518352e+02, 5.905358853986892e+01, 3.719913198243975e+02
130, -2.500000000000000e-04, 9.000000000002204e-03, 9.475453707324253e-04, -2.101170154554241e-05, 1.020922717034679e+02, 5.128242312859433e+02, 6.921456803670105e+01, 4.334320804191686e+02
131, -2.500000000000000e-04, 8.900000000002661e-03, 9.330103259291142e-04, -1.996665934524398e-05, 1.204766745163556e+02, 5.943374058754218e+02, 8.008889523023541e+01, 5.002008769294068e+02
132, -2.500000000000000e-04, 8.800000000003118e-03, 9.184808408486053e-04, -1.892497674268117e-05, 1.404508594758248e+02, 6.826413670577915e+02, 9.170045664156112e+01, 5.723691479325856e+02
133, -2.500000000000000e-04, 8.700000000003576e-03, 9.039579055207725e-04, -1.788699874343948e-05, 1.619415398990535e+02, 7.777286888585351e+02, 1.040653012871011e+02, 6.500093542031123e+02
134, -2.500000000000000e-04, 8.600000000004033e-03, 8.894425873025828e-04, -1.685308339434076e-05, 1.849697940419597e+02, 8.796698382430601e+02, 1.171946850039265e+02, 7.331756462033426e+02
135, -2.500000000000000e-04, 8.500000000004490e-03, 8.749360327800830e-04, -1.582360219565207e-05, 2.095479782431931e+02, 9.885241029556882e+02, 1.310982134987590e+02, 8.219189553735584e+02
136, -2.500000000000000e-04, 8.400000000004949e-03, 8.604394683983138e-04, -1.479893959182683e-05, 2.357664788042296e+02, 1.104427092682222e+03, 1.457691310242467e+02, 9.162782439527564e+02
137, -2.500000000000000e-04, 8.300000000005149e-03, 8.459542050223854e-04, -1.377949437176932e-05, 2.635584810325847e+02, 1.227373287014009e+03, 1.612150417857561e+02, 1.016316948112616e+03
138, -2.500000000000000e-04, 8.200000000005172e-03, 8.314816341717270e-04, -1.276567781612844e-05, 2.930376556306247e+02, 1.357515711806122e+03, 1.774243522222154e+02, 1.122065566321798e+03
139, -2.500000000000000e-04, 8.100000000005195e-03, 8.170232343312995e-04, -1.175791584682586e-05, 3.241113217845696e+02, 1.494831413559678e+03, 1.944029500911976e+02, 1.233594569257891e+03
140, -2.500000000000000e-04, 8.000000000005220e-03, 8.025805660653294e-04, -1.075664691942408e-05, 3.567825099536327e+02, 1.639345013930995e+03, 2.121598511907341e+02, 1.350930711190541e+03
141, -2.500000000000000e-04, 7.900000000005243e-03, 7.881552723822572e-04, -9.762321309979942e-06, 3.912363751227253e+02, 1.791264156112851e+03, 2.306665883209732e+02, 1.474078046581892e+03
142, -2.500000000000000e-04, 7.800000000005240e-03, 7.737490891463041e-04, -8.775404143074122e-06, 4.272174024780184e+02, 1.950411087939379e+03, 2.499313054887457e+02, 1.603116225756136e+03
143, -2.500000000000000e-04, 7.700000000005121e-03, 7.593638319788774e-04, -7.796371105925898e-06, 4.648347144631546e+02, 2.116899540973808e+03, 2.699482855650876e+02, 1.738046748080096e+03
144, -2.500000000000000e-04, 7.600000000005145e-03, 7.450014030964123e-04, -6.825710697875916e-06, 5.040816858673758e+02, 2.290752874248751e+03, 2.907099446922352e+02, 1.878894095781869e+03
145, -2.500000000000000e-04, 7.500000000005337e-03, 7.306637916104689e-04, -5.863922818186551e-06, 5.448506458772667e+02, 2.471891965105057e+03, 3.122141734143030e+02, 2.025684824037118e+03
146, -2.500000000000000e-04, 7.400000000005796e-03, 7.163530679180890e-04, -4.911517817489823e-06, 5.873508380581497e+02, 2.660531558362040e+03, 3.344338419926887e+02, 2.178408198139118e+03
147, -2.500000000000000e-04, 7.300000000006254e-03, 7.020713948021981e-04, -3.969019388065009e-06, 6.314860370333136e+02, 2.856641216342973e+03, 3.573535634416360e+02, 2.337118278826801e+03
148, -2.500000000000000e-04, 7.200000000006711e-03, 6.878210219776887e-04, -3.036962610340599e-06, 6.772303426099604e+02, 3.060219438615245e+03, 3.809683238590201e+02, 2.501836223020181e+03
149, -2.500000000000000e-04, 7.100000000007169e-03, 6.736042853441456e-04, -2.115892970841311e-06, 7.246566222916595e+02, 3.271352985902840e+03, 4.052541440443592e+02, 2.672561702466552e+03
150, -2.500000000000000e-04, 7.000000000007627e-03, 6.594236117513562e-04, -1.206367235122585e-06, 7.736710153528868e+02, 3.489994261824944e+03, 4.301941334489626e+02, 2.849329736822349e+03
151, -2.500000000000000e-04, 6.900000000008085e-03, 6.452815144515478e-04, -3.089523205499941e-07, 8.243145277102917e+02, 3.716198935021711e+03, 4.557711469617085e+02, 3.032145243694979e+03
152, -2.500000000000000e-04, 6.800000000008542e-03, 6.311805960820240e-04, 5.757748660464130e-07, 8.765442546594408e+02, 3.949950056426411e+03, 4.819649923485666e+02, 3.221022234902002e+03
153, -2.500000000000000e-04, 6.700000000009001e-03, 6.171235468761753e-04, 1.447228199204180e-06, 9.304079936043585e+02, 4.191316510782944e+03, 5.087472906198042e+02, 3.415965395061812e+03
154, -2.500000000000000e-04, 6.600000000009459e-03, 6.031131476579032e-04, 2.304811588243891e-06, 9.858869658994233e+02, 4.440311583292299e+03, 5.360916263188983e+02, 3.616991341500126e+03
155, -2.500000000000000e-04, 6.500000000009916e-03, 5.891522697186789e-04, 3.147920137781540e-06, 1.042885411884753e+03, 4.696873118390329e+03, 5.639775155020179e+02, 3.824121952979690e+03
156, -2.500000000000000e-04, 6.400000000010177e-03, 5.752438704770521e-04, 3.975941120851610e-06, 1.101488305564243e+03, 4.961093234882885e+03, 5.923766620144152e+02, 4.037349458396946e+03
157, -2.500000000000000e-04, 6.300000000010201e-03, 5.613909984944259e-04, 4.788253549511114e-06, 1.161693725345793e+03, 5.233000646689277e+03, 6.212525420811485e+02, 4.256684030081223e+03
158, -2.500000000000000e-04, 6.200000000010225e-03, 5.475967936948774e-04, 5.584228614026765e-06, 1.223476148035142e+03, 5.512602050723322e+03, 6.505705892187607e+02, 4.482138928607242e+03
159, -2.500000000000000e-04, 6.100000000010248e-03, 5.338644868255068e-04, 6.363230407653735e-06, 1.286786460036170e+03, 5.799877922881146e+03, 6.803004553261144e+02, 4.713727759435401e+03
160, -2.500000000000000e-04, 6.000000000010509e-03, 5.201973976495978e-04, 7.124616909661710e-06, 1.351661952495882e+03, 6.094882191877252e+03, 7.104047857968036e+02, 4.951448078896623e+03
161, -2.500000000000000e-04, 5.900000000010967e-03, 5.065989375716056e-04, 7.867740009655908e-06, 1.418111686739188e+03, 6.397651556776595e+03, 7.408390640123348e+02, 5.195304359934925e+03
162, -2.500000000000000e-04, 5.800000000011424e-03, 4.930726108541216e-04, 8.591945980711465e-06, 1.486084920999391e+03, 6.708171717504448e+03, 7.715603430692025e+02, 5.445311006932542e+03
163, -2.500000000000000e-04, 5.700000000011876e-03, 4.796220130305159e-04, 9.296576398404465e-06, 1.555539567985744e+03, 7.026430328996816e+03, 8.025296344349657e+02, 5.701478841099173e+03
164, -2.500000000000000e-04, 5.600000000012062e-03, 4.662508298017167e-04, 9.980969085463221e-06, 1.626477386727317e+03, 7.352449340083156e+03, 8.337049769098138e+02, 5.963808411134152e+03
165, -2.500000000000000e-04, 5.500000000012085e-03, 4.529628378787044e-04, 1.064445873957272e-05, 1.698932657466851e+03, 7.686282548560968e+03, 8.650345533507329e+02, 6.232294748513387e+03
166, -2.500000000000000e-04, 5.400000000012110e-03, 4.397619074397722e-04, 1.128637723719750e-05, 1.772878948024158e+03, 8.027936721350936e+03, 8.964637697242848e+02, 6.506945282493842e+03
167, -2.500000000000000e-04, 5.300000000012160e-03, 4.266520015366919e-04, 1.190605450376118e-05, 1.848284288615037e+03, 8.377411704666736e+03, 9.279397238142246e+02, 6.787767920249455e+03
168, -2.500000000000000e-04, 5.200000000012475e-03, 4.136371754565643e-04, 1.250281946782156e-05, 1.925136048146621e+03, 8.734722619310476e+03, 9.594074895678843e+02, 7.074766440973930e+03
169, -2.500000000000000e-04, 5.100000000012934e-03, 4.007215770907009e-04, 1.307600085799203e-05, 2.003428439714758e+03, 9.099891177887866e+03, 9.908081115460761e+02, 7.367943149203947e+03
170, -2.500000000000000e-04, 5.000000000013221e-03, 3.879094476085048e-04, 1.362492802109125e-05, 2.083145820759688e+03, 9.472932074587359e+03, 1.022079269057660e+03, 7.667302329125294e+03
171, -2.500000000000000e-04, 4.900000000012981e-03, 3.752051216282613e-04, 1.414893179949081e-05, 2.164258434782102e+03, 9.853846174311195e+03, 1.053159103963542e+03, 7.972849929414279e+03
172, -2.500000000000000e-04, 4.800000000012570e-03, 3.626130265470758e-04, 1.464734570041984e-05, 2.246776393664421e+03, 1.024266675040170e+04, 1.083980644513028e+03, 8.284583196979780e+03
173, -2.500000000000000e-04, 4.700000000012160e-03, 3.501376840124528e-04, 1.511950669672581e-05, 2.330699704318484e+03, 1.063942244458921e+04, 1.114469387845876e+03, 8.602502056987496e+03
174, -2.500000000000000e-04, 4.600000000011960e-03, 3.377837110604932e-04, 1.556475607975025e-05, 2.415963084953622e+03, 1.104408644063862e+04, 1.144553564258459e+03, 8.926618849639759e+03
175, -2.500000000000000e-04, 4.500000000011985e-03, 3.255558177944214e-04, 1.598244090133706e-05, 2.502560916921608e+03, 1.145667798830918e+04, 1.174161302674645e+03, 9.256934243414975e+03
176, -2.500000000000000e-04, 4.400000000012010e-03, 3.134588081208470e-04, 1.637191503892882e-05, 2.590509068993639e+03, 1.187723536299565e+04, 1.203212591608984e+03, 9.593443981289201e+03
177, -2.500000000000000e-04, 4.300000000011870e-03, 3.014975815315023e-04, 1.673254018745344e-05, 2.679780945768768e+03, 1.230576233867190e+04, 1.231623377942823e+03, 9.936151284924084e+03
178, -2.500000000000000e-04, 4.200000000011467e-03, 2.896771326482523e-04, 1.706368713646465e-05, 2.770353692117985e+03, 1.274226404275003e+04, 1.259308888117498e+03, 1.028505865534123e+04
179, -2.500000000000000e-04, 4.100000000011056e-03, 2.780025510836607e-04, 1.736473709203260e-05, 2.862220098592556e+03, 1.318675864432833e+04, 1.286179844144951e+03, 1.064016590793221e+04
180, -2.500000000000000e-04, 4.000000000010646e-03, 2.664790221884389e-04, 1.763508286826685e-05, 2.955353906788525e+03, 1.363924867884506e+04, 1.312144391696288e+03, 1.100147713350426e+04
181, -2.500000000000000e-04, 3.900000000010236e-03, 2.551118266808064e-04, 1.787413029628769e-05, 3.049738746726089e+03, 1.409974311234359e+04, 1.337109124549098e+03, 1.136899466637115e+04
182, -2.500000000000000e-04, 3.800000000009824e-03, 2.439063406973394e-04, 1.808129965195593e-05, 3.145379978757012e+03, 1.456826782381135e+04, 1.360975070319450e+03, 1.174271600988521e+04
183, -2.500000000000000e-04, 3.700000000009415e-03, 2.328680370095916e-04, 1.825602702742446e-05, 3.242255864800140e+03, 1.504482596626293e+04, 1.383638756742014e+03, 1.212264351684803e+04
184, -2.500000000000000e-04, 3.600000000009160e-03, 2.220024847952025e-04, 1.839776584664342e-05, 3.340349289835583e+03, 1.552942299104882e+04, 1.404994582309704e+03, 1.250877918898909e+04
185, -2.500000000000000e-04, 3.500000000009170e-03, 2.113153496854857e-04, 1.850598844345361e-05, 3.439647520390990e+03, 1.602206682337476e+04, 1.424933474587806e+03, 1.290112464648342e+04
186, -2.500000000000000e-04, 3.400000000009196e-03, 2.008123939402145e-04, 1.858018763346141e-05, 3.540145267711078e+03, 1.652276949282582e+04, 1.443342635126580e+03, 1.329967983148590e+04
187, -2.500000000000000e-04, 3.300000000009092e-03, 1.904994769201595e-04, 1.861987840434794e-05, 3.641834039402444e+03, 1.703153780035904e+04, 1.460104502889793e+03, 1.370444407641593e+04
188, -2.500000000000000e-04, 3.200000000008720e-03, 1.803825554056453e-04, 1.862459964108632e-05, 3.744698444909396e+03, 1.754837124314395e+04, 1.475097696786429e+03, 1.411541836365394e+04
189, -2.500000000000000e-04, 3.100000000008311e-03, 1.704676835279313e-04, 1.859391587821501e-05, 3.848727712229193e+03, 1.807327115452820e+04, 1.488197913352723e+03, 1.453260362973825e+04
190, -2.500000000000000e-04, 3.000000000007901e-03, 1.607610128451790e-04, 1.852741913632423e-05, 3.953918972038185e+03, 1.860624262414254e+04, 1.499276597437478e+03, 1.495599911970148e+04
191, -2.500000000000000e-04, 2.900000000007490e-03, 1.512687927631893e-04, 1.842473080634568e-05, 4.060266939193963e+03, 1.914728620468343e+04, 1.508200269168506e+03, 1.538560439257848e+04
192, -2.500000000000000e-04, 2.800000000007079e-03, 1.419973707788602e-04, 1.828550357692126e-05, 4.167759014699785e+03, 1.969639405815093e+04, 1.514832222196596e+03, 1.582142133179947e+04
193, -2.500000000000000e-04, 2.700000000006744e-03, 1.329531921985452e-04, 1.810942343345477e-05, 4.276396945856039e+03, 2.025356640511136e+04, 1.519032588041093e+03, 1.626344932490904e+04
194, -2.500000000000000e-04, 2.600000000006672e-03, 1.241428004831207e-04, 1.789621175412359e-05, 4.386187850471862e+03, 2.081880355291443e+04, 1.520655634612914e+03, 1.671168552422172e+04
195, -2.500000000000000e-04, 2.500000000006697e-03, 1.155728378389353e-04, 1.764562743855972e-05, 4.497121637760855e+03, 2.139208821586379e+04, 1.519551356972642e+03, 1.716613063509435e+04
196, -2.500000000000000e-04, 2.400000000006722e-03, 1.072500447615947e-04, 1.735746909216592e-05, 4.609204254005721e+03, 2.197341288352454e+04, 1.515566384324569e+03, 1.762678380166485e+04
197, -2.500000000000000e-04, 2.300000000006651e-03, 9.918126031427449e-05, 1.703157724164583e-05, 4.722441744784765e+03, 2.256276505348613e+04, 1.508542879221834e+03, 1.809364369696709e+04
198, -2.500000000000000e-04, 2.200000000006315e-03, 9.137342227701080e-05, 1.666783671725639e-05, 4.836839207530975e+03, 2.316012698988483e+04, 1.498318170002039e+03, 1.856670957679876e+04
199, -2.500000000000000e-04, 2.100000000005904e-03, 8.383356706423305e-05, 1.626617896650430e-05, 4.952410344107252e+03, 2.376548282679389e+04, 1.484725798759618e+03, 1.904597960276212e+04
200, -2.500000000000000e-04, 2.000000000005494e-03, 7.656882994881054e-05, 1.582658455978285e-05, 5.069166140806801e+03, 2.437880858651642e+04, 1.467594265724190e+03, 1.953145215021906e+04
201, -2.500000000000000e-04, 1.900000000005083e-03, 6.958644498261465e-05, 1.534908568585902e-05, 5.187123682749655e+03, 2.500007967908827e+04, 1.446747735557860e+03, 2.002312516452458e+04
202, -2.500000000000000e-04, 1.800000000004675e-03, 6.289374506834331e-05, 1.483376873811635e-05, 5.306300083417468e+03, 2.562926558212272e+04, 1.422005940421457e+03, 2.052099730129946e+04
203, -2.500000000000000e-04, 1.700000000004264e-03, 5.649816180673624e-05, 1.428077694797605e-05, 5.426719643303330e+03, 2.626633424914005e+04, 1.393184591285884e+03, 2.102506575831307e+04
204, -2.500000000000000e-04, 1.600000000003854e-03, 5.040722553852151e-05, 1.369031317138397e-05, 5.548408384797563e+03, 2.691124792604828e+04, 1.360094057033222e+03, 2.153532764183385e+04
205, -2.500000000000000e-04, 1.500000000003443e-03, 4.462856524187606e-05, 1.306264262842688e-05, 5.671396336749575e+03, 2.756396520914591e+04, 1.322540599266881e+03, 2.205178057163307e+04
206, -2.500000000000000e-04, 1.400000000003032e-03, 3.916990839786220e-05, 1.239809577386161e-05, 5.795718617081209e+03, 2.822444067466653e+04, 1.280325877933388e+03, 2.257442159948374e+04
207, -2.500000000000000e-04, 1.300000000002622e-03, 3.403908089693285e-05, 1.169707123856429e-05, 5.921413111952068e+03, 2.889262242156509e+04, 1.233246883731131e+03, 2.310324757801340e+04
208, -2.500000000000000e-04, 1.200000000002211e-03, 2.924400682381148e-05, 1.096003885240597e-05, 6.048526388678069e+03, 2.956845724601742e+04, 1.181096244489229e+03, 2.363825503054339e+04
209, -2.500000000000000e-04, 1.100000000002113e-03, 2.479270821599254e-05, 1.018754267264374e-05, 6.177128258757954e+03, 3.025190930484411e+04, 1.123663740828497e+03, 2.417944505622079e+04
210, -2.500000000000000e-04, 1.000000000002544e-03, 2.069330489584416e-05, 9.380203624359992e-06, 6.307358217446743e+03, 3.094302829691514e+04, 1.060740929256877e+03, 2.472684625140087e+04
211, -2.500000000000000e-04, 9.000000000030026e-04, 1.695401536486895e-05, 8.538720443678185e-06, 6.439472917248188e+03, 3.164205123305027e+04, 9.921312897992609e+02, 2.528057063732803e+04
212, -2.500000000000000e-04, 8.000000000032027e-04, 1.358316264462668e-05, 7.663867771463223e-06, 6.573766884497171e+03, 3.234935786086395e+04, 9.176290352392266e+02, 2.584084484621617e+04
213, -2.500000000000000e-04, 7.000000000028719e-04, 1.058919605958284e-05, 6.756495501203692e-06, 6.709007130420353e+03, 3.306345481397108e+04, 8.368916259100952e+02, 2.640754557089860e+04
214, -2.500000000000000e-04, 6.000000000024631e-04, 7.980737855068158e-06, 5.817578763776450e-06, 6.838443217886042e+03, 3.377438180793653e+04, 7.486217846163083e+02, 2.697751890060647e+04
215, -2.500000000000000e-04, 5.000000000020526e-04, 5.766633009365383e-06, 4.848455579934505e-06, 6.925926229646475e+03, 3.442977876637477e+04, 6.493569557407800e+02, 2.753449767448049e+04
216, -2.500000000000000e-04, 4.000000000016421e-04, 3.955594853770633e-06, 3.851897802478915e-06, 6.895591657699043e+03, 3.489967345760266e+04, 5.254588141036609e+02, 2.802379391369002e+04
217, -2.500000000000000e-04, 3.000000000012316e-04, 2.554390726820726e-06, 2.834269616670786e-06, 6.306838433732712e+03, 3.458703168473294e+04, 3.739714266671587e+02, 2.829008216364478e+04
218, -2.500000000000000e-04, 2.000000000008210e-04, 1.554878486506186e-06, 1.815267891127033e-06, 5.922652332599888e+03, 3.409580369828284e+04, 1.198727466166284e+02, 2.817417143014518e+04
219, -2.500000000000000e-04, 1.000000000004105e-04, 9.049602401436125e-07, 8.031777409956426e-07, -3.056740320527574e+03, 2.361390221286286e+04, 2.095195923851898e+03, 2.699782504168063e+04
220, -1.999999999998928e-04, 9.899999999999593e-03, 1.077953272797968e-03, -3.779502509949053e-05, -1.648490552796718e+00, 6.230856547787453e+01, 6.503229853761269e+00, 6.526617048849909e+01
221, -1.499999999997670e-04, 9.899999999999591e-03, 1.077420034215140e-03, -4.507154428370588e-05, 1.747153576164693e+00, 5.685018695249551e+01, 1.257384125334600e+01, 6.057020903654214e+01
222, -9.999999999959327e-05, 9.899999999999591e-03, 1.076886970198151e-03, -5.234776155563754e-05, 6.303320675755813e+00, 4.929684087762551e+01, 1.638627106171342e+01, 5.405998794469311e+01
223, -4.999999999946756e-05, 9.899999999999593e-03, 1.076354107046584e-03, -5.962369975956831e-05, 1.072255799198518e+01, 4.137907563708443e+01, 1.888741037779016e+01, 4.864934899092179e+01
224, 6.282680539010377e-16, 9.899999999999593e-03, 1.075821433677993e-03, -6.689943251486607e-05, 1.403544687034932e+01, 3.344134760356880e+01, 1.975461273661859e+01, 4.401781322104340e+01
225, 5.000000000046569e-05, 9.899999999999590e-03, 1.075288927934613e-03, -7.417506626524107e-05, 1.631782877084874e+01, 2.603407965054990e+01, 1.884645283527026e+01, 3.892506479179655e+01
226, 1.000000000003380e-04, 9.899999999999590e-03, 1.074756562614122e-03, -8.145071697610941e-05, 1.767615357249237e+01, 1.961079878815992e+01, 1.625663767167445e+01, 3.257078331362212e+01
227, 1.500000000001929e-04, 9.899999999999593e-03, 1.074224304578110e-03, -8.872649418574913e-05, 1.819942135577287e+01, 1.474126985778184e+01, 1.223091080472006e+01, 2.470505066246838e+01
228, 2.000000000000797e-04, 9.899999999999593e-03, 1.073692112790306e-03, -9.600249180099372e-05, 1.767167687654218e+01, 1.177610281597098e+01, 7.199226025310264e+00, 1.555870222601160e+01
229, -1.999999999998947e-04, 9.799999999999184e-03, 1.063399499122856e-03, -3.673281643942031e-05, 3.001633257388232e+00, 8.060960922430657e+01, 1.163348300734000e+01, 8.102067415919251e+01
230, -1.499999999997712e-04, 9.799999999999181e-03, 1.062866150048900e-03, -4.400904150685361e-05, 7.859605638640391e+00, 6.968040238296632e+01, 1.888098610734490e+01, 7.244154509427767e+01
231, -9.999999999960086e-05, 9.799999999999184e-03, 1.062333036820469e-03, -5.128486872705087e-05, 1.094031963551435e+01, 5.624928011716671e+01, 2.383630033951478e+01, 6.576913223868885e+01
232, -4.999999999947776e-05, 9.799999999999184e-03, 1.061800168582924e-03, -5.856040756193345e-05, 1.441780931093701e+01, 4.362414092388875e+01, 2.666322181511024e+01, 6.080065292850716e+01
233, 6.154473632113966e-16, 9.799999999999184e-03, 1.061267535165544e-03, -6.583576220693499e-05, 1.768054776960223e+01, 3.221199102884815e+01, 2.737995997596215e+01, 5.665519990555006e+01
234, 5.000000000045551e-05, 9.799999999999184e-03, 1.060735112614808e-03, -7.311104915641300e-05, 2.014107383010403e+01, 2.205387495295079e+01, 2.587655038516814e+01, 5.178843739175903e+01
235, 1.000000000003303e-04, 9.799999999999184e-03, 1.060202868933852e-03, -8.038639248989075e-05, 2.149669095815248e+01, 1.327783007919193e+01, 2.215241492441618e+01, 4.506071040365093e+01
236, 1.500000000001885e-04, 9.799999999999188e-03, 1.059670765424564e-03, -8.766191588014635e-05, 2.152220423473833e+01, 6.112536383785876e+00, 1.634903221296272e+01, 3.614721677361409e+01
237, 2.000000000000778e-04, 9.799999999999188e-03, 1.059138754907190e-03, -9.493773491112138e-05, 1.968017085246902e+01, 7.216900606087862e-01, 8.685307347830413e+00, 2.571307544500349e+01
238, -1.999999999998966e-04, 9.699999999999027e-03, 1.048845896746754e-03, -3.567128616679371e-05, 5.422846514060803e+00, 1.011847038158578e+02, 1.790973518006579e+01, 1.022417124796434e+02
239, -1.499999999997756e-04, 9.699999999998999e-03, 1.048312353397647e-03, -4.294702441805146e-05, 9.656393917412833e+00, 8.397412207562854e+01, 2.601424807028797e+01, 9.071983867516727e+01
240, -9.999999999960846e-05, 9.699999999998973e-03, 1.047779122545314e-03, -5.022232543164444e-05, 1.370532762118959e+01, 6.645651966304048e+01, 3.147368010234378e+01, 8.212830461281249e+01
241, -4.999999999948794e-05, 9.699999999998947e-03, 1.047246203780358e-03, -5.749731826382768e-05, 1.718230755417951e+01, 4.903285049959013e+01, 3.424708597529990e+01, 7.553746538715592e+01
242, 6.026266725217555e-16, 9.699999999998920e-03, 1.046713586096107e-03, -6.477213806734735e-05, 2.015182312017710e+01, 3.256243043788012e+01, 3.433726979111388e+01, 6.978692972774481e+01
243, 5.000000000044535e-05, 9.699999999998892e-03, 1.046181246528685e-03, -7.204692200491734e-05, 2.228552326423658e+01, 1.742870385483443e+01, 3.175652259181813e+01, 6.369847410475519e+01
244, 1.000000000003228e-04, 9.699999999998864e-03, 1.045649151561380e-03, -7.932181026386439e-05, 2.323284673793696e+01, 3.897756656368820e+00, 2.653271144310948e+01, 5.647817998621773e+01
245, 1.500000000001842e-04, 9.699999999998836e-03, 1.045117258073271e-03, -8.659694382368323e-05, 2.267012104089559e+01, -7.741250143481694e+00, 1.873853479687826e+01, 4.826367415198767e+01
246, 2.000000000000759e-04, 9.699999999998809e-03, 1.044585512363601e-03, -9.387246316276648e-05, 2.041165439875837e+01, -1.697420381351827e+01, 8.471993149128137e+00, 4.104632828821536e+01
247, -1.999999999998985e-04, 9.599999999999352e-03, 1.034292723469783e-03, -3.461065053150596e-05, 7.085984227696718e+00, 1.257398862067966e+02, 2.484017107274877e+01, 1.286346953607755e+02
248, -1.499999999997800e-04, 9.599999999999241e-03, 1.033758944843046e-03, -4.188571852735090e-05, 1.129569948645386e+01, 1.023385524121591e+02, 3.374097114762804e+01, 1.133252558117204e+02
249, -9.999999999961608e-05, 9.599999999999132e-03, 1.033225564641909e-03, -4.916030491767134e-05, 1.540219195391628e+01, 7.876466383734791e+01, 3.941254105983774e+01, 1.011345460975242e+02
250, -4.999999999949810e-05, 9.599999999999024e-03, 1.032692583390216e-03, -5.643456459014394e-05, 1.902731255093991e+01, 5.550596282375781e+01, 4.187286156828974e+01, 9.134570635445969e+01
251, 5.898059818321144e-16, 9.599999999998917e-03, 1.032159988579968e-03, -6.370865589262260e-05, 2.185505111416919e+01, 3.302650462125342e+01, 4.114213945748549e+01, 8.303917105810777e+01
252, 5.000000000043517e-05, 9.599999999998809e-03, 1.031627756173568e-03, -7.098273954677148e-05, 2.365832334755039e+01, 1.183569478087298e+01, 3.725853728737926e+01, 7.544911496767698e+01
253, 1.000000000003152e-04, 9.599999999998698e-03, 1.031095850894465e-03, -7.825697726327187e-05, 2.416188028993228e+01, -7.640571624634450e+00, 3.027547471453389e+01, 6.839454235931294e+01
254, 1.500000000001798e-04, 9.599999999998591e-03, 1.030564226562788e-03, -8.553153145682736e-05, 2.312171572184241e+01, -2.496758543921020e+01, 2.025798091251746e+01, 6.288182606100194e+01
255, 2.000000000000740e-04, 9.599999999998483e-03, 1.030032826482682e-03, -9.280656470040673e-05, 2.034575696843355e+01, -3.967137376184751e+01, 7.274672192645503e+00, 6.175548075383630e+01
256, -1.999999999999004e-04, 9.499999999999719e-03, 1.019740335929985e-03, -3.355111733920246e-05, 8.331664242221095e+00, 1.542655577193160e+02, 3.224509323769531e+01, 1.595483795499494e+02
257, -1.499999999997843e-04, 9.499999999999528e-03, 1.019206296959078e-03, -4.082530205486410e-05, 1.282732468456965e+01, 1.238441205624942e+02, 4.184803231303640e+01, 1.390315079429570e+02
258, -9.999999999962368e-05, 9.499999999999330e-03, 1.018672759862865e-03, -4.809895290224034e-05, 1.701719613464125e+01, 9.317573792179863e+01, 4.762507499519266e+01, 1.219537394274448e+02
259, -4.999999999950831e-05, 9.499999999999136e-03, 1.018139724203939e-03, -5.537225313866830e-05, 2.061347274823370e+01, 6.283370478324838e+01, 4.963624519891388e+01, 1.078775942579240e+02
260, 5.769988436696294e-16, 9.499999999998942e-03, 1.017607176565535e-03, -6.264538685420463e-05, 2.331864013819380e+01, 3.332817932274952e+01, 4.793942659007195e+01, 9.639992407583496e+01
261, 5.000000000042495e-05, 9.499999999998747e-03, 1.017075091236324e-03, -6.991853895176231e-05, 2.485504834774873e+01, 5.145670767395316e+00, 4.259610896285100e+01, 8.744240138345492e+01
262, 1.000000000003075e-04, 9.499999999998551e-03, 1.016543430837537e-03, -7.719189475591674e-05, 2.497782651653462e+01, -2.122563530050694e+01, 3.367624711521283e+01, 8.167691450427311e+01
263, 1.500000000001755e-04, 9.499999999998359e-03, 1.016012146741650e-03, -8.446563945128131e-05, 2.345487580274838e+01, -4.531375169892873e+01, 2.125875311684694e+01, 8.085086557852438e+01
264, 2.000000000000721e-04, 9.499999999998164e-03, 1.015481179514623e-03, -9.173995762487929e-05, 2.008598512978912e+01, -6.665083761768663e+01, 5.436002819182489e+00, 8.741554167839760e+01
265, -1.999999999999023e-04, 9.400000000000087e-03, 1.005189185118807e-03, -3.249290537927934e-05, 9.290884310945501e+00, 1.867399218467584e+02, 4.013890602566322e+01, 1.947631588112455e+02
266, -1.499999999997887e-04, 9.399999999999811e-03, 1.004654869655951e-03, -3.976595072367543e-05, 1.416469167853986e+01, 1.481546522076326e+02, 5.032412920851668e+01, 1.675809698174878e+02
267, -9.999999999963125e-05, 9.399999999999530e-03, 1.004121177564426e-03, -4.703840723981528e-05, 1.855601865179839e+01, 1.093655319557359e+02, 5.610087335370628e+01, 1.443454179068126e+02
268, -4.999999999951849e-05, 9.399999999999249e-03, 1.003588106198303e-03, -5.431048592840237e-05, 2.217835469170283e+01, 7.092018373178311e+01, 5.755878863946602e+01, 1.250112894771640e+02
269, 5.641646004528322e-16, 9.399999999998968e-03, 1.003055640114977e-03, -6.158239747789814e-05, 2.476492012788083e+01, 3.335969859054735e+01, 5.478033443706344e+01, 1.098972719450687e+02
270, 5.000000000041476e-05, 9.399999999998687e-03, 1.002523751466197e-03, -6.885435227074526e-05, 2.605312146759612e+01, -2.797513377570938e+00, 4.784844341519205e+01, 9.995125451937314e+01
271, 1.000000000003000e-04, 9.399999999998406e-03, 1.001992400389030e-03, -7.612656019255597e-05, 2.579025816811568e+01, -3.704953021227332e+01, 3.685108022302542e+01, 9.685477509192560e+01
272, 1.500000000001711e-04, 9.399999999998125e-03, 1.001461535391876e-03, -8.339923026144211e-05, 2.373701700146231e+01, -6.890628658507738e+01, 2.188541691543873e+01, 1.024630059761963e+02
273, 2.000000000000702e-04, 9.399999999997844e-03, 1.000931093722617e-03, -9.067257001254432e-05, 1.965123109655560e+01, -9.790341477040430e+01, 3.061356641874992e+00, 1.177139855024090e+02
274, -1.999999999999042e-04, 9.300000000000464e-03, 9.906397939341320e-04, -3.143623877360304e-05, 1.062410295255885e+01, 2.236248846730248e+02, 4.853459601100694e+01, 2.340764000349804e+02
275, -1.499999999997930e-04, 9.300000000000100e-03, 9.901051955493478e-04, -3.870784790374120e-05, 1.578644022078030e+01, 1.756374110933073e+02, 5.917185744984574e+01, 1.988908437941499e+02
276, -9.999999999963886e-05, 9.299999999999729e-03, 9.895713584052231e-04, -4.597881221333122e-05, 2.029974633929618e+01, 1.275286900654770e+02, 6.484100919599420e+01, 1.682720186687391e+02
277, -4.999999999952863e-05, 9.299999999999361e-03, 9.890382773026158e-04, -5.324937012773089e-05, 2.391172889622098e+01, 7.986263801361922e+01, 6.564262242706188e+01, 1.427106153986822e+02
278, 5.513303572360351e-16, 9.299999999998993e-03, 9.885059342796848e-04, -6.051975914951785e-05, 2.635404594565459e+01, 3.317897218588264e+01, 6.167374283647146e+01, 1.235361560030966e+02
279, 5.000000000040461e-05, 9.299999999998625e-03, 9.879742988383241e-04, -6.779021581345591e-05, 2.736290821386592e+01, -1.199423602377419e+01, 5.303288242749973e+01, 1.131323617574496e+02
280, 1.000000000002923e-04, 9.299999999998258e-03, 9.874433281980412e-04, -7.506097551319045e-05, 2.667988771395777e+01, -5.514099700225549e+01, 3.982308106749348e+01, 1.141847989820733e+02
281, 1.500000000001668e-04, 9.299999999997890e-03, 9.869129675447326e-04, -8.233227218912575e-05, 2.405053807502353e+01, -9.575769033980166e+01, 2.215492306741273e+01, 1.277394772980962e+02
282, 2.000000000000683e-04, 9.299999999997520e-03, 9.863831502254570e-04, -8.960433791867875e-05, 1.922621541871997e+01, -1.333479784953695e+02, 1.493356309292082e-01, 1.525744862454297e+02
283, -1.999999999999061e-04, 9.200000000000841e-03, 9.760927770284415e-04, -3.038135583100774e-05, 1.177394823339376e+01, 2.644841588785105e+02, 5.749224783045211e+01, 2.776398472962622e+02
284, -1.499999999997973e-04, 9.200000000000397e-03, 9.755578914469636e-04, -3.765119100669316e-05, 1.729952013846264e+01, 2.060142067324386e+02, 6.844440391164369e+01, 2.331346791954030e+02
285, -9.999999999964642e-05, 9.199999999999951e-03, 9.750239222311450e-04, -4.492032552080462e-05, 2.201738623283601e+01, 1.475277139576330e+02, 7.388441946773872e+01, 1.938774667823082e+02
286, -4.999999999953884e-05, 9.199999999999505e-03, 9.744908610284478e-04, -5.218902503533516e-05, 2.566827514263706e+01, 8.958405086014952e+01, 7.391139767078614e+01, 1.610490770174351e+02
287, 5.385367716007061e-16, 9.199999999999058e-03, 9.739586867468932e-04, -5.945755401900116e-05, 2.799074217651093e+01, 3.273169621687588e+01, 6.863090565017573e+01, 1.373436619821466e+02
288, 5.000000000039439e-05, 9.199999999998614e-03, 9.734273656628167e-04, -6.672617561491585e-05, 2.872274698712502e+01, -2.249071207128724e+01, 5.815137055827087e+01, 1.270792901300168e+02
289, 1.000000000002848e-04, 9.199999999998171e-03, 9.728968515610479e-04, -7.399515145166234e-05, 2.760363520368616e+01, -7.555310638239527e+01, 4.258559500633748e+01, 1.337738574716030e+02
290, 1.500000000001625e-04, 9.199999999997726e-03, 9.723670858630517e-04, -8.126474140152046e-05, 2.437474632381266e+01, -1.259322929955358e+02, 2.205254117284362e+01, 1.566443882099452e+02
291, 2.000000000000664e-04, 9.199999999997280e-03, 9.718379977262108e-04, -8.853520327163377e-05, 1.877940710811718e+01, -1.731097307031270e+02, -3.320882845461795e+00, 1.920040475131599e+02
292, -1.999999999999080e-04, 9.100000000001274e-03, 9.615488094651218e-04, -2.932850621630349e-05, 1.323231452324070e+01, 3.097244020801730e+02, 6.704642249242630e+01, 3.254050538329104e+02
293, -1.499999999998017e-04, 9.100000000000802e-03, 9.610136399098826e-04, -3.659619002610177e-05, 1.903428407566125e+01, 2.395799563578428e+02, 7.818923030180223e+01, 2.703601607174261e+02
294, -9.999999999965405e-05, 9.100000000000334e-03, 9.604795578518120e-04, -4.386311789695141e-05, 2.390363823446785e+01, 1.695647620110450e+02, 8.326575277883876e+01, 2.212462549359019e+02
295, -4.999999999954905e-05, 9.099999999999862e-03, 9.599465517159348e-04, -5.112958284224557e-05, 2.755886940494998e+01, 1.002240166385589e+02, 8.238483138156147e+01, 1.800812744000756e+02
296, 5.257025283839090e-16, 9.099999999999390e-03, 9.594145970391919e-04, -5.839587654817267e-05, 2.973229574343557e+01, 3.210776727178256e+01, 7.565692391136486e+01, 1.513324929018953e+02
297, 5.000000000038422e-05, 9.099999999998916e-03, 9.588836565820945e-04, -6.566228916403881e-05, 3.015864267245580e+01, -3.423839156570395e+01, 6.319619236529203e+01, 1.418520811851370e+02
298, 1.000000000002772e-04, 9.099999999998446e-03, 9.583536804123355e-04, -7.292910913689221e-05, 2.857387245401303e+01, -9.827336226971826e+01, 4.512080009152447e+01, 1.556719864351150e+02
299, 1.500000000001581e-04, 9.099999999997978e-03, 9.578246059702548e-04, -8.019662301904760e-05, 2.471453289299465e+01, -1.594598622544300e+02, 2.155381695116814e+01, 1.891519916061620e+02
300, 2.000000000000645e-04, 9.099999999997506e-03, 9.572963581029739e-04, -8.746511525058729e-05, 1.831652587293697e+01, -2.172634786332096e+02, -7.375635957738440e+00, 2.360413915952886e+02
301, -1.999999999999099e-04, 9.000000000001736e-03, 9.470086485408218e-04, -2.827795086763029e-05, 1.487811972134391e+01, 3.593010204348733e+02, 7.718631075407293e+01, 3.774361413633026e+02
302, -1.499999999998060e-04, 9.000000000001264e-03, 9.464732029736010e-04, -3.554306713693293e-05, 2.095612270166401e+01, 2.763651770239903e+02, 8.839314693872007e+01, 3.106238540948613e+02
303, -9.999999999966160e-05, 9.000000000000792e-03, 9.459390321166919e-04, -4.280737274422639e-05, 2.594404371442571e+01, 1.936884554014912e+02, 9.297753732205268e+01, 2.504345771616501e+02
304, -4.999999999955923e-05, 9.000000000000320e-03, 9.454061209836267e-04, -5.007118852329886e-05, 2.957014892077720e+01, 1.118300441726105e+02, 9.105387622012444e+01, 1.998247328677848e+02
305, 5.128818376942679e-16, 8.999999999999852e-03, 9.448744415742665e-04, -5.733483369531986e-05, 3.156153006471763e+01, 3.134251883668718e+01, 8.273783284146317e+01, 1.654758106163122e+02
306, 5.000000000037403e-05, 8.999999999999380e-03, 9.443439529575348e-04, -6.459862580639453e-05, 3.164868174757864e+01, -4.722266329647398e+01, 6.814738998755601e+01, 1.574704928471433e+02
307, 1.000000000002695e-04, 8.999999999998908e-03, 9.438146013260538e-04, -7.186288059790496e-05, 2.956349743205409e+01, -1.233160440477562e+02, 4.740380292042792e+01, 1.798906232363213e+02
308, 1.500000000001538e-04, 8.999999999998436e-03, 9.432863200293652e-04, -7.912791186563807e-05, 2.503838614863792e+01, -1.963897790781921e+02, 2.063205789347251e+01, 2.252402264414568e+02
309, 2.000000000000626e-04, 8.999999999997964e-03, 9.427590295827338e-04, -8.639403131083825e-05, 1.780477539471407e+01, -2.658971796393784e+02, -1.203903862095625e+01, 2.847218872756952e+02
310, -1.999999999999118e-04, 8.900000000002187e-03, 9.324731323351424e-04, -2.722996644146107e-05, 1.662284568218133e+01, 4.132377167488265e+02, 8.793070388720074e+01, 4.338554951773758e+02
311, -1.499999999998104e-04, 8.900000000001712e-03, 9.319374225829158e-04, -3.449205902059746e-05, 2.297425642065663e+01, 3.163796197313112e+02, 9.906506577546151e+01, 3.540370831535071e+02
312, -9.999999999966923e-05, 8.900000000001240e-03, 9.314031911420808e-04, -4.175328749503742e-05, 2.807643394626250e+01, 2.199232544381408e+02, 1.030200074313688e+02, 2.815274236330808e+02
313, -4.999999999956943e-05, 8.900000000000770e-03, 9.308704193773233e-04, -4.901400060460446e-05, 3.165655404492920e+01, 1.244288534070395e+02, 9.991276008469960e+01, 2.203110029932776e+02
314, 5.000475944774707e-16, 8.900000000000293e-03, 9.303390755818645e-04, -5.627454538875612e-05, 3.344312400453175e+01, 3.045629942441644e+01, 8.986174963574948e+01, 1.797483165747732e+02
315, 5.000000000036387e-05, 8.899999999999823e-03, 9.298091149976628e-04, -6.353526712161451e-05, 3.316451460196655e+01, -6.143657072678778e+01, 7.298742008804277e+01, 1.739483236763493e+02
316, 1.000000000002620e-04, 8.899999999999349e-03, 9.292804798396233e-04, -7.079650922307868e-05, 3.054981807872738e+01, -1.506928887408549e+02, 4.941281389381645e+01, 2.064350345336489e+02
317, 1.500000000001494e-04, 8.899999999998874e-03, 9.287530993110452e-04, -7.805861315018746e-05, 2.532865456545809e+01, -2.367563702204738e+02, 1.926386614792081e+01, 2.649017674023761e+02
318, 2.000000000000606e-04, 8.899999999998404e-03, 9.282268896079125e-04, -8.532191829139841e-05, 1.723171054282996e+01, -3.190701325378868e+02, -1.733069686812965e+01, 3.380833356958415e+02
319, -1.999999999999137e-04, 8.800000000002590e-03, 9.179431760174367e-04, -2.618484395177011e-05, 1.849493030997849e+01, 4.716299813802540e+02, 9.929923793522846e+01, 4.947451153134609e+02
320, -1.499999999998147e-04, 8.800000000002060e-03, 9.174072186324521e-04, -3.344341672612923e-05, 2.509689645070892e+01, 3.597038910899165e+02, 1.102181536555212e+02, 4.006919096293448e+02
321, -9.999999999967683e-05, 8.800000000001532e-03, 9.168729594798251e-04, -4.070107349744344e-05, 3.029027537973415e+01, 2.483263308277321e+02, 1.133998086833297e+02, 3.146073551476276e+02
322, -4.999999999957961e-05, 8.800000000001001e-03, 9.163403762212901e-04, -4.795819102237154e-05, 3.380334892070724e+01, 1.380623636304703e+02, 1.089619171892143e+02, 2.415796757561517e+02
323, 4.872540088421418e-16, 8.800000000000474e-03, 9.158094333600691e-04, -5.521514435765119e-05, 3.536277559942442e+01, 2.947614514490078e+01, 9.702383820210022e+01, 1.941369442841249e+02
324, 5.000000000035368e-05, 8.799999999999947e-03, 9.152800822389782e-04, -6.247230678110495e-05, 3.469509687242824e+01, -7.686865548248190e+01, 7.770716017328776e+01, 1.913114785063764e+02
325, 1.000000000002544e-04, 8.799999999999419e-03, 9.147522610444292e-04, -6.973004970150959e-05, 3.152696450081091e+01, -1.804089534050834e+02, 5.113593472825526e+01, 2.353218404244356e+02
326, 1.500000000001451e-04, 8.799999999998892e-03, 9.142258948132852e-04, -7.698874256119628e-05, 2.558569364831163e+01, -2.805817498472223e+02, 1.743683109037568e+01, 3.081471657674108e+02
327, 2.000000000000587e-04, 8.799999999998365e-03, 9.137008954408727e-04, -8.424875273373717e-05, 1.659990634468678e+01, -3.768236444069242e+02, -2.326079408112317e+01, 3.961645471911174e+02
328, -1.999999999999156e-04, 8.700000000002964e-03, 9.034197741243338e-04, -2.514288831707438e-05, 2.044212390227724e+01, 5.344952919848481e+02, 1.113077210724909e+02, 5.601859465366244e+02
329, -1.499999999998191e-04, 8.700000000002345e-03, 9.028835901923041e-04, -3.239740513764051e-05, 2.727997385726074e+01, 4.063597151822437e+02, 1.218660939165570e+02, 4.506737508097542e+02
330, -9.999999999968445e-05, 8.700000000001731e-03, 9.023493408902853e-04, -3.965095565234259e-05, 3.255116566430881e+01, 2.789203979783553e+02, 1.241271626620159e+02, 3.497542118018064e+02
331, -4.999999999958977e-05, 8.700000000001117e-03, 9.018170001485680e-04, -4.690394480038191e-05, 3.598194986010920e+01, 1.527473426796784e+02, 1.182073773712419e+02, 2.636780104981397e+02
332, 4.743926605710325e-16, 8.700000000000502e-03, 9.012865286350645e-04, -5.415677586465293e-05, 3.729722912674238e+01, 2.841000599804485e+01, 1.042262165920558e+02, 2.086417974311853e+02
333, 5.000000000034347e-05, 8.699999999999888e-03, 9.007578737434221e-04, -6.140985036931315e-05, 3.622140182080388e+01, -9.352260245606956e+01, 8.230575930567709e+01, 2.095959415287747e+02
334, 1.000000000002468e-04, 8.699999999999274e-03, 9.002309695928267e-04, -6.866356797678922e-05, 3.247899813940499e+01, -2.124816853127120e+02, 5.257066680847284e+01, 2.665716347852452e+02
335, 1.500000000001407e-04, 8.699999999998657e-03, 8.997057370312899e-04, -7.591832638643872e-05, 2.579480321640737e+01, -3.278986927692814e+02, 1.514821520709376e+01, 3.549886798172868e+02
336, 2.000000000000568e-04, 8.699999999998044e-03, 8.991820836403355e-04, -8.317452122934621e-05, 1.589397157540368e+01, -4.392053019976570e+02, -2.983149790720649e+01, 4.589934878364596e+02
337, -1.999999999999175e-04, 8.600000000003331e-03, 8.889039990113352e-04, -2.410441783366355e-05, 2.247681625300173e+01, 6.018921439487596e+02, 1.239686918113593e+02, 6.302341375762356e+02
338, -1.499999999998235e-04, 8.600000000002632e-03, 8.883676146918165e-04, -3.135430237414655e-05, 2.952756269589314e+01, 4.563918975077455e+02, 1.340224010495926e+02, 5.040448157324471e+02
339, -9.999999999969208e-05, 8.600000000001931e-03, 8.878334179487706e-04, -3.860317184319857e-05, 3.485707555879402e+01, 3.117379825812429e+02, 1.352130583358308e+02, 3.870314215302024e+02
340, -4.999999999959999e-05, 8.600000000001230e-03, 8.873013789914563e-04, -4.585145959822261e-05, 3.818677056786309e+01, 1.685048035743434e+02, 1.276569500459613e+02, 2.866495723123032e+02
341, 4.615584173542353e-16, 8.600000000000526e-03, 8.867714546298761e-04, -5.309959739093238e-05, 3.923805136311131e+01, 2.726646687788667e+01, 1.114735609701280e+02, 2.232683094765807e+02
342, 5.000000000033329e-05, 8.599999999999825e-03, 8.862435882789265e-04, -6.034801523393068e-05, 3.773270018992214e+01, -1.114029064726008e+02, 8.678529139087851e+01, 2.288409412273021e+02
343, 1.000000000002392e-04, 8.599999999999124e-03, 8.857177099606331e-04, -6.759714129059528e-05, 3.339272000064761e+01, -2.469293458262310e+02, 5.371721567742911e+01, 3.002042931571609e+02
344, 1.500000000001364e-04, 8.599999999998423e-03, 8.851937363078334e-04, -7.484740176938668e-05, 2.594032456412650e+01, -3.787390527566591e+02, 1.239701020995395e+01, 4.054382096908499e+02
345, 2.000000000000548e-04, 8.599999999997722e-03, 8.846715705665762e-04, -8.209922082359116e-05, 1.509710145766091e+01, -5.062589925246659e+02, -3.704506541164287e+01, 5.265942690705249e+02
346, -1.999999999999195e-04, 8.500000000003703e-03, 8.743970023334368e-04, -2.306976368927933e-05, 2.459541033096388e+01, 6.738542055414662e+02, 1.372900397207140e+02, 7.049334742968686e+02
347, -1.499999999998278e-04, 8.500000000002915e-03, 8.738604490613910e-04, -3.031439923829948e-05, 3.184303166440768e+01, 5.098315779528862e+02, 1.466940350428331e+02, 5.608472252330083e+02
348, -9.999999999969967e-05, 8.500000000002127e-03, 8.733263530006642e-04, -3.755797238980352e-05, 3.721287815348848e+01, 3.468044523525812e+02, 1.466633205060467e+02, 4.264826621827783e+02
349, -4.999999999961013e-05, 8.500000000001340e-03, 8.727946806158205e-04, -4.480094524375711e-05, 4.042133692187950e+01, 1.853517004510693e+02, 1.373146642354961e+02, 3.105254874066397e+02
350, 4.487512791917503e-16, 8.500000000000552e-03, 8.722653848428962e-04, -5.204377828150295e-05, 4.118711456922211e+01, 2.605295437136695e+01, 1.187680278472028e+02, 2.380176895941772e+02
351, 5.000000000032310e-05, 8.499999999999765e-03, 8.717384050993420e-04, -5.928693025566482e-05, 3.922928239234279e+01, -1.305125033890272e+02, 9.114609859408799e+01, 2.490837589967305e+02
352, 1.000000000002316e-04, 8.499999999998977e-03, 8.712136672920841e-04, -6.653085807695430e-05, 3.426727259234417e+01, -2.837655543015052e+02, 5.457423758255692e+01, 3.362413844442153e+02
353, 1.500000000001320e-04, 8.499999999998190e-03, 8.706910838223982e-04, -7.377601670959392e-05, 2.602083556959236e+01, -4.331271620014724e+02, 9.180384587295526e+00, 4.595149633235039e+02
354, 2.000000000000531e-04, 8.499999999997402e-03, 8.701705535901222e-04, -8.102285907139786e-05, 1.421035136240523e+01, -5.780179929733864e+02, -4.490520875734275e+01, 5.989994348318496e+02
355, -1.999999999999213e-04, 8.400000000004074e-03, 8.599000160330586e-04, -2.203926970831902e-05, 2.685165265090546e+01, 7.504675573718398e+02, 1.512665474914136e+02, 7.843125978364651e+02
356, -1.499999999998322e-04, 8.400000000003200e-03, 8.593633308474146e-04, -2.927799884019958e-05, 3.426626267267049e+01, 5.667417766821428e+02, 1.598774396546147e+02, 6.211065575742310e+02
357, -9.999999999970726e-05, 8.400000000002326e-03, 8.588293892338890e-04, -3.651561970535182e-05, 3.964563818917791e+01, 3.841628147051941e+02, 1.584751601353727e+02, 4.681341585852243e+02
358, -4.999999999962035e-05, 8.400000000001451e-03, 8.582981539170188e-04, -4.375262342038920e-05, 4.270481752283634e+01, 2.033157120189777e+02, 1.471783796757957e+02, 3.353233681192252e+02
359, 4.359305885021092e-16, 8.400000000000581e-03, 8.577695739591763e-04, -5.098949947509622e-05, 4.315865424886839e+01, 2.478420651638463e+01, 1.261077133502431e+02, 2.528838504040583e+02
360, 5.000000000031294e-05, 8.399999999999703e-03, 8.572435847843375e-04, -5.822673561664543e-05, 4.072308735021522e+01, -1.508479171824370e+02, 9.538631509242425e+01, 2.703583662572594e+02
361, 1.000000000002240e-04, 8.399999999998832e-03, 8.567201081895455e-04, -6.546481775153700e-05, 3.511464451427999e+01, -3.229968576001986e+02, 5.513980320868292e+01, 3.747071383604231e+02
362, 1.500000000001277e-04, 8.399999999997958e-03, 8.561990523519178e-04, -7.270422984484243e-05, 2.605035740847426e+01, -4.910786976631107e+02, 5.496313791474897e+00, 5.172458771806768e+02
363, 2.000000000000511e-04, 8.399999999997083e-03, 8.556803118340201e-04, -7.994545381938575e-05, 1.324852822455092e+01, -6.545088326347510e+02, -5.341333197298457e+01, 6.762483486941798e+02
364, -1.999999999999233e-04, 8.300000000004210e-03, 8.454143557306051e-04, -2.101329301421043e-05, 2.918266764117604e+01, 8.317232996653703e+02, 1.659012597016055e+02, 8.684263802603599e+02
365, -1.499999999998365e-04, 8.300000000003279e-03, 8.448775806672115e-04, -2.824541710937129e-05, 3.675596220365984e+01, 6.271216127805984e+02, 1.735709600266317e+02, 6.848643033765145e+02
366, -9.999999999971485e-05, 8.300000000002344e-03, 8.443438525394000e-04, -3.547638857247325e-05, 4.213228881175960e+01, 4.238174834363683e+02, 1.706459910822970e+02, 5.120193403431778e+02
367, -4.999999999963053e-05, 8.300000000001409e-03, 8.438131302547368e-04, -4.270672781940672e-05, 4.502399556930249e+01, 2.224002147449334e+02, 1.572451863866028e+02, 3.610630383964430e+02
368, 4.231098978124681e-16, 8.300000000000474e-03, 8.432853589689844e-04, -4.993695358108674e-05, 4.514500970787187e+01, 2.345905404187274e+01, 1.334900324526258e+02, 2.678593581153365e+02
369, 5.000000000030276e-05, 8.299999999999542e-03, 8.427604700983917e-04, -5.716758283677433e-05, 4.220954319735046e+01, -1.724170904679414e+02, 9.950404929014934e+01, 2.926923558602808e+02
370, 1.000000000002164e-04, 8.299999999998609e-03, 8.422383813290313e-04, -6.439913072337874e-05, 3.593197145907261e+01, -3.646395441334049e+02, 5.541302781037389e+01, 4.156199630774580e+02
371, 1.500000000001233e-04, 8.299999999997672e-03, 8.417189966213849e-04, -7.163211044415974e-05, 2.602681700407520e+01, -5.526195917473802e+02, 1.345142200006205e+00, 5.786526626492870e+02
372, 2.000000000000492e-04, 8.299999999996739e-03, 8.412022062106260e-04, -7.886703317121117e-05, 1.220812378161094e+01, -7.357688091874488e+02, -6.256876482106614e+01, 7.583725295517611e+02
373, -1.999999999999252e-04, 8.200000000004194e-03, 8.309414186373461e-04, -1.999220365726246e-05, 3.166651245484327e+01, 9.177312603445987e+02, 1.811858265561597e+02, 9.573003459898523e+02
374, -1.499999999998408e-04, 8.200000000003217e-03, 8.304046013945399e-04, -2.721698254487806e-05, 3.936055512091232e+01, 6.910468957026005e+02, 1.877687007637213e+02, 7.521458810940439e+02
375, -9.999999999972244e-05, 8.200000000002240e-03, 8.298711513944753e-04, -3.444056608950926e-05, 4.469869684693708e+01, 4.658169400634260e+02, 1.831695807259183e+02, 5.581621233861867e+02
376, -4.999999999964069e-05, 8.200000000001265e-03, 8.293410237363375e-04, -4.166350416282414e-05, 4.739162892748929e+01, 2.426338073583870e+02, 1.675093865128186e+02, 3.877590572998210e+02
377, 4.102892071228270e-16, 8.200000000000287e-03, 8.288141596698447e-04, -4.888634495871825e-05, 4.715081628926406e+01, 2.209054897546561e+01, 1.409099890006000e+02, 2.829320006617065e+02
378, 5.000000000029257e-05, 8.199999999999309e-03, 8.282904866069433e-04, -5.610963490454364e-05, 4.368764118691951e+01, -1.952204382180867e+02, 1.034952553077956e+02, 3.161046375646708e+02
379, 1.000000000002088e-04, 8.199999999998328e-03, 8.277699181317116e-04, -6.333391858523132e-05, 3.671376969505651e+01, -4.087066603022437e+02, 5.539102203511973e+01, 4.589902185748192e+02
380, 1.500000000001190e-04, 8.199999999997352e-03, 8.272523540027731e-04, -7.055973866532053e-05, 2.594075677279831e+01, -6.177754606742046e+02, -3.274795649708263e+00, 6.437495365050499e+02
381, 2.000000000000473e-04, 8.199999999996377e-03, 8.267376801467630e-04, -7.778763580892121e-05, 1.107955893175177e+01, -8.218338600382892e+02, -7.237214129187026e+01, 8.453967535075142e+02
382, -1.999999999999271e-04, 8.100000000004175e-03, 8.164826878377329e-04, -1.897638499276488e-05, 3.421883877610671e+01, 1.008469198719150e+03, 1.971217030189893e+02, 1.050995540929445e+03
383, -1.499999999998452e-04, 8.100000000003150e-03, 8.159458809517521e-04, -2.619303666407254e-05, 4.202345823957450e+01, 7.585102154863180e+02, 2.024670283031327e+02, 8.229974869400028e+02
384, -9.999999999973005e-05, 8.100000000002133e-03, 8.154127788351786e-04, -3.340845195556534e-05, 4.730742803438787e+01, 5.101592778217254e+02, 1.960417353096163e+02, 6.065981229647704e+02
385, -4.999999999965090e-05, 8.100000000001112e-03, 8.148833327259459e-04, -4.062321041750785e-05, 4.978324986002993e+01, 2.640162219796085e+02, 1.779660456472443e+02, 4.154316068337318e+02
386, 3.974685164331859e-16, 8.100000000000092e-03, 8.143574799262585e-04, -4.783788988979127e-05, 4.915961081608924e+01, 2.067628204302424e+01, 1.483624772184965e+02, 2.980889105680217e+02
387, 5.000000000028236e-05, 8.099999999999071e-03, 8.138351438248840e-04, -5.505306643433455e-05, 4.514618582296694e+01, -2.192647069867911e+02, 1.073551013608578e+02, 3.406076795805602e+02
388, 1.000000000002012e-04, 8.099999999998051e-03, 8.133162339032350e-04, -6.226931427346889e-05, 3.745273405172018e+01, -4.552106362040336e+02, 5.506960119449738e+01, 5.048245638780287e+02
389, 1.500000000001146e-04, 8.099999999997031e-03, 8.128006457342767e-04, -6.948720572788383e-05, 2.578890927336874e+01, -6.865648604825793e+02, -8.366658191193432e+00, 7.125502769367669e+02
390, 2.000000000000454e-04, 8.099999999996011e-03, 8.122882609734365e-04, -7.670731115763715e-05, 9.864011640461811e+00, -9.127299860421933e+02, -8.282458994064856e+01, 9.373469663659288e+02
391, -1.999999999999291e-04, 8.000000000004158e-03, 8.020397292669114e-04, -1.796623359675231e-05, 3.684333362935146e+01, 1.103964836220127e+03, 2.137157667057096e+02, 1.149541655202643e+03
392, -1.499999999998495e-04, 8.000000000003093e-03, 8.015029906899380e-04, -2.517393371254312e-05, 4.474051583851762e+01, 8.295279868658699e+02, 2.176703626137227e+02, 8.974480050248402e+02
393, -9.999999999973761e-05, 8.000000000002028e-03, 8.009703117116451e-04, -3.238035827554611e-05, 4.995774886523724e+01, 5.568614648185443e+02, 2.092622198189958e+02, 6.573538497807449e+02
394, -4.999999999966106e-05, 8.000000000000966e-03, 8.004416396311909e-04, -3.958611665870910e-05, 5.219776574591910e+01, 2.865597867520525e+02, 1.886125097704884e+02, 4.440993945703705e+02
395, 3.846478257435448e-16, 7.999999999999901e-03, 7.999169077785618e-04, -4.679181648400029e-05, 5.117032838640651e+01, 1.922277447235292e+01, 1.558438342240246e+02, 3.133206805553576e+02
396, 5.000000000027218e-05, 7.999999999998840e-03, 7.993960355158170e-04, -5.399806359306639e-05, 4.658457869082936e+01, -2.445500394048286e+02, 1.110799208568000e+02, 3.662162764322694e+02
397, 1.000000000001936e-04, 7.999999999997775e-03, 7.988789282368118e-04, -6.120546199926034e-05, 3.814935096916153e+01, -5.041587818350920e+02, 5.444586828040131e+01, 5.531324626134893e+02
398, 1.500000000001103e-04, 7.999999999996709e-03, 7.983654773601297e-04, -6.841461383896153e-05, 2.557311620809757e+01, -7.590029906864246e+02, -1.393175767342386e+01, 7.850707248377363e+02
399, 2.000000000000435e-04, 7.999999999995648e-03, 7.978555603188825e-04, -7.562611932053839e-05, 8.564138069437035e+00, -1.008481261512014e+03, -9.392493547167567e+01, 1.034247996770227e+03
400, -1.999999999999309e-04, 7.900000000004136e-03, 7.876141921992685e-04, -1.696215748220717e-05, 3.966458587386853e+01, 1.204351647642253e+03, 2.309440722128938e+02, 1.252931207134602e+03
401, -1.499999999998538e-04, 7.900000000003030e-03, 7.870775860340507e-04, -2.416003959236221e-05, 4.760546364468284e+01, 9.042061257468370e+02, 2.333596064242154e+02, 9.754955243135192e+02
402, -9.999999999974523e-05, 7.900000000001926e-03, 7.865454113108237e-04, -3.135660889313400e-05, 5.270277411147464e+01, 6.059910540314686e+02, 2.228164190194351e+02, 7.104340553741802e+02
403, -4.999999999967128e-05, 7.900000000000816e-03, 7.860176114824208e-04, -3.855250465889031e-05, 5.466559631889170e+01, 3.103073364083220e+02, 1.994378485014118e+02, 4.737663146905235e+02
404, 3.718271350539037e-16, 7.899999999999709e-03, 7.854941159681149e-04, -4.574836442310548e-05, 5.319994885981370e+01, 1.775477241381240e+01, 1.633460904142370e+02, 3.286094057505848e+02
405, 5.000000000026201e-05, 7.899999999998603e-03, 7.849748401603935e-04, -5.294482393827727e-05, 4.801247687358016e+01, -2.710654983201853e+02, 1.146643715531479e+02, 3.929407419299590e+02
406, 1.000000000001860e-04, 7.899999999997496e-03, 7.844596854195325e-04, -6.014251714681200e-05, 3.880974604429422e+01, -5.555513934068803e+02, 5.351705217991685e+01, 6.039217363084479e+02
407, 1.500000000001060e-04, 7.899999999996389e-03, 7.839485390655317e-04, -6.734207614135381e-05, 2.529797004743867e+01, -8.351000249686323e+02, -1.997019737633979e+01, 8.613245294084423e+02
408, 2.000000000000416e-04, 7.899999999995286e-03, 7.834412743663272e-04, -7.454413112041952e-05, 7.183289721886212e+00, -1.109107339803639e+03, -1.056702119991742e+02, 1.136120391676118e+03
409, -1.999999999999328e-04, 7.800000000004094e-03, 7.732078163986772e-04, -1.596457811665852e-05, 4.248566966940245e+01, 1.309514014231686e+03, 2.488089998361340e+02, 1.361243732592393e+03
410, -1.499999999998583e-04, 7.800000000002947e-03, 7.726714108720158e-04, -2.315173321321936e-05, 5.047430600100320e+01, 9.824669315574001e+02, 2.495300344158810e+02, 1.057199700337580e+03
411, -9.999999999975283e-05, 7.800000000001799e-03, 7.721398261297392e-04, -3.033754021352417e-05, 5.545188407317509e+01, 6.575056409032570e+02, 2.367001024452596e+02, 7.658828109466886e+02
412, -4.999999999968147e-05, 7.800000000000654e-03, 7.716130017084027e-04, -3.752266839139881e-05, 5.712814904137500e+01, 3.352341433133985e+02, 2.104385550935589e+02, 5.044605890745977e+02
413, 3.590064443642627e-16, 7.799999999999507e-03, 7.710908631037780e-04, -4.470778526486976e-05, 5.521042223843129e+01, 1.625569758216714e+01, 1.708669923022553e+02, 3.439470697748728e+02
414, 5.000000000025183e-05, 7.799999999998360e-03, 7.705733217455473e-04, -5.189355660487254e-05, 4.940513327810636e+01, -2.988253756040997e+02, 1.181077574527530e+02, 4.207876623648007e+02
415, 1.000000000001784e-04, 7.799999999997211e-03, 7.700602749818202e-04, -5.908064640052461e-05, 3.941805668611704e+01, -6.094039009361302e+02, 5.228435894643345e+01, 6.571944533047454e+02
416, 1.500000000001016e-04, 7.799999999996065e-03, 7.695516060665467e-04, -6.626971682174940e-05, 2.495443843861911e+01, -9.148738427608321e+02, -2.647848507052789e+01, 9.413190951153788e+02
417, 2.000000000000397e-04, 7.799999999994919e-03, 7.690471841474996e-04, -7.346142818384994e-05, 5.717939788590876e+00, -1.214629203759509e+03, -1.180547671655565e+02, 1.242978223046591e+03
418, -1.999999999999347e-04, 7.700000000003952e-03, 7.588224232876640e-04, -1.497392959478117e-05, 4.539893428343836e+01, 1.419553658449114e+03, 2.673106993006950e+02, 1.474490164697395e+03
419, -1.499999999998626e-04, 7.700000000002785e-03, 7.582862922672196e-04, -2.214940584254604e-05, 5.339828453988069e+01, 1.064376152291890e+03, 2.661876067210119e+02, 1.142584621361516e+03
420, -9.999999999976044e-05, 7.700000000001617e-03, 7.577553886835195e-04, -2.932350083154024e-05, 5.822880336904512e+01, 7.114460573121592e+02, 2.509167846819506e+02, 8.237291497752741e+02
421, -4.999999999969162e-05, 7.700000000000449e-03, 7.572296482416137e-04, -3.649691377853623e-05, 5.959492485687201e+01, 3.613640727198867e+02, 2.216175305451792e+02, 5.362107216214011e+02
422, 3.461857536746216e-16, 7.699999999999279e-03, 7.567089925651644e-04, -4.367034226643431e-05, 5.720368863622116e+01, 1.473675056390346e+01, 1.784093462226858e+02, 3.593369172624249e+02
423, 5.000000000024164e-05, 7.699999999998113e-03, 7.561933291616991e-04, -5.084448218112919e-05, 5.076023711938417e+01, -3.278289933078711e+02, 1.214132537146977e+02, 4.497716288360789e+02
424, 1.000000000001708e-04, 7.699999999996944e-03, 7.556825514019541e-04, -5.802002766842898e-05, 3.996884237215633e+01, -6.657253552163384e+02, 5.075164200498983e+01, 7.129566727192333e+02
425, 1.500000000000973e-04, 7.699999999995776e-03, 7.551765385056500e-04, -6.519767108860163e-05, 2.453323645762754e+01, -9.983436442308887e+02, -3.345172874286320e+01, 1.025062527688245e+03
426, 2.000000000000377e-04, 7.699999999994609e-03, 7.546751555320925e-04, -7.237810297260260e-05, 4.157196753755116e+00, -1.325073870828524e+03, -1.310721215561614e+02, 1.354833877352814e+03
427, -1.999999999999367e-04, 7.600000000003967e-03, 7.444599203233354e-04, -1.399065723322688e-05, 4.839227948203315e+01, 1.534483476729154e+03, 2.864407436673507e+02, 1.592689626093609e+03
428, -1.499999999998669e-04, 7.600000000002791e-03, 7.439241429257965e-04, -2.115346038751799e-05, 5.637745400022401e+01, 1.149957153945344e+03, 2.833247867021670e+02, 1.231668908096398e+03
429, -9.999999999976803e-05, 7.600000000001615e-03, 7.433940169582255e-04, -2.831485094806355e-05, 6.103143133930601e+01, 7.678279372958774e+02, 2.654644941525347e+02, 8.839948480930543e+02
430, -4.999999999970180e-05, 7.600000000000435e-03, 7.428694744103778e-04, -3.547555823861606e-05, 6.206501418897199e+01, 3.887078013779712e+02, 2.329755774772718e+02, 5.690395322172889e+02
431, 3.333650629849805e-16, 7.599999999999259e-03, 7.423504331053499e-04, -4.263631001384340e-05, 5.918134134278071e+01, 1.320424725078692e+01, 1.859759648807338e+02, 3.747827787324597e+02
432, 5.000000000023146e-05, 7.599999999998081e-03, 7.418367966837212e-04, -4.979783239279666e-05, 5.208328182314217e+01, -3.580736340394258e+02, 1.245852827860936e+02, 4.799111025778183e+02
433, 1.000000000001632e-04, 7.599999999996904e-03, 7.413284545879929e-04, -5.696084979766368e-05, 4.047315276051023e+01, -7.245156317042756e+02, 4.892474250384828e+01, 7.712213444097498e+02
434, 1.500000000000929e-04, 7.599999999995727e-03, 7.408252820505283e-04, -6.412608489852856e-05, 2.405302429409646e+01, -1.085510328663404e+03, -4.088291449406645e+01, 1.112572013406956e+03
435, 2.000000000000358e-04, 7.599999999994550e-03, 7.403271400858113e-04, -7.129425856019199e-05, 2.525910552022140e+00, -1.440444575688677e+03, -1.447131766414449e+02, 1.471710378483604e+03
436, -1.999999999999386e-04, 7.500000000004145e-03, 7.301223012677659e-04, -1.301521869149071e-05, 5.139403282352124e+01, 1.654265054926083e+03, 3.062006992088665e+02, 1.715876157034681e+03
437, -1.499999999998712e-04, 7.500000000002950e-03, 7.295869613983864e-04, -2.016431157873090e-05, 5.935163955827868e+01, 1.239172458163154e+03, 3.009463927844147e+02, 1.324481819178082e+03
438, -9.999999999977570e-05, 7.500000000001755e-03, 7.290577145650923e-04, -2.731196232508847e-05, 6.382677217212772e+01, 8.266324598208317e+02, 2.803475966992565e+02, 9.467056654575422e+02
439, -4.999999999971198e-05, 7.500000000000564e-03, 7.285344890437432e-04, -3.445893051001207e-05, 6.451938013319646e+01, 4.172540825153498e+02, 2.445175714284531e+02, 6.029735825172615e+02
440, 3.205443722953394e-16, 7.499999999999370e-03, 7.280171988811979e-04, -4.160597419589581e-05, 6.113245089672483e+01, 1.164932145354530e+01, 1.935727841977111e+02, 3.902951078705767e+02
441, 5.000000000022125e-05, 7.499999999998177e-03, 7.275057438839790e-04, -4.875384985371630e-05, 5.336802177419752e+01, -3.895692585021870e+02, 1.276314498465226e+02, 5.112265468638557e+02
442, 1.000000000001556e-04, 7.499999999996980e-03, 7.270000096064239e-04, -5.590331230069242e-05, 4.092746479722135e+01, -7.857880751561351e+02, 4.681341373381368e+01, 8.320003406381649e+02
443, 1.500000000000885e-04, 7.499999999995787e-03, 7.264998673365428e-04, -6.305511464201910e-05, 2.351146712613060e+01, -1.176392514309568e+03, -4.875978431039631e+01, 1.203860303743431e+03
444, 2.000000000000339e-04, 7.499999999994593e-03, 7.260051740824670e-04, -7.021000820566269e-05, 8.194530808839176e-01, -1.560767467453812e+03, -1.589646669722583e+02, 1.593622531143256e+03
445, -1.999999999999404e-04, 7.400000000004559e-03, 7.158116426014648e-04, -1.204808212463755e-05, 5.454528009542597e+01, 1.779028262234857e+03, 3.265695479316260e+02, 1.844026093696500e+03
446, -1.499999999998756e-04, 7.400000000003323e-03, 7.152768302522556e-04, -1.918238478091365e-05, 6.242889543508025e+01, 1.332119592812595e+03, 3.190395818659357e+02, 1.421006504628238e+03
447, -9.999999999978329e-05, 7.400000000002085e-03, 7.147485698835097e-04, -2.631521741379556e-05, 6.668114020301640e+01, 8.879200668281485e+02, 2.955576716598317e+02, 1.011855090273465e+03
448, -4.999999999972218e-05, 7.400000000000849e-03, 7.142267861663890e-04, -3.344737004629840e-05, 6.699832501699984e+01, 4.470394982861872e+02, 2.562389431456173e+02, 6.380163613241843e+02
449, 3.077507866600104e-16, 7.399999999999613e-03, 7.137113894594571e-04, -4.057963119666769e-05, 6.307970913836081e+01, 1.009110709299998e+01, 2.011987565901478e+02, 4.058713473015900e+02
450, 5.000000000021107e-05, 7.399999999998373e-03, 7.132022758148529e-04, -4.771278781819471e-05, 5.462483258828144e+01, -4.223104136854325e+02, 1.305539662641817e+02, 5.437320862036786e+02
451, 1.000000000001480e-04, 7.399999999997137e-03, 7.126993269694614e-04, -5.484762524916057e-05, 4.133273722559936e+01, -8.495491325859927e+02, 4.442291501710916e+01, 8.953011155323485e+02
452, 1.500000000000842e-04, 7.399999999995899e-03, 7.122024103301105e-04, -6.198492716157932e-05, 2.290151583160741e+01, -1.271007986851702e+03, -5.707449090159414e+01, 1.298934867951767e+03
453, 2.000000000000320e-04, 7.399999999994663e-03, 7.117113789513628e-04, -6.912547551020611e-05, -9.722441146257950e-01, -1.686068859262797e+03, -1.738166684274814e+02, 1.720581163234312e+03
454, -1.999999999999424e-04, 7.300000000004963e-03, 7.015301114435315e-04, -1.108972711364990e-05, 5.775004741892189e+01, 1.908729351300802e+03, 3.475293021916705e+02, 1.977177495048527e+03
455, -1.499999999998800e-04, 7.300000000003675e-03, 7.009959212198017e-04, -1.820811648329678e-05, 6.555122885140388e+01, 1.428777993065573e+03, 3.375844171586631e+02, 1.521262687869274e+03
456, -9.999999999979085e-05, 7.300000000002383e-03, 7.004687595187904e-04, -2.532500960742568e-05, 6.956140644093985e+01, 9.516826454501556e+02, 3.110799614063490e+02, 1.079453959122600e+03
457, -4.999999999973237e-05, 7.300000000001096e-03, 6.999485474079832e-04, -3.244122711571532e-05, 6.948228743473837e+01, 4.780605477969753e+02, 2.681296659348542e+02, 6.741737653290714e+02
458, 2.949029909160572e-16, 7.299999999999806e-03, 6.994351916019405e-04, -3.955758810980784e-05, 6.501195167736691e+01, 8.527162760489716e+00, 2.088481356576530e+02, 4.214981689754937e+02
459, 5.000000000020089e-05, 7.299999999998517e-03, 6.989285844563946e-04, -4.667491015042320e-05, 5.584818879618976e+01, -4.563005706479983e+02, 1.333508930489717e+02, 5.774306837258079e+02
460, 1.000000000001404e-04, 7.299999999997227e-03, 6.984286039567700e-04, -5.379400922151480e-05, 4.168819336485095e+01, -9.158042451013662e+02, 4.175468047002160e+01, 9.611272460421654e+02
461, 1.500000000000799e-04, 7.299999999995936e-03, 6.979351137005698e-04, -6.091569969163593e-05, 2.222841953193908e+01, -1.369363818273569e+03, -6.582244721922505e+01, 1.397805184763690e+03
462, 2.000000000000302e-04, 7.299999999994650e-03, 6.974479628750620e-04, -6.804079427695553e-05, -2.835730236503622e+00, -1.816357582850190e+03, -1.892611764496783e+02, 1.852603757297238e+03
463, -1.999999999999443e-04, 7.200000000005343e-03, 6.872799623128301e-04, -1.014064530170069e-05, 6.099684643525029e+01, 2.043388628015513e+03, 3.690747887993543e+02, 2.115358592434418e+03
464, -1.499999999998843e-04, 7.200000000003976e-03, 6.867464935497937e-04, -1.724195469687691e-05, 6.869544144343575e+01, 1.529153483000887e+03, 3.565753212881822e+02, 1.625275832022647e+03
465, -9.999999999979844e-05, 7.200000000002606e-03, 6.862205475342163e-04, -2.434174348112849e-05, 7.244977879255435e+01, 1.017925478994054e+03, 3.269079282077093e+02, 1.149521410749596e+03
466, -4.999999999974257e-05, 7.200000000001237e-03, 6.857020417436752e-04, -3.144086290128456e-05, 7.195851673755510e+01, 5.103208893973804e+02, 2.801845402554783e+02, 7.114598204794468e+02
467, 2.821094052807283e-16, 7.199999999999870e-03, 6.851908792846826e-04, -3.854016272557287e-05, 6.692028116263526e+01, 6.958244672978736e+00, 2.165180260326329e+02, 4.371677803867282e+02
468, 5.000000000019069e-05, 7.199999999998501e-03, 6.846869488710168e-04, -4.564049121755915e-05, 5.703216893362860e+01, -4.915429541448367e+02, 1.360221747565267e+02, 6.123257252170071e+02
469, 1.000000000001328e-04, 7.199999999997132e-03, 6.841901248035817e-04, -5.274269511128981e-05, 4.199016838113779e+01, -9.845617375383138e+02, 3.881181424893629e+01, 1.029482512356589e+03
470, 1.500000000000756e-04, 7.199999999995762e-03, 6.837002669478094e-04, -5.984761958144483e-05, 2.148915209587554e+01, -1.471475547839154e+03, -7.499704776164802e+01, 1.500480531011297e+03
471, 2.000000000000282e-04, 7.199999999994395e-03, 6.832172207089415e-04, -6.695610820921626e-05, -4.776333417321538e+00, -1.951659455968635e+03, -2.052871814169159e+02, 1.989704802298965e+03
472, -1.999999999999461e-04, 7.100000000005715e-03, 6.730635363873897e-04, -9.201338824271515e-06, 6.434168323452724e+01, 2.183074236824389e+03, 3.911867988238069e+02, 2.258569476446870e+03
473, -1.499999999998886e-04, 7.100000000004259e-03, 6.725308935707026e-04, -1.628435812877868e-05, 7.189957635462719e+01, 1.633299217501808e+03, 3.759981510426446e+02, 1.733051435394950e+03
474, -9.999999999980600e-05, 7.100000000002804e-03, 6.720062852726036e-04, -2.336583425287198e-05, 7.536568675977870e+01, 1.086683114989892e+03, 3.430314640373734e+02, 1.222065989184080e+03
475, -4.999999999975274e-05, 7.100000000001348e-03, 6.714896254884994e-04, -3.044664912146770e-05, 7.443746528574241e+01, 5.438430895796146e+02, 2.923970186322848e+02, 7.498837950902224e+02
476, 2.692616095367750e-16, 7.099999999999895e-03, 6.709808138069913e-04, -3.752768323027875e-05, 6.881152498792130e+01, 5.398370482661363e+00, 2.242056105702221e+02, 4.528728865906772e+02
477, 5.000000000018050e-05, 7.099999999998441e-03, 6.704797353892347e-04, -4.460981562495885e-05, 5.818367631996651e+01, -5.280297248854692e+02, 1.385689249383356e+02, 6.484223466129999e+02
478, 1.000000000001252e-04, 7.099999999996985e-03, 6.699862609446249e-04, -5.169392387804678e-05, 4.224859162200568e+01, -1.055818103916266e+03, 3.559963851321459e+01, 1.100372575494058e+03
479, 1.500000000000712e-04, 7.099999999995530e-03, 6.695002467064297e-04, -5.878088406285883e-05, 2.069985071607110e+01, -1.577341805505165e+03, -8.458850002456862e+01, 1.606971683746772e+03
480, 2.000000000000263e-04, 7.099999999994075e-03, 6.690215344056413e-04, -6.587157072721629e-05, -6.770519759369847e+00, -2.091974394633490e+03, -2.218803680857228e+02, 2.131900276926074e+03
481, -1.999999999999481e-04, 7.000000000006086e-03, 6.588832646629316e-04, -8.272320697071681e-06, 6.770578680148145e+01, 2.327748854746951e+03, 4.138505432747676e+02, 2.406841032898445e+03
482, -1.499999999998929e-04, 7.000000000004546e-03, 6.583515565998582e-04, -1.533579619120192e-05, 7.511117116265373e+01, 1.741196034588293e+03, 3.958406443768345e+02, 1.844613248108855e+03
483, -9.999999999981362e-05, 7.000000000003004e-03, 6.578284125274623e-04, -2.239770770971110e-05, 7.827471620815970e+01, 1.157947146751859e+03, 3.594420107765307e+02, 1.297107086450630e+03
484, -4.999999999976293e-05, 7.000000000001462e-03, 6.573137430169028e-04, -2.945896790313614e-05, 7.689444071552700e+01, 5.786217661305403e+02, 3.047622308794241e+02, 7.894620817686664e+02
485, 2.564544713742900e-16, 6.999999999999921e-03, 6.568074442122241e-04, -3.652048805225699e-05, 7.066674745387448e+01, 3.841434724471952e+00, 2.319097699433904e+02, 4.686087792627956e+02
486, 5.000000000017032e-05, 6.999999999998381e-03, 6.563093977978071e-04, -4.358317805290407e-05, 5.928634768672643e+01, -5.657706739546364e+02, 1.409939796078122e+02, 6.857211455436998e+02
487, 1.000000000001176e-04, 6.999999999996837e-03, 6.558194709715315e-04, -5.064794639079745e-05, 4.244666111021778e+01, -1.129589474421456e+03, 3.212520904029002e+01, 1.173795901856685e+03
488, 1.500000000000668e-04, 6.999999999995296e-03, 6.553375164174236e-04, -5.771570011765603e-05, 1.983980950938778e+01, -1.686987961288293e+03, -9.458514303022358e+01, 1.717278788168763e+03
489, 2.000000000000244e-04, 6.999999999993755e-03, 6.548633722776250e-04, -6.478734482608370e-05, -8.843916647261423e+00, -2.237337473817460e+03, -2.390247966939005e+02, 2.279191731313390e+03
490, -1.999999999999499e-04, 6.900000000006458e-03, 6.447416652065002e-04, -7.354114304871910e-06, 7.112300861790231e+01, 2.477463124171687e+03, 4.370516954508739e+02, 2.560181534522374e+03
491, -1.499999999998973e-04, 6.900000000004828e-03, 6.442110053942246e-04, -1.439674858121893e-05, 7.834572487561422e+01, 1.852876948118410e+03, 4.160924748197650e+02, 1.959972666306885e+03
492, -9.999999999982122e-05, 6.900000000003202e-03, 6.436894566935243e-04, -2.143779982483460e-05, 8.118283003761414e+01, 1.231739001873541e+03, 3.761325023805801e+02, 1.374657099766357e+03
493, -4.999999999977310e-05, 6.900000000001573e-03, 6.431769263669410e-04, -2.847821144377300e-05, 7.933195632277850e+01, 6.146712542572877e+02, 3.172765540659127e+02, 8.302082937147601e+02
494, 2.436337806846489e-16, 6.899999999999946e-03, 6.426733072100049e-04, -3.551892556771394e-05, 7.248759783613411e+01, 2.296260207914571e+00, 2.396303752155180e+02, 4.843735033853096e+02
495, 5.000000000016015e-05, 6.899999999998319e-03, 6.421784775260432e-04, -4.256088300784918e-05, 6.034301256287779e+01, -6.047612964980576e+02, 1.433007639556726e+02, 7.242266066173914e+02
496, 1.000000000001100e-04, 6.899999999996692e-03, 6.416923010976409e-04, -4.960502323399375e-05, 4.259016875032330e+01, -1.205874567565364e+03, 2.839550155871157e+01, 1.249755742478858e+03
497, 1.500000000000625e-04, 6.899999999995065e-03, 6.412146271577594e-04, -5.665228435049659e-05, 1.891973483516705e+01, -1.800414554681865e+03, -1.049766087033813e+02, 1.831408641049806e+03
498, 2.000000000000225e-04, 6.899999999993437e-03, 6.407452903605273e-04, -6.370360307495122e-05, -1.097808199150150e+01, -2.387749479243435e+03, -2.567057045414598e+02, 2.431590744712485e+03
499, -1.999999999999519e-04, 6.800000000006828e-03, 6.306413449160760e-04, -6.447252913700866e-06, 7.456029059654648e+01, 2.632208102813400e+03, 4.607738945800126e+02, 2.718604910435385e+03
500, -1.499999999999017e-04, 6.800000000005111e-03, 6.301118511757521e-04, -1.346770484717757e-05, 8.158028038871140e+01, 1.968338355253509e+03, 4.367417255295198e+02, 2.079141498874362e+03
501, -9.999999999982880e-05, 6.800000000003401e-03, 6.295920334002318e-04, -2.048655631436284e-05, 8.407663191628981e+01, 1.308060162683380e+03, 3.930953991601177e+02, 1.454727347289684e+03
502, -4.999999999978328e-05, 6.800000000001686e-03, 6.290817956246737e-04, -2.750478157971808e-05, 8.174217245705637e+01, 6.519942816211060e+02, 3.299365873029220e+02, 8.721353533543070e+02
503, 2.308130899950078e-16, 6.799999999999972e-03, 6.285810273927600e-04, -3.452335367524971e-05, 7.427047694416615e+01, 7.648569026509620e-01, 2.473684015673853e+02, 5.001675524798668e+02
504, 5.000000000014997e-05, 6.799999999998255e-03, 6.280896037290475e-04, -4.154324438851503e-05, 6.135398450959482e+01, -6.450013973671307e+02, 1.454948020287923e+02, 7.639455970000773e+02
505, 1.000000000001024e-04, 6.799999999996542e-03, 6.276073851076456e-04, -4.856542423943891e-05, 4.268369099871325e+01, -1.284675462797712e+03, 2.442075686331552e+01, 1.328257436128355e+03
506, 1.500000000000582e-04, 6.799999999994830e-03, 6.271342174204354e-04, -5.559086245664603e-05, 1.794924801799715e+01, -1.917625980880936e+03, -1.157476711937263e+02, 1.949369528918066e+03
507, 2.000000000000206e-04, 6.799999999993115e-03, 6.266699319473901e-04, -6.262052695011540e-05, -1.316117722425020e+01, -2.543219552809609e+03, -2.749031467524436e+02, 2.589108407202604e+03
508, -1.999999999999538e-04, 6.700000000007203e-03, 6.165849985066299e-04, -5.552279143804753e-06, 7.804464030166872e+01, 2.792024094159625e+03, 4.849938448964029e+02, 2.882110441033223e+03
509, -1.499999999999060e-04, 6.700000000005407e-03, 6.160567931849242e-04, -1.254916378791624e-05, 8.483742489569917e+01, 2.087614211818777e+03, 4.577718954840333e+02, 2.202120635073861e+03
510, -9.999999999983645e-05, 6.700000000003612e-03, 6.155388463251239e-04, -1.954443214371964e-05, 8.696854144191047e+01, 1.386934205310346e+03, 4.103194875183378e+02, 1.537322039972805e+03
511, -4.999999999979346e-05, 6.700000000001816e-03, 6.150310588594136e-04, -2.653908935500542e-05, 8.413072845638720e+01, 6.906055932458021e+02, 3.427368382877865e+02, 9.152518357803890e+02
512, 2.179923993053667e-16, 6.700000000000018e-03, 6.145333172075772e-04, -3.353413941355979e-05, 7.601683391375016e+01, -7.455479755467138e-01, 2.551239312241371e+02, 5.159896747090500e+02
513, 5.000000000013978e-05, 6.699999999998221e-03, 6.140454932399190e-04, -4.053058514389540e-05, 6.231796729129917e+01, -6.864907246580922e+02, 1.475816677818116e+02, 8.048825080718319e+02
514, 1.000000000000948e-04, 6.699999999996424e-03, 6.135674442418003e-04, -4.752942818367237e-05, 4.272361675358255e+01, -1.365999010535255e+03, 2.021199672520114e+01, 1.409302501197683e+03
515, 1.500000000000538e-04, 6.699999999994629e-03, 6.130990128793615e-04, -5.453166895880860e-05, 1.692159358747259e+01, -2.038637171532492e+03, -1.268819681615349e+02, 2.071163434458926e+03
516, 2.000000000000187e-04, 6.699999999992831e-03, 6.126400271649966e-04, -6.153830665519557e-05, -1.540207079518279e+01, -2.703769721371168e+03, -2.935958767084219e+02, 2.751747586524642e+03
517, -1.999999999999557e-04, 6.600000000007607e-03, 6.025754108234617e-04, -4.669744733223110e-06, 8.155949355512783e+01, 2.956926131747856e+03, 5.096873166302507e+02, 3.050714333884235e+03
518, -1.499999999999103e-04, 6.600000000005753e-03, 6.020486202071013e-04, -1.164163334414257e-05, 8.810138427341957e+01, 2.210717850484773e+03, 4.791622962633235e+02, 2.328923933337656e+03
519, -9.999999999984406e-05, 6.600000000003900e-03, 6.015326882282734e-04, -1.861189134432307e-05, 8.984487658843372e+01, 1.468370333342943e+03, 4.277915282240529e+02, 1.622453327957791e+03
520, -4.999999999980367e-05, 6.600000000002050e-03, 6.010275128578655e-04, -2.558155479917824e-05, 8.648710227539945e+01, 7.305112540871255e+02, 3.556706849495394e+02, 9.595695142337064e+02
521, 2.051717086157256e-16, 6.600000000000198e-03, 6.005329775237160e-04, -3.255165871513246e-05, 7.771925747474430e+01, -2.232003338937574e+00, 2.628964672089612e+02, 5.318368302303884e+02
522, 5.000000000012958e-05, 6.599999999998345e-03, 6.000489510679357e-04, -3.952323702243776e-05, 6.323064892633778e+01, -7.292294320876929e+02, 1.495665798808412e+02, 8.470381498313828e+02
523, 1.000000000000872e-04, 6.599999999996491e-03, 5.995752877098671e-04, -4.649732255005485e-05, 4.270893566373721e+01, -1.449848372703077e+03, 1.577983693468254e+01, 1.492890930970488e+03
524, 1.500000000000495e-04, 6.599999999994639e-03, 5.991118270103018e-04, -5.347494700002824e-05, 1.584021800788940e+01, -2.163453471228497e+03, -1.383637947379603e+02, 2.196792922130507e+03
525, 2.000000000000168e-04, 6.599999999992787e-03, 5.986583938356113e-04, -6.045714092370554e-05, -1.769113304794092e+01, -2.869406847947026e+03, -3.127631280495741e+02, 2.919514619876361e+03
526, -1.999999999999576e-04, 6.500000000008018e-03, 5.886154565488266e-04, -3.800210922714374e-06, 8.504090995122513e+01, 3.126888149549274e+03, 5.348395202846913e+02, 3.224445359884969e+03
527, -1.499999999999147e-04, 6.500000000006126e-03, 5.880902103720864e-04, -1.074563066641248e-05, 9.131789839753631e+01, 2.337626083146954e+03, 5.009039222364093e+02, 2.459577081150233e+03
528, -9.999999999985163e-05, 6.500000000004228e-03, 5.875764408515730e-04, -1.768940692390898e-05, 9.266938542210536e+01, 1.552355530414967e+03, 4.455059212970544e+02, 1.710142024957890e+03
529, -4.999999999981387e-05, 6.500000000002332e-03, 5.870740431015649e-04, -2.463260671342740e-05, 8.878735643446481e+01, 7.717034386317978e+02, 3.687365739645763e+02, 1.005107466513053e+03
530, 1.923510179260846e-16, 6.500000000000438e-03, 5.865828976609387e-04, -3.157629611456864e-05, 7.936225798753935e+01, -3.700493990978345e+00, 2.706889265541712e+02, 5.477128815378024e+02
531, 5.000000000011942e-05, 6.499999999998543e-03, 5.861028704527364e-04, -3.852154022614595e-05, 6.408240331460667e+01, -7.732240990110928e+02, 1.514572457261695e+02, 8.904152783778621e+02
532, 1.000000000000796e-04, 6.499999999996646e-03, 5.856338127450969e-04, -4.546940313816343e-05, 4.263423610642897e+01, -1.536232481361094e+03, 1.113694055904809e+01, 1.579023824173256e+03
533, 1.500000000000451e-04, 6.499999999994751e-03, 5.851755611120716e-04, -5.242094790558388e-05, 1.470239525990169e+01, -2.292087991009340e+03, -1.501753752341658e+02, 2.326261477025118e+03
534, 2.000000000000149e-04, 6.499999999992855e-03, 5.847279373952462e-04, -5.937723651978422e-05, -2.002989405689971e+01, -3.040149908253974e+03, -3.323819084381171e+02, 3.092415856960638e+03
535, -1.999999999999595e-04, 6.400000000008258e-03, 5.747080972516684e-04, -2.944246929353917e-06, 8.854795060290391e+01, 3.301970260307155e+03, 5.604277382298430e+02, 3.403292514553321e+03
536, -1.499999999999190e-04, 6.400000000006336e-03, 5.741845293813492e-04, -9.861680983021064e-06, 9.453171116058792e+01, 2.468385278762715e+03, 5.229820387004670e+02, 2.594074326543196e+03
537, -9.999999999985919e-05, 6.400000000004416e-03, 5.736730738974739e-04, -1.677745995941278e-05, 9.546954373443893e+01, 1.638920605343869e+03, 4.634535242556933e+02, 1.800388251506704e+03
538, -4.999999999982406e-05, 6.400000000002495e-03, 5.731736232137157e-04, -2.369268193176766e-05, 9.104874286816673e+01, 8.142023483016915e+02, 3.819307370364892e+02, 1.051872372783148e+03
539, 1.795438797635995e-16, 6.400000000000575e-03, 5.726860551268337e-04, -3.060844411705162e-05, 8.095759638727441e+01, -5.138643578475182e+00, 2.785031092351741e+02, 5.636208743037088e+02
540, 5.000000000010922e-05, 6.399999999998654e-03, 5.722102327852776e-04, -3.752584284643291e-05, 6.488303455028841e+01, -8.184682574001854e+02, 1.532611907180920e+02, 9.350216443012860e+02
541, 1.000000000000720e-04, 6.399999999996736e-03, 5.717460046494865e-04, -4.444597353952260e-05, 4.251010483256567e+01, -1.625149441669356e+03, 6.296684749594476e+00, 1.667707095384060e+03
542, 1.500000000000408e-04, 6.399999999994814e-03, 5.712932044508443e-04, -5.136993067835840e-05, 1.352191599575019e+01, -2.424542219611835e+03, -1.622974932506735e+02, 2.459576921870461e+03
543, 2.000000000000129e-04, 6.399999999992895e-03, 5.708516511497627e-04, -5.829880778163530e-05, -2.240029108659760e+01, -3.216003697456263e+03, -3.524269711835144e+02, 3.270462015869664e+03
544, -1.999999999999615e-04, 6.300000000008254e-03, 5.608563849825779e-04, -2.102429477697021e-06, 9.206709695508866e+01, 3.482180263722320e+03, 5.864197172201337e+02, 3.587257953154012e+03
545, -1.499999999999234e-04, 6.300000000006307e-03, 5.603346328601183e-04, -8.990316991116789e-06, 9.774034977284356e+01, 2.603008948408716e+03, 5.453706956238925e+02, 2.732414231754055e+03
546, -9.999999999986685e-05, 6.300000000004357e-03, 5.598256465752211e-04, -1.587653902367956e-05, 9.824515536649892e+01, 1.728077759447777e+03, 4.816169286764975e+02, 1.893191427531164e+03
547, -4.999999999983422e-05, 6.300000000002410e-03, 5.593293159802303e-04, -2.276222478301923e-05, 9.327081446750032e+01, 8.580163739148720e+02, 3.952438922617740e+02, 1.099866677454782e+03
548, 1.667096365468024e-16, 6.300000000000461e-03, 5.588455162865531e-04, -2.964850269153124e-05, 8.250452231580556e+01, -6.542449914003242e+00, 2.863373910994990e+02, 5.795565282437651e+02
549, 5.000000000009904e-05, 6.299999999998514e-03, 5.583741080237773e-04, -3.653650038067319e-05, 6.563155666364057e+01, -8.649628285977279e+02, 1.549841392490909e+02, 9.808599510404688e+02
550, 1.000000000000644e-04, 6.299999999996569e-03, 5.579149369983340e-04, -4.342734467031319e-05, 4.233523805718266e+01, -1.716605754971504e+03, 1.271959575311428e+00, 1.758942832635953e+03
551, 1.500000000000364e-04, 6.299999999994618e-03, 5.574678342505425e-04, -5.032216154591346e-05, 1.229688357779540e+01, -2.560829081902872e+03, -1.747101159339692e+02, 2.596742523368357e+03
552, 2.000000000000111e-04, 6.299999999992672e-03, 5.570326160105472e-04, -5.722207613320952e-05, -2.480472741384219e+01, -3.396987855204377e+03, -3.728718357483006e+02, 3.453657868251050e+03
553, -1.999999999999633e-04, 6.200000000008235e-03, 5.470634627979534e-04, -1.275343016819706e-06, 9.558072737561508e+01, 3.667533724138669e+03, 6.127857903666043e+02, 3.776357227618364e+03
554, -1.499999999999277e-04, 6.200000000006244e-03, 5.465436669311206e-04, -8.132078905792795e-06, 1.009229250190070e+02, 2.741505281412333e+03, 5.680460951305303e+02, 2.874609651007925e+03
555, -9.999999999987445e-05, 6.200000000004252e-03, 5.460373081253863e-04, -1.498714006907419e-05, 1.009797840989559e+02, 1.819832918433302e+03, 4.999795271206565e+02, 1.988560838287375e+03
556, -4.999999999984441e-05, 6.200000000002263e-03, 5.455442738219783e-04, -2.184168686334155e-05, 9.544180873307607e+01, 9.031494902155112e+02, 4.086669136184946e+02, 1.149098030575110e+03
557, 1.538618408028491e-16, 6.200000000000271e-03, 5.450644367969566e-04, -2.869687897537721e-05, 8.399505704790536e+01, -7.910494506339148e+00, 2.941899934231116e+02, 5.955146004319723e+02
558, 5.000000000008886e-05, 6.199999999998280e-03, 5.445976551139873e-04, -3.555387540264443e-05, 6.632313901559013e+01, -9.127095439792885e+02, 1.566314855293386e+02, 1.027929318294142e+03
559, 1.000000000000568e-04, 6.199999999996288e-03, 5.441437720801272e-04, -4.241383443546180e-05, 4.210754581464337e+01, -1.810606878442831e+03, -3.924845124985211e+00, 1.852731053199229e+03
560, 1.500000000000321e-04, 6.199999999994299e-03, 5.437026162006114e-04, -4.927791363726070e-05, 1.102762057132469e+01, -2.700958382754716e+03, -1.873941022117400e+02, 2.737760815047825e+03
561, 2.000000000000091e-04, 6.199999999992307e-03, 5.432740011315154e-04, -5.614726982509909e-05, -2.723907568954374e+01, -3.583116209859615e+03, -3.936902070397740e+02, 3.642009076016922e+03
562, -1.999999999999653e-04, 6.100000000008216e-03, 5.333325641963992e-04, -4.635793419438204e-07, 9.905542891386534e+01, 3.858027854006871e+03, 6.395013442029531e+02, 3.970607204138824e+03
563, -1.499999999999321e-04, 6.100000000006179e-03, 5.328148678647251e-04, -7.287514167672289e-06, 1.040510935079710e+02, 2.883872142887982e+03, 5.909903532020758e+02, 3.020675993364373e+03
564, -9.999999999988203e-05, 6.100000000004146e-03, 5.323112976646328e-04, -1.410976608496331e-05, 1.036531600310994e+02, 1.914186224555780e+03, 5.185291729253768e+02, 2.086509043938183e+03
565, -4.999999999985460e-05, 6.100000000002112e-03, 5.318217387718551e-04, -2.093152664465505e-05, 9.754847669538486e+01, 9.496029157370124e+02, 4.221937158775224e+02, 1.199577801560376e+03
566, 1.410275975860520e-16, 6.100000000000079e-03, 5.313460616712367e-04, -2.775398684287200e-05, 8.542185842356901e+01, -9.241806247445538e+00, 3.020614025559188e+02, 6.114945405031362e+02
567, 5.000000000007866e-05, 6.099999999998046e-03, 5.308841221127753e-04, -3.457833709684322e-05, 6.695587968554258e+01, -9.617085579690947e+02, 1.582106377001905e+02, 1.076230899399072e+03
568, 1.000000000000492e-04, 6.099999999996011e-03, 5.304357610646840e-04, -4.140576722782592e-05, 4.183083002461694e+01, -1.907154463816579e+03, -9.279174824919366e+00, 1.949073648672871e+03
569, 1.500000000000277e-04, 6.099999999993980e-03, 5.300008046646001e-04, -4.823746644493827e-05, 9.724740786351845e+00, -2.844933059780494e+03, -2.003275473863410e+02, 2.882636928803981e+03
570, 2.000000000000072e-04, 6.099999999991945e-03, 5.295790641700019e-04, -5.507462332737104e-05, -2.968664183040721e+01, -3.774394322951181e+03, -4.148527491020346e+02, 3.835524322800597e+03
571, -1.999999999999672e-04, 6.000000000008407e-03, 5.196670119049478e-04, 3.322635260525572e-07, 1.025144538460609e+02, 4.053697380381497e+03, 6.665354783118116e+02, 4.170002960950814e+03
572, -1.499999999999365e-04, 6.000000000006308e-03, 5.191515613569716e-04, -6.457176444845887e-06, 1.071429860275825e+02, 3.030137874017812e+03, 6.141812360810420e+02, 3.170610899847720e+03
573, -9.999999999988962e-05, 6.000000000004209e-03, 5.186509437819605e-04, -1.324492627411379e-05, 1.062756870291134e+02, 2.011158197417747e+03, 5.372508034956828e+02, 2.187037055427166e+03
574, -4.999999999986476e-05, 6.000000000002106e-03, 5.181650422590441e-04, -2.003220876687408e-05, 9.959591166708816e+01, 9.973902116765296e+02, 4.358165804003984e+02, 1.251310901469747e+03
575, 1.282204594235670e-16, 6.000000000000007e-03, 5.176937251560159e-04, -2.682024627133582e-05, 8.678703363835814e+01, -1.052900330664147e+01, 3.099514917087786e+02, 6.274951154365019e+02
576, 5.000000000006848e-05, 5.999999999997906e-03, 5.172368460859106e-04, -3.361026066912631e-05, 6.753040780652486e+01, -1.011958407964272e+03, 1.597292917433385e+02, 1.125766356726630e+03
577, 1.000000000000416e-04, 5.999999999995806e-03, 5.167942438563586e-04, -4.040347336483947e-05, 4.150497615463695e+01, -2.006253196455674e+03, -1.477531267095642e+01, 2.047971379914870e+03
578, 1.500000000000234e-04, 5.999999999993707e-03, 5.163657424169589e-04, -4.720110527285853e-05, 8.387154934957152e+00, -2.992764852746433e+03, -2.134865432666367e+02, 3.031372525743709e+03
579, 2.000000000000053e-04, 5.999999999991606e-03, 5.159511508055221e-04, -5.400437680175170e-05, -3.214936652825247e+01, -3.970841259278873e+03, -4.363274640622975e+02, 4.034206297352629e+03
580, -1.999999999999690e-04, 5.900000000008779e-03, 5.060702198846194e-04, 1.111582011195350e-06, 1.059569245760668e+02, 4.254563135607025e+03, 6.938493470347299e+02, 4.374544680275506e+03
581, -1.499999999999408e-04, 5.900000000006594e-03, 5.055571639188305e-04, -5.641624966060567e-06, 1.102005699379348e+02, 3.180323609319247e+03, 6.375877547281699e+02, 3.324413941863615e+03
582, -9.999999999989724e-05, 5.900000000004408e-03, 5.050596654987894e-04, -1.239313542481758e-05, 1.088476207205044e+02, 2.110765633144563e+03, 5.561232482269951e+02, 2.290145846303695e+03
583, -4.999999999987495e-05, 5.900000000002220e-03, 5.045776057913074e-04, -1.914420345513251e-05, 1.015831882612984e+02, 1.046523425057149e+03, 4.495239197798278e+02, 1.304300221932314e+03
584, 1.153862162067698e-16, 5.900000000000033e-03, 5.041108512443990e-04, -2.589608279221490e-05, 8.808968604565285e+01, -1.176460989126281e+01, 3.178579002066512e+02, 6.435102635639798e+02
585, 5.000000000005830e-05, 5.899999999997847e-03, 5.036592535309446e-04, -3.265002682703626e-05, 6.804699467771678e+01, -1.063455928702761e+03, 1.611940023497704e+02, 1.176534271150959e+03
586, 1.000000000000340e-04, 5.899999999995659e-03, 5.032226494927321e-04, -3.940728860021852e-05, 4.113239524736389e+01, -2.107903984943589e+03, -2.039802284189309e+01, 2.149423569408242e+03
587, 1.500000000000191e-04, 5.899999999993472e-03, 5.028008610846355e-04, -4.616912079097051e-05, 7.020558321479371e+00, -3.144458260541232e+03, -2.268473673892348e+02, 3.183968853193450e+03
588, 2.000000000000034e-04, 5.899999999991286e-03, 5.023936953185201e-04, -5.293677570480965e-05, -3.461640899483498e+01, -4.172464216681961e+03, -4.580820984931184e+02, 4.238058672956357e+03
589, -1.999999999999710e-04, 5.800000000009150e-03, 4.925456943161306e-04, 1.873766957947725e-06, 1.093469006837912e+02, 4.460627044665640e+03, 7.214067133220456e+02, 4.584250154116284e+03
590, -1.499999999999452e-04, 5.800000000006880e-03, 4.920351835971415e-04, -4.841424400634193e-06, 1.131911079004865e+02, 3.334430673825140e+03, 6.611816880005697e+02, 3.482101267807641e+03
591, -9.999999999990477e-05, 5.800000000004606e-03, 4.915409727811345e-04, -1.155491365481053e-05, 1.113440368103878e+02, 2.213010964494501e+03, 5.751274351804165e+02, 2.395848522279736e+03
592, -4.999999999988512e-05, 5.800000000002332e-03, 4.910629413198282e-04, -1.826798615476073e-05, 1.034922663078368e+02, 1.097004740886651e+03, 4.633059679426190e+02, 1.358556850804819e+03
593, 1.025655255171287e-16, 5.800000000000059e-03, 4.906009539377038e-04, -2.498192704970977e-05, 8.931752812076564e+01, -1.294786066977770e+01, 3.257800026425082e+02, 6.595366936202198e+02
594, 5.000000000004811e-05, 5.799999999997786e-03, 4.901548605633463e-04, -3.169802128359851e-05, 6.849826193734594e+01, -1.116202716442623e+03, 1.626131260126351e+02, 1.228531042823445e+03
595, 1.000000000000264e-04, 5.799999999995513e-03, 4.897244962685438e-04, -3.841755358591803e-05, 4.071008449536879e+01, -2.212111517471986e+03, -2.613008674865617e+01, 2.253427677123171e+03
596, 1.500000000000147e-04, 5.799999999993240e-03, 4.893096812096259e-04, -4.514180845972445e-05, 5.625934356807363e+00, -3.300021735033695e+03, -2.403839754260249e+02, 3.340425771771218e+03
597, 2.000000000000015e-04, 5.799999999990969e-03, 4.889102205700447e-04, -5.187207016829618e-05, -3.708381915574662e+01, -4.379276599635574e+03, -4.800817284740206e+02, 4.447083539457015e+03
598, -1.999999999999729e-04, 5.700000000009518e-03, 4.790970323574110e-04, 2.618204186407814e-06, 1.126577906795970e+02, 4.671894557793525e+03, 7.491763160750828e+02, 4.799135391804944e+03
599, -1.499999999999495e-04, 5.700000000007160e-03, 4.785892191400390e-04, -4.057144386996243e-06, 1.160886008416319e+02, 3.492462100900140e+03, 6.849411486404416e+02, 3.643689822185870e+03
600, -9.999999999991239e-05, 5.700000000004800e-03, 4.780984660085587e-04, -1.073078590500522e-05, 1.137439123840850e+02, 2.317896751310448e+03, 5.942495869517948e+02, 2.504160542720187e+03
601, -4.999999999989533e-05, 5.700000000002444e-03, 4.776246509137838e-04, -1.740403698824359e-05, 1.053077191318130e+02, 1.148836156901897e+03, 4.771570509163824e+02, 1.414095826099401e+03
602, 8.974483482748763e-17, 5.700000000000083e-03, 4.771676370544727e-04, -2.407821422912232e-05, 9.046026551047902e+01, -1.407813470402198e+01, 3.337204717042648e+02, 6.755780414263588e+02
603, 5.000000000003792e-05, 5.699999999997726e-03, 4.767272728117552e-04, -3.075463416619968e-05, 6.887865063658296e+01, -1.170200269264752e+03, 1.639978931818105e+02, 1.281755751153920e+03
604, 1.000000000000188e-04, 5.699999999995369e-03, 4.763033916862223e-04, -3.743461326803355e-05, 4.023701840792194e+01, -2.318880013612391e+03, -3.195156444669838e+01, 2.359982368716067e+03
605, 1.500000000000104e-04, 5.699999999993010e-03, 4.758958122365140e-04, -4.411946791849452e-05, 4.206670395923936e+00, -3.459462727377584e+03, -2.540676431439958e+02, 3.500743801857496e+03
606, 1.999999999999996e-04, 5.699999999990651e-03, 4.755043380189977e-04, -5.081051440121976e-05, -3.954382284703735e+01, -4.591289353281190e+03, -5.022888438555406e+02, 4.661283482526484e+03
607, -1.999999999999748e-04, 5.600000000009672e-03, 4.657279212605629e-04, 3.344275625690862e-06, 1.158887501960825e+02, 4.888381377780059e+03, 7.771240571682467e+02, 5.019200442427255e+03
608, -1.499999999999538e-04, 5.600000000007281e-03, 4.652229593812577e-04, -3.289358467624131e-06, 1.188935007368912e+02, 3.654432126860820e+03, 7.088426158716406e+02, 3.809181643492114e+03
609, -9.999999999991998e-05, 5.600000000004890e-03, 4.647358355759247e-04, -9.921280987046848e-06, 1.160467407652646e+02, 2.425434372616307e+03, 6.134750626259049e+02, 2.615086584417808e+03
610, -4.999999999990553e-05, 5.600000000002499e-03, 4.642664265130924e-04, -1.655283989050636e-05, 1.070284830461995e+02, 1.202025694381925e+03, 4.910712460705246e+02, 1.470925819918206e+03
611, 7.692414413784654e-17, 5.600000000000110e-03, 4.638145940798528e-04, -2.318538325666748e-05, 9.151724528961967e+01, -1.515093260046217e+01, 3.416822726554008e+02, 6.916395028931103e+02
612, 5.000000000002774e-05, 5.599999999997718e-03, 4.633801853228301e-04, -2.982025926183799e-05, 6.918874445657519e+01, -1.225447837540297e+03, 1.653603572767692e+02, 1.336211087545433e+03
613, 1.000000000000112e-04, 5.599999999995330e-03, 4.629630323848200e-04, -3.645881616290889e-05, 3.971567066199640e+01, -2.428212756383276e+03, -3.784117061867401e+01, 2.469088604686619e+03
614, 1.500000000000060e-04, 5.599999999992939e-03, 4.625629524404503e-04, -4.310240228178211e-05, 2.767660071041007e+00, -3.622788847730144e+03, -2.678677969050706e+02, 3.664924640116714e+03
615, 1.999999999999977e-04, 5.599999999990549e-03, 4.621797476318345e-04, -4.975236598872045e-05, -4.198871109126662e+01, -4.808514718795549e+03, -5.246637113397912e+02, 4.880661658229209e+03
616, -1.999999999999767e-04, 5.500000000009695e-03, 4.524421391535280e-04, 4.051360367578905e-06, 1.190589836978447e+02, 5.110119602621238e+03, 8.052060759561991e+02, 5.244436423563078e+03
617, -1.499999999999582e-04, 5.500000000007305e-03, 4.519401838588576e-04, -2.538643038379363e-06, 1.216221856499595e+02, 3.820367591061891e+03, 7.328531610479857e+02, 3.978569164497203e+03
618, -9.999999999992762e-05, 5.500000000004914e-03, 4.514568623647918e-04, -9.126930613164001e-06, 1.182632346074621e+02, 2.535643692750897e+03, 6.327821848454422e+02, 2.728622629321403e+03
619, -4.999999999991570e-05, 5.500000000002524e-03, 4.509920502890117e-04, -1.571488171983588e-05, 1.086612288505734e+02, 1.256587030320366e+03, 5.050378516325392e+02, 1.529047602923634e+03
620, 6.410345344820545e-17, 5.500000000000133e-03, 4.505456084450079e-04, -2.230387597480059e-05, 9.249301512370528e+01, -1.615803658800070e+01, 3.496653994165135e+02, 7.077207198001903e+02
621, 5.000000000001756e-05, 5.499999999997745e-03, 4.501173827816063e-04, -2.889529324124419e-05, 6.943259852539694e+01, -1.281942203523883e+03, 1.667110048519870e+02, 1.391899454762724e+03
622, 1.000000000000036e-04, 5.499999999995354e-03, 4.497072043180677e-04, -3.549051361763282e-05, 3.915090327165706e+01, -2.540111309857638e+03, -4.377807868142575e+01, 2.580747884774640e+03
623, 1.500000000000017e-04, 5.499999999992964e-03, 4.493148890772825e-04, -4.209091742439208e-05, 1.315667421591570e+00, -3.790006374910132e+03, -2.817534164913110e+02, 3.832970490297113e+03
624, 1.999999999999958e-04, 5.499999999990576e-03, 4.489402380177743e-04, -4.869788518917139e-05, -4.440862198017271e+01, -5.030963608548004e+03, -5.471652837066256e+02, 5.105221838944857e+03
625, -1.999999999999786e-04, 5.400000000009719e-03, 4.392435569276160e-04, 4.738834995210253e-06, 1.221453898387717e+02, 5.337115914005498e+03, 8.333757206163413e+02, 5.474849581018551e+03
626, -1.499999999999625e-04, 5.400000000007331e-03, 4.387447641755899e-04, -1.805576895839498e-06, 1.242566993725960e+02, 3.990275481698094e+03, 7.569362921410443e+02, 4.151856383201912e+03
627, -9.999999999993521e-05, 5.400000000004939e-03, 4.382654187162317e-04, -8.348268842682991e-06, 1.203807103770984e+02, 2.648531495541153e+03, 6.521461766737236e+02, 2.844771508491719e+03
628, -4.999999999992589e-05, 5.400000000002551e-03, 4.378053953447120e-04, -1.489065164063128e-05, 1.101973066075664e+02, 1.312525522432145e+03, 5.190438464380422e+02, 1.588464414668678e+03
629, 5.128276275856436e-17, 5.400000000000158e-03, 4.373645540398401e-04, -2.143413648690369e-05, 9.338223849096374e+01, -1.709645148680499e+01, 3.576683617600779e+02, 7.238177733074505e+02
630, 5.000000000000737e-05, 5.399999999997771e-03, 4.369427398947492e-04, -2.798013498132100e-05, 6.960791835963056e+01, -1.339683437840655e+03, 1.680596304122864e+02, 1.448819617536323e+03
631, 9.999999999999598e-05, 5.399999999995381e-03, 4.365397830478977e-04, -3.453005911938503e-05, 3.854348727113552e+01, -2.654579368060692e+03, -4.974141535795619e+01, 2.694959656009325e+03
632, 1.499999999999973e-04, 5.399999999992991e-03, 4.361554986131815e-04, -4.108532128208528e-05, -1.452104368514711e-01, -3.961123078298688e+03, -2.956926978296011e+02, 4.004882314861485e+03
633, 1.999999999999938e-04, 5.399999999990601e-03, 4.357896866091347e-04, -4.764733422427855e-05, -4.679571366158211e+01, -5.258648343287121e+03, -5.697508978843548e+02, 5.334966932933583e+03
634, -1.999999999999805e-04, 5.300000000009745e-03, 4.261361379122294e-04, 5.406074022301006e-06, 1.251259381621434e+02, 5.569380411849336e+03, 8.615887722158077e+02, 5.710450737367095e+03
635, -1.499999999999669e-04, 5.300000000007331e-03, 4.256406638995974e-04, -1.090740786069521e-06, 1.267754083538924e+02, 4.164162734541293e+03, 7.810585581579489e+02, 4.329053742649280e+03
636, -9.999999999994280e-05, 5.300000000004915e-03, 4.251654684623798e-04, -7.585831561174875e-06, 1.223819289587011e+02, 2.764103627788015e+03, 6.715443439257645e+02, 2.963541927744634e+03
637, -4.999999999993605e-05, 5.300000000002501e-03, 4.247104258149008e-04, -1.408064053541629e-05, 1.116240763683260e+02, 1.369845542259317e+03, 5.330776227718360e+02, 1.649184120960774e+03
638, 3.846207206892327e-17, 5.300000000000087e-03, 4.242753953437241e-04, -2.057661051779602e-05, 9.417651575963936e+01, -1.796399068046787e+01, 3.656907875383167e+02, 7.399287138273666e+02
639, 4.999999999999720e-05, 5.299999999997673e-03, 4.238602215322522e-04, -2.707518488859059e-05, 6.971026379961893e+01, -1.398672217775041e+03, 1.694171323211006e+02, 1.506969067728657e+03
640, 9.999999999998842e-05, 5.299999999995259e-03, 4.234647338867056e-04, -3.357780759318062e-05, 3.789281667051984e+01, -2.771621085086816e+03, -5.570903402797566e+01, 2.811722310267685e+03
641, 1.499999999999930e-04, 5.299999999992844e-03, 4.230887468623173e-04, -4.008592313341894e-05, -1.611806910465305e+00, -4.136147211330447e+03, -3.096522694775027e+02, 4.180660369172863e+03
642, 1.999999999999920e-04, 5.299999999990430e-03, 4.227320597895904e-04, -4.660097655715405e-05, -4.914298643256450e+01, -5.491581822808593e+03, -5.923759143638416e+02, 5.569899225602529e+03
643, -1.999999999999824e-04, 5.200000000009989e-03, 4.131239373683257e-04, 6.052450868949799e-06, 1.279908547111070e+02, 5.806929262817525e+03, 8.897996876201238e+02, 5.951244859642538e+03
644, -1.499999999999712e-04, 5.200000000007502e-03, 4.126319382470432e-04, -3.947165339606542e-07, 1.291691615625458e+02, 4.342043594460616e+03, 8.051864257776533e+02, 4.510167592051608e+03
645, -9.999999999995044e-05, 5.200000000005017e-03, 4.121610667587016e-04, -6.840155664330419e-06, 1.242581333689129e+02, 2.882371188341268e+03, 6.909544735758155e+02, 3.084940836098266e+03
646, -4.999999999994625e-05, 5.200000000002529e-03, 4.117111967993292e-04, -1.328534021308803e-05, 1.129343186778123e+02, 1.428555004891957e+03, 5.471283080230032e+02, 1.711214577940193e+03
647, 2.564138137928218e-17, 5.200000000000042e-03, 4.112821874225880e-04, -1.973174462931217e-05, 9.487101789675228e+01, -1.875603381941045e+01, 3.737332817818024e+02, 7.560538145709550e+02
648, 4.999999999998700e-05, 5.199999999997556e-03, 4.108738827618357e-04, -2.618084411373634e-05, 6.973784375598666e+01, -1.458907395698444e+03, 1.707956911812814e+02, 1.566346366743659e+03
649, 9.999999999998081e-05, 5.199999999995069e-03, 4.104861119519665e-04, -3.263411461162072e-05, 3.720067963535917e+01, -2.891239016099637e+03, -6.165712638564619e+01, 2.931034878075152e+03
650, 1.499999999999887e-04, 5.199999999992581e-03, 4.101186890518400e-04, -3.909303280399214e-05, -3.078261939363358e+00, -4.315085274065756e+03, -3.235966860690674e+02, 4.360305463332439e+03
651, 1.999999999999900e-04, 5.199999999990096e-03, 4.097714129671469e-04, -4.555907609731068e-05, -5.144034892789568e+01, -5.729774952667702e+03, -6.149932289582846e+02, 5.810021562669715e+03
652, -1.999999999999843e-04, 5.100000000010360e-03, 4.002111027871611e-04, 6.677338848011041e-06, 1.307333398426308e+02, 6.049779978281607e+03, 9.179590797901889e+02, 6.197233947229421e+03
653, -1.499999999999755e-04, 5.100000000007788e-03, 3.997227342930701e-04, 2.819139323955950e-07, 1.314323741937305e+02, 4.523934052457071e+03, 8.292830998612314e+02, 4.695201042810421e+03
654, -9.999999999995803e-05, 5.100000000005215e-03, 3.992563602402714e-04, -6.111778130302872e-06, 1.260036879602022e+02, 3.003346862451244e+03, 7.103523634994808e+02, 3.208972680642106e+03
655, -4.999999999995644e-05, 5.100000000002642e-03, 3.988118544847718e-04, -1.250524251787472e-05, 1.141229943479236e+02, 1.488662904290404e+03, 5.611841286381831e+02, 1.774562049905910e+03
656, 1.282069068964109e-17, 5.100000000000066e-03, 3.983890760248270e-04, -1.889998535305343e-05, 9.546223755292095e+01, -1.946733575510632e+01, 3.817964145568740e+02, 7.721935090990489e+02
657, 4.999999999997683e-05, 5.099999999997495e-03, 3.979878689191567e-04, -2.529751369862275e-05, 6.968943404771284e+01, -1.520387625261968e+03, 1.722082003869866e+02, 1.626950433069496e+03
658, 9.999999999997324e-05, 5.099999999994921e-03, 3.976080622062514e-04, -3.169933554946928e-05, 3.646874617617561e+01, -3.013435942010159e+03, -6.756047277865392e+01, 3.052896375075525e+03
659, 1.499999999999843e-04, 5.099999999992348e-03, 3.972494698237359e-04, -3.810695982396801e-05, -4.539500457278393e+00, -4.497944459680487e+03, -3.374884020909007e+02, 4.543817977621375e+03
660, 1.999999999999881e-04, 5.099999999989774e-03, 3.969118905276652e-04, -4.452189635362982e-05, -5.367884612097367e+01, -5.973239567325814e+03, -6.375531075605513e+02, 6.055336075881472e+03
661, -1.999999999999862e-04, 5.000000000010596e-03, 3.874018744400470e-04, 7.280111964446676e-06, 1.333405909196867e+02, 6.297947822633293e+03, 9.460148726138059e+02, 6.448422976055600e+03
662, -1.499999999999799e-04, 5.000000000007969e-03, 3.869172913834925e-04, 9.385694191602439e-07, 1.335527910559736e+02, 4.709846306405607e+03, 8.533095993934165e+02, 4.884159234535552e+03
663, -9.999999999996564e-05, 5.000000000005344e-03, 3.864555873279002e-04, -5.401235158270614e-06, 1.276082615422685e+02, 3.127040228039303e+03, 7.297122952463560e+02, 3.335642705233743e+03
664, -4.999999999996662e-05, 5.000000000002718e-03, 3.860166363782253e-04, -1.174083846059569e-05, 1.151821467303315e+02, 1.550176165274096e+03, 5.752324670313769e+02, 1.839232828590334e+03
665, 0.000000000000000e+00, 5.000000000000093e-03, 3.856002977624878e-04, -1.808177832337066e-05, 9.594471576477895e+01, -2.009405841116825e+01, 3.898805442791428e+02, 7.883478625212725e+02
666, 4.999999999996663e-05, 4.999999999997467e-03, 3.852064157497695e-04, -2.442559371516450e-05, 6.956226463740796e+01, -1.583112624678218e+03, 1.736679326039468e+02, 1.688779586871577e+03
667, 9.999999999996559e-05, 4.999999999994841e-03, 3.848348195675430e-04, -3.077382473084735e-05, 3.569715264213266e+01, -3.138215626183714e+03, -7.339292225159845e+01, 3.177305212242054e+03
668, 1.499999999999799e-04, 4.999999999992216e-03, 3.844853233180845e-04, -3.712801258424053e-05, -5.992234431804832e+00, -4.684733059840866e+03, -3.512884340927732e+02, 4.731197519345274e+03
669, 1.999999999999863e-04, 4.999999999989590e-03, 3.841577258941330e-04, -4.348969959997850e-05, -5.585155332016524e+01, -6.221988854402778e+03, -6.600037659615821e+02, 6.305844043435919e+03
670, -1.999999999999881e-04, 4.900000000010410e-03, 3.747005855084301e-04, 7.860145707624642e-06, 1.357891680515951e+02, 6.551437823742770e+03, 9.739153831126525e+02, 6.704818593155660e+03
671, -1.499999999999843e-04, 4.900000000007836e-03, 3.742199412726787e-04, 1.574670301429455e-06, 1.355111660578112e+02, 4.899785116268653e+03, 8.772273403598306e+02, 5.077048108828272e+03
672, -9.999999999997321e-05, 4.900000000005265e-03, 3.737630783764728e-04, -4.709061293474895e-06, 1.290580103555359e+02, 3.253456740174623e+03, 7.490085735880006e+02, 3.464956391663313e+03
673, -4.999999999997681e-05, 4.900000000002690e-03, 3.733298714557697e-04, -1.099261732518816e-05, 1.161021483050131e+02, 1.613099533504941e+03, 5.892606526320966e+02, 1.905233224111169e+03
674, -1.282069068964109e-17, 4.900000000000120e-03, 3.729201802560092e-04, -1.727756737710978e-05, 9.631246601138594e+01, -2.063330058215047e+01, 3.979861933889354e+02, 8.045174658371378e+02
675, 4.999999999995644e-05, 4.899999999997547e-03, 3.725338495493154e-04, -2.356548236426509e-05, 6.935387835145104e+01, -1.647082168480167e+03, 1.751886961110499e+02, 1.751832474822667e+03
676, 9.999999999995801e-05, 4.899999999994974e-03, 3.721707090481619e-04, -2.985793452976649e-05, 3.488715503424032e+01, -3.265581138157330e+03, -7.912734369320343e+01, 3.304260204711888e+03
677, 1.499999999999756e-04, 4.899999999992402e-03, 3.718305733177220e-04, -3.615649743987471e-05, -7.431106110223993e+00, -4.875457915541072e+03, -3.649563133934557e+02, 4.922444256675789e+03
678, 1.999999999999843e-04, 4.899999999989829e-03, 3.715132416877413e-04, -4.246274597715661e-05, -5.794843488479040e+01, -6.476033780038485e+03, -6.822913816940810e+02, 6.561547501604535e+03
679, -1.999999999999901e-04, 4.800000000010084e-03, 3.621116617169970e-04, 8.416818230548646e-06, 1.380835799812324e+02, 6.810273846697593e+03, 1.001604229564483e+03, 6.966417091015323e+03
680, -1.499999999999886e-04, 4.800000000007600e-03, 3.616351079951989e-04, 2.189639651838334e-06, 1.373108564049918e+02, 5.093771275136460e+03, 9.009940261769708e+02, 5.273865832885595e+03
681, -9.999999999998080e-05, 4.800000000005114e-03, 3.611832556740953e-04, -4.035788365733843e-06, 1.303534175693260e+02, 3.382612443239821e+03, 7.682126780692739e+02, 3.596914183719242e+03
682, -4.999999999998701e-05, 4.800000000002629e-03, 3.607559802243134e-04, -1.026106565036499e-05, 1.168820942005369e+02, 1.677444431216679e+03, 6.032542039268868e+02, 1.972566182903664e+03
683, -2.564138137928218e-17, 4.800000000000143e-03, 3.603531422205782e-04, -1.648779356217410e-05, 9.656473671603680e+01, -2.107801710353328e+01, 4.061130099593213e+02, 8.207014834634645e+02
684, 4.999999999994627e-05, 4.799999999997659e-03, 3.599745872519725e-04, -2.271757500010541e-05, 6.906487944740979e+01, -1.712293545973682e+03, 1.767842906060574e+02, 1.816108086386672e+03
685, 9.999999999995042e-05, 4.799999999995174e-03, 3.596201458306448e-04, -2.895201440231704e-05, 3.404166057990972e+01, -3.395534218244700e+03, -8.473579568369814e+01, 3.433760522939273e+03
686, 1.499999999999713e-04, 4.799999999992687e-03, 3.592896332999470e-04, -3.519271774347774e-05, -8.850209405221392e+00, -5.070125517095898e+03, -3.784499906983531e+02, 5.117558531377799e+03
687, 1.999999999999824e-04, 4.799999999990203e-03, 3.589828497420569e-04, -4.144129252969786e-05, -5.996037747907849e+01, -6.735386265414174e+03, -7.043597867132122e+02, 6.822448359780292e+03
688, -1.999999999999919e-04, 4.700000000009747e-03, 3.496396224967820e-04, 8.949511403030373e-06, 1.402221935087240e+02, 7.074480413962612e+03, 1.029018360907067e+03, 7.233218662273925e+03
689, -1.499999999999929e-04, 4.700000000007334e-03, 3.491673086937063e-04, 2.782904234584436e-06, 1.389483123143511e+02, 5.291825563553964e+03, 9.245613446910423e+02, 5.474614021712429e+03
690, -9.999999999998839e-05, 4.700000000004922e-03, 3.487206340294691e-04, -3.381944516531552e-06, 1.314890498767638e+02, 3.514522695661420e+03, 7.872922223728547e+02, 3.731518835828941e+03
691, -4.999999999999717e-05, 4.700000000002511e-03, 3.482994751439190e-04, -9.546666264264157e-06, 1.175166876076083e+02, 1.743221644854832e+03, 6.171963995195090e+02, 2.041235456858807e+03
692, -3.846207206892327e-17, 4.700000000000096e-03, 3.479036937742236e-04, -1.571289417260344e-05, 9.669767247898142e+01, -2.142161270759402e+01, 4.142596513307010e+02, 8.368968875647246e+02
693, 4.999999999993608e-05, 4.699999999997685e-03, 3.475331366575552e-04, -2.188226316337055e-05, 6.869381502233830e+01, -1.778744236861210e+03, 1.784685376922385e+02, 1.881603420312395e+03
694, 9.999999999994281e-05, 4.699999999995272e-03, 3.471876354356552e-04, -2.805640991793490e-05, 3.316238565549713e+01, -3.528076482125499e+03, -9.018943416333802e+01, 3.565804090178382e+03
695, 1.499999999999669e-04, 4.699999999992859e-03, 3.468670065596668e-04, -3.423697287585701e-05, -1.024384728694133e+01, -5.268741654779094e+03, -3.917256838834103e+02, 5.316539780445123e+03
696, 1.999999999999805e-04, 4.699999999990447e-03, 3.465710511948865e-04, -4.042559223228554e-05, -6.187684363725822e+01, -7.000056286720752e+03, -7.261504384220372e+02, 7.088547934613155e+03
697, -1.999999999999939e-04, 4.600000000009572e-03, 3.372890817439140e-04, 9.457611341111831e-06, 1.421580096844607e+02, 7.344049529399153e+03, 1.056098012317339e+03, 7.505239070690615e+03
698, -1.499999999999973e-04, 4.600000000007185e-03, 3.368211541161305e-04, 3.353895166007590e-06, 1.403841171836866e+02, 5.493942436415929e+03, 9.478843883457788e+02, 5.679306817922357e+03
699, -9.999999999999598e-05, 4.600000000004799e-03, 3.363798211133048e-04, -2.748053421184684e-06, 1.324363804408248e+02, 3.649185988522493e+03, 8.062173020257767e+02, 3.868781870083329e+03
700, -5.000000000000737e-05, 4.600000000002412e-03, 3.359649608710210e-04, -8.849897423229529e-06, 1.179857994202094e+02, 1.810431188202481e+03, 6.310723929016465e+02, 2.111251016421500e+03
701, -5.126921023140829e-17, 4.600000000000025e-03, 3.355764366150604e-04, -1.495330183249250e-05, 9.669768380559435e+01, -2.166451251237191e+01, 4.224263890684283e+02, 8.531036433181947e+02
702, 4.999999999992590e-05, 4.599999999997638e-03, 3.352140965597489e-04, -2.105993363041014e-05, 6.823240352543405e+01, -1.846436628134853e+03, 1.802568694404027e+02, 1.948314054951296e+03
703, 9.999999999993524e-05, 4.599999999995251e-03, 3.348777738085115e-04, -2.717146178782468e-05, 3.224554919805814e+01, -3.663213524997815e+03, -9.545765019466819e+01, 3.700387333912407e+03
704, 1.499999999999625e-04, 4.599999999992864e-03, 3.345672862546799e-04, -3.328955726461559e-05, -1.161204392741740e+01, -5.471316392438727e+03, -4.047375977794978e+02, 5.519385986265011e+03
705, 1.999999999999786e-04, 4.599999999990477e-03, 3.342824364822187e-04, -3.941589300687650e-05, -6.369406336948515e+01, -7.270059006758111e+03, -7.476022799711615e+02, 7.359845947665812e+03
706, -1.999999999999958e-04, 4.500000000009600e-03, 3.250647461962835e-04, 9.940509664372159e-06, 1.438867709245642e+02, 7.619000180371213e+03, 1.082783702245316e+03, 7.782480495798327e+03
707, -1.500000000000016e-04, 4.500000000007212e-03, 3.246013476165269e-04, 3.902049109058966e-06, 1.416125167669501e+02, 5.700137152428317e+03, 9.709198362572137e+02, 5.887948491538055e+03
708, -1.000000000000036e-04, 4.500000000004825e-03, 3.241655168675843e-04, -2.134633136784694e-06, 1.331889835545469e+02, 3.786614173074494e+03, 8.249592601960696e+02, 4.008708861884565e+03
709, -5.000000000001756e-05, 4.500000000002437e-03, 3.237571339277699e-04, -8.171231687877657e-06, 1.182839481612170e+02, 1.879081899713800e+03, 6.448684289763542e+02, 2.182620120166012e+03
710, -6.409667718462742e-17, 4.500000000000053e-03, 3.233760638551944e-04, -1.420944339072373e-05, 9.656139137378295e+01, -2.180085721035289e+01, 4.306146690194166e+02, 8.693247923467383e+02
711, 4.999999999991571e-05, 4.499999999997665e-03, 3.230221566870819e-04, -2.025096731989495e-05, 6.768039714888175e+01, -1.915367883652249e+03, 1.821661720731024e+02, 2.016238711308606e+03
712, 9.999999999992765e-05, 4.499999999995279e-03, 3.226952473372763e-04, -2.629750477873917e-05, 3.129509016381587e+01, -3.800945544823679e+03, -1.005079470658519e+02, 3.837509045480274e+03
713, 1.499999999999582e-04, 4.499999999992891e-03, 3.223951554932263e-04, -3.235075929977184e-05, -1.294536096299379e+01, -5.677852738954765e+03, -4.174375505073259e+02, 5.726097452499375e+03
714, 1.999999999999767e-04, 4.499999999990504e-03, 3.221216855125926e-04, -3.841243664483976e-05, -6.539674488127275e+01, -7.545400907169271e+03, -7.686512690261520e+02, 7.636344764437225e+03
715, -1.999999999999977e-04, 4.400000000009622e-03, 3.129714159944422e-04, 1.039760504469402e-05, 1.454161228890231e+02, 7.899357856985952e+03, 1.109007982562355e+03, 8.064936902252750e+03
716, -1.500000000000059e-04, 4.400000000007235e-03, 3.125126855403594e-04, 4.426809724248032e-06, 1.426399818827215e+02, 5.910432439201715e+03, 9.936169924677506e+02, 6.100535119281628e+03
717, -1.000000000000112e-04, 4.400000000004850e-03, 3.120825137763395e-04, -1.542194751804139e-06, 1.337492570818156e+02, 3.926824348088182e+03, 8.434844714923850e+02, 4.151298936550836e+03
718, -5.000000000002772e-05, 4.400000000002464e-03, 3.116807828905664e-04, -7.511134650141579e-06, 1.184111514237906e+02, 1.949185761074430e+03, 6.585676990976430e+02, 2.255345057529003e+03
719, -7.691736787426851e-17, 4.400000000000076e-03, 3.113073601421057e-04, -1.348173870187778e-05, 9.628806410642710e+01, -2.182344334333334e+01, 4.388244040539930e+02, 8.855607029252277e+02
720, 4.999999999990552e-05, 4.399999999997690e-03, 3.109620977589570e-04, -1.945573810971525e-05, 6.703750814523835e+01, -1.985535581747076e+03, 1.842130541269317e+02, 2.085376245811094e+03
721, 9.999999999991999e-05, 4.399999999995304e-03, 3.106448328329354e-04, -2.543486655208547e-05, 3.031193296712502e+01, -3.941275208316268e+03, -1.053070105681180e+02, 3.977167671434883e+03
722, 1.499999999999539e-04, 4.399999999992917e-03, 3.103553872131340e-04, -3.142086018619713e-05, -1.424133135849263e+01, -5.888359098553011e+03, -4.297754486357561e+02, 5.936673082448667e+03
723, 1.999999999999748e-04, 4.399999999990530e-03, 3.100935673988242e-04, -3.741545764846088e-05, -6.698031129190827e+01, -7.826096367216385e+03, -7.892308492175550e+02, 7.918044158927864e+03
724, -1.999999999999997e-04, 4.300000000009517e-03, 3.010139860497214e-04, 1.082830411796134e-05, 1.467244790420755e+02, 8.185129175696584e+03, 1.134699918536724e+03, 8.352611908122288e+03
725, -1.500000000000103e-04, 4.300000000007164e-03, 3.005600581970142e-04, 4.927628702143209e-06, 1.434486182650525e+02, 6.124834917637481e+03, 1.015921735860726e+03, 6.317069728592307e+03
726, -1.000000000000188e-04, 4.300000000004808e-03, 3.001356975553067e-04, -9.712412983827837e-07, 1.341041346420486e+02, 4.069823638221939e+03, 8.617564761478129e+02, 4.296555004604261e+03
727, -5.000000000003792e-05, 4.300000000002456e-03, 2.997407888887896e-04, -6.870063817990046e-06, 1.183579889438772e+02, 2.020748872086502e+03, 6.721514400468542e+02, 2.329429394871717e+03
728, -8.973805856390960e-17, 4.300000000000101e-03, 2.993752020325178e-04, -1.277059949992558e-05, 9.587151036419959e+01, -2.172823176197812e+01, 4.470544028247062e+02, 9.018094342420478e+02
729, 4.999999999989533e-05, 4.299999999997747e-03, 2.990387917837602e-04, -1.867461170992643e-05, 6.630077196321565e+01, -2.056938510538272e+03, 1.864137679743222e+02, 2.155723874321331e+03
730, 9.999999999991241e-05, 4.299999999995395e-03, 2.987313977923369e-04, -2.458386654501393e-05, 2.929655857766102e+01, -4.084204747731793e+03, -1.098212612692922e+02, 4.119361095451174e+03
731, 1.499999999999495e-04, 4.299999999993039e-03, 2.984528444500622e-04, -3.050013283923263e-05, -1.549570179727050e+01, -6.102841673119499e+03, -4.417005452011207e+02, 6.151111969481359e+03
732, 1.999999999999729e-04, 4.299999999990687e-03, 2.982029407792103e-04, -3.642518216828504e-05, -6.843573768544439e+01, -8.112155740508921e+03, -8.092728707347342e+02, 8.204944960269473e+03
733, -2.000000000000014e-04, 4.200000000009198e-03, 2.891974458010306e-04, 1.123202252884282e-05, 1.477953916525545e+02, 8.476325174464335e+03, 1.159788355379523e+03, 8.645510075193863e+03
734, -1.500000000000147e-04, 4.200000000006931e-03, 2.887484498030071e-04, 5.403966809794579e-06, 1.440228838749294e+02, 6.343354141959711e+03, 1.037780393611754e+03, 6.537557696030445e+03
735, -1.000000000000264e-04, 4.200000000004664e-03, 2.883300471896284e-04, -4.222666628364804e-07, 1.342407307190471e+02, 4.215620484750478e+03, 8.797390590118623e+02, 4.444482415807489e+03
736, -5.000000000004811e-05, 4.200000000002396e-03, 2.879421256840299e-04, -6.248467489552807e-06, 1.181147630689060e+02, 2.093778135584454e+03, 6.856011979179997e+02, 2.404878743688732e+03
737, -1.025587492535507e-16, 4.200000000000129e-03, 2.875845580845562e-04, -1.207642824347600e-05, 9.530551252528994e+01, -2.151040507095502e+01, 4.553041181222131e+02, 9.180704322218625e+02
738, 4.999999999988515e-05, 4.199999999997860e-03, 2.872572021488062e-04, -1.790794448457133e-05, 6.546787239812670e+01, -2.129574383043652e+03, 1.887857311343774e+02, 2.227278768429021e+03
739, 9.999999999990481e-05, 4.199999999995591e-03, 2.869599004786258e-04, -2.374481477009043e-05, 2.825116566740485e+01, -4.229734725540919e+03, -1.140152948653135e+02, 4.264087452149878e+03
740, 1.499999999999452e-04, 4.199999999993324e-03, 2.866924804051963e-04, -2.958884066253949e-05, -1.670081030443919e+01, -6.321303972425532e+03, -4.531593960668428e+02, 6.369414006390380e+03
741, 1.999999999999710e-04, 4.199999999991056e-03, 2.864547538742910e-04, -3.544182673544528e-05, -6.974989874305902e+01, -8.403586354293149e+03, -8.287059673257281e+02, 8.497049157735926e+03
742, -2.000000000000034e-04, 4.100000000008875e-03, 2.775268791286293e-04, 1.160818631968180e-05, 1.486234227898514e+02, 8.772964685485029e+03, 1.184198550830698e+03, 8.943632765637505e+03
743, -1.500000000000190e-04, 4.100000000006694e-03, 2.770829384496082e-04, 5.855295194879536e-06, 1.443559831498623e+02, 6.566006395979820e+03, 1.059136956149812e+03, 6.762002543043615e+03
744, -1.000000000000340e-04, 4.100000000004513e-03, 2.766706349392231e-04, 1.042456747149087e-07, 1.341510109452281e+02, 4.364227283263288e+03, 8.973948384131602e+02, 4.595085989801560e+03
745, -5.000000000005830e-05, 4.100000000002334e-03, 2.762898596909205e-04, -5.646783509395637e-06, 1.176739063863125e+02, 2.168282425222040e+03, 6.988981778043374e+02, 2.481699004568150e+03
746, -1.153726636796137e-16, 4.100000000000152e-03, 2.759404888738470e-04, -1.139961687799578e-05, 9.458402263392429e+01, -2.116461665155271e+01, 4.635733642088504e+02, 9.343440498617656e+02
747, 4.999999999987496e-05, 4.099999999997971e-03, 2.756223836129272e-04, -1.715608221502566e-05, 6.453490854626341e+01, -2.203441682886100e+03, 1.913474062764485e+02, 2.300037638570304e+03
748, 9.999999999989721e-05, 4.099999999995790e-03, 2.753353898697198e-04, -2.291801057838155e-05, 2.717434825929820e+01, -4.377867977368146e+03, -1.178519519917424e+02, 4.411343811235110e+03
749, 1.499999999999408e-04, 4.099999999993610e-03, 2.750793383235600e-04, -2.868723630886545e-05, -1.785562894213626e+01, -6.543754033449626e+03, -4.640961033642753e+02, 6.591577258789053e+03
750, 1.999999999999691e-04, 4.099999999991429e-03, 2.748540442526458e-04, -3.446559703729435e-05, -7.091873863408136e+01, -8.700401658243281e+03, -8.474554722749696e+02, 8.794356063395549e+03
751, -2.000000000000054e-04, 4.000000000008551e-03, 2.660074648741626e-04, 1.195623316439491e-05, 1.491883734868942e+02, 9.075055151591483e+03, 1.207853683714484e+03, 9.246985445296310e+03
752, -1.500000000000234e-04, 4.000000000006458e-03, 2.655686964421395e-04, 6.281096650400813e-06, 1.444304252233296e+02, 6.792799096037607e+03, 1.079933870499819e+03, 6.990410191231676e+03
753, -1.000000000000416e-04, 4.000000000004365e-03, 2.651626265741739e-04, 6.078239155500390e-07, 1.338211019440931e+02, 4.515651350049906e+03, 9.146855707535512e+02, 4.748371836387083e+03
754, -5.000000000006849e-05, 4.000000000002271e-03, 2.647891501523103e-04, -5.065437991438501e-06, 1.170248027247874e+02, 2.244267919030099e+03, 7.120233140521564e+02, 2.559896887549105e+03
755, -1.282069068964109e-16, 4.000000000000177e-03, 2.644481471342230e-04, -1.074054555981797e-05, 9.369970174900482e+01, -2.068659174690094e+01, 4.718622392914262e+02, 9.506314299539061e+02
756, 4.999999999986478e-05, 3.999999999998083e-03, 2.641394824308830e-04, -1.641935882808883e-05, 6.349804811642480e+01, -2.278538650002859e+03, 1.941180745588145e+02, 2.373997304720283e+03
757, 9.999999999988963e-05, 3.999999999995989e-03, 2.638630057840775e-04, -2.210374139499358e-05, 2.606616232206352e+01, -4.528605752141611e+03, -1.212927548990831e+02, 4.561127489773578e+03
758, 1.499999999999365e-04, 3.999999999993896e-03, 2.636185516436561e-04, -2.779556042975108e-05, -1.895558478538396e+01, -6.770196397162250e+03, -4.744530067202982e+02, 6.817600393763685e+03
759, 1.999999999999672e-04, 3.999999999991804e-03, 2.634059390445696e-04, -3.349668668104295e-05, -7.193271233114422e+01, -9.002610002613461e+03, -8.654444773825192e+02, 9.096866132734496e+03
760, -2.000000000000072e-04, 3.900000000008219e-03, 2.546444766145220e-04, 1.227561369389563e-05, 1.494765496400844e+02, 9.382606469184848e+03, 1.230675579874490e+03, 9.555571026515910e+03
761, -1.500000000000277e-04, 3.900000000006203e-03, 2.542109902035553e-04, 6.680866975561386e-06, 1.442344009995518e+02, 7.023741674766083e+03, 1.100112792314922e+03, 7.222784293682482e+03
762, -1.000000000000492e-04, 3.900000000004186e-03, 2.538112813493083e-04, 1.088009309703555e-06, 1.332411325030962e+02, 4.669901352892744e+03, 9.315723231064845e+02, 4.904344393288251e+03
763, -5.000000000007867e-05, 3.900000000002170e-03, 2.534452491492685e-04, -4.504843954174862e-06, 1.161595606629121e+02, 2.321741744614979e+03, 7.249572568771983e+02, 2.639478142997669e+03
764, -1.410275975860520e-16, 3.900000000000153e-03, 2.531127777796198e-04, -1.009958129612114e-05, 9.264690863390058e+01, -2.007142610088670e+01, 4.801711144895935e+02, 9.669346512283531e+02
765, 4.999999999985460e-05, 3.899999999998138e-03, 2.528137363704449e-04, -1.569809503895474e-05, 6.235431882589842e+01, -2.354863193521266e+03, 1.971179394063590e+02, 2.449155452424580e+03
766, 9.999999999988204e-05, 3.899999999996121e-03, 2.525479788793174e-04, -2.130228136170593e-05, 2.492678974154285e+01, -4.681949312091298e+03, -1.242975851538736e+02, 4.713436346945342e+03
767, 1.499999999999321e-04, 3.899999999994104e-03, 2.523153439643063e-04, -2.691404031157440e-05, -1.999683360226629e+01, -7.000636205374052e+03, -4.841700044546194e+02, 7.047482416550235e+03
768, 1.999999999999652e-04, 3.899999999992088e-03, 2.521156548569193e-04, -3.253527581436298e-05, -7.278397897474531e+01, -9.310221028790553e+03, -8.825929580260665e+02, 9.404579978262644e+03
769, -2.000000000000091e-04, 3.800000000007874e-03, 2.434432827894044e-04, 1.256579307693462e-05, 1.494902012561878e+02, 9.695639523792914e+03, 1.252580896685559e+03, 9.869387138983597e+03
770, -1.500000000000321e-04, 3.800000000005924e-03, 2.430151804240122e-04, 7.054116495901325e-06, 1.437678245725123e+02, 7.258851982257636e+03, 1.119610869138500e+03, 7.459124383204378e+03
771, -1.000000000000568e-04, 3.800000000003971e-03, 2.426219521510416e-04, 1.544357634551452e-06, 1.324085536893878e+02, 4.826991244655385e+03, 9.480130159200392e+02, 5.063005170423272e+03
772, -5.000000000008884e-05, 3.800000000002021e-03, 2.422635017318098e-04, -3.965399873936823e-06, 1.150747158672326e+02, 2.400714321825884e+03, 7.376787121031056e+02, 2.720446275427472e+03
773, -1.538415120121150e-16, 3.800000000000070e-03, 2.419397180127053e-04, -9.477076521139703e-06, 9.142255096827250e+01, -1.931214495591507e+01, 4.884994967843074e+02, 9.832543955231060e+02
774, 4.999999999984441e-05, 3.799999999998119e-03, 2.416504747960942e-04, -1.499259694406263e-05, 6.110202703093603e+01, -2.432411921555899e+03, 2.003673145415786e+02, 2.525509860353653e+03
775, 9.999999999987444e-05, 3.799999999996168e-03, 2.413956307096779e-04, -2.051388994187394e-05, 2.375674862925598e+01, -4.837899166855334e+03, -1.268253237142665e+02, 4.868268366833037e+03
776, 1.499999999999278e-04, 3.799999999994218e-03, 2.411750290750391e-04, -2.604288849027452e-05, -2.097606104958118e+01, -7.235078369811342e+03, -4.931851889472450e+02, 7.281222331701559e+03
777, 1.999999999999633e-04, 3.799999999992265e-03, 2.409884977758798e-04, -3.158152975317239e-05, -7.346546500096724e+01, -9.623244206173691e+03, -8.988182052937902e+02, 9.717498169283321e+03
778, -2.000000000000110e-04, 3.700000000007529e-03, 2.324093475967447e-04, 1.282625235697077e-05, 1.492123356403126e+02, 1.001416135394707e+04, 1.273482585484549e+03, 1.018843710860116e+04
779, -1.500000000000364e-04, 3.700000000005644e-03, 2.319867226932607e-04, 7.400371436699322e-06, 1.430161303549353e+02, 7.498137746292909e+03, 1.138362172981293e+03, 7.699434247575387e+03
780, -1.000000000000644e-04, 3.700000000003758e-03, 2.316000859475781e-04, 1.976440586342550e-06, 1.313114897657815e+02, 4.986928725268045e+03, 9.639633221960721e+02, 5.224358322690337e+03
781, -5.000000000009902e-05, 3.700000000001873e-03, 2.312493462434254e-04, -3.447488279987714e-06, 1.137608686666550e+02, 2.481192331121632e+03, 7.501650214212157e+02, 2.802806087990620e+03
782, -1.666825314924902e-16, 3.699999999999988e-03, 2.309343975609093e-04, -8.873367683504089e-06, 9.001982006573553e+01, -1.840381931409797e+01, 4.968463902873502e+02, 9.995904299975306e+02
783, 4.999999999983423e-05, 3.699999999998102e-03, 2.306551188413207e-04, -1.430315460415733e-05, 5.973726809437892e+01, -2.511182282744293e+03, 2.038868638290874e+02, 2.603057192966141e+03
784, 9.999999999986681e-05, 3.699999999996217e-03, 2.304113738518872e-04, -1.973881050071145e-05, 2.255552287992487e+01, -4.996455689355658e+03, -1.288336512000447e+02, 5.025620955391745e+03
785, 1.499999999999234e-04, 3.699999999994331e-03, 2.302030110496666e-04, -2.518230132840739e-05, -2.188977495095367e+01, -7.473526688102651e+03, -5.014346199399824e+02, 7.518819016158214e+03
786, 1.999999999999614e-04, 3.699999999992445e-03, 2.300298634443038e-04, -3.063559755367885e-05, -7.396959976163612e+01, -9.941687801985565e+03, -9.140346720735474e+02, 1.003562155750763e+04
787, -2.000000000000130e-04, 3.600000000007325e-03, 2.215482308997235e-04, 1.305648984852566e-05, 1.486308374472203e+02, 1.033818286628439e+04, 1.293292034763396e+03, 1.051272503669289e+04
788, -1.500000000000407e-04, 3.600000000005489e-03, 2.211311675048012e-04, 7.719175320303165e-06, 1.419664124799099e+02, 7.741608168507431e+03, 1.156299943289186e+03, 7.943719094691060e+03
789, -1.000000000000720e-04, 3.600000000003653e-03, 2.207512238424352e-04, 2.383847199643049e-06, 1.299382655853552e+02, 5.149721930723514e+03, 9.793783362983531e+02, 5.388409389349515e+03
790, -5.000000000010923e-05, 3.600000000001818e-03, 2.204083143935193e-04, -2.951474318360017e-06, 1.122082094986796e+02, 2.563182569328380e+03, 7.623932841935504e+02, 2.886563595640380e+03
791, -1.794761171278192e-16, 3.599999999999982e-03, 2.201023387479883e-04, -8.288773798711622e-06, 8.843112313592383e+01, -1.734150620734556e+01, 5.052110435837156e+02, 1.015943228410907e+03
792, 4.999999999982404e-05, 3.599999999998146e-03, 2.198331814657575e-04, -1.363004058979594e-05, 5.825505748941123e+01, -2.591171716744773e+03, 2.076981147320815e+02, 2.681793478156363e+03
793, 9.999999999985923e-05, 3.599999999996311e-03, 2.196007119371715e-04, -1.897726884630665e-05, 2.132123104576738e+01, -5.157619209756539e+03, -1.302786332271096e+02, 5.185490736514691e+03
794, 1.499999999999191e-04, 3.599999999994474e-03, 2.194047842424703e-04, -2.433245755075596e-05, -2.273602095694173e+01, -7.715984778325826e+03, -5.088518260197435e+02, 7.760270431249957e+03
795, 1.999999999999595e-04, 3.599999999992638e-03, 2.192452370098768e-04, -2.969761053370145e-05, -7.428960085155347e+01, -1.026555900923452e+04, -9.281534302738014e+02, 1.035895010678006e+04
796, -2.000000000000149e-04, 3.500000000007369e-03, 2.108655882521401e-04, 1.325602273244506e-05, 1.477352015804477e+02, 1.066771359641483e+04, 1.311917782437903e+03, 1.084225338660231e+04
797, -1.500000000000451e-04, 3.500000000005565e-03, 2.104541603015422e-04, 8.010090539939735e-06, 1.406087592362741e+02, 7.989272681148892e+03, 1.173355430851290e+03, 8.191982496780961e+03
798, -1.000000000000796e-04, 3.500000000003764e-03, 2.100810011386324e-04, 2.766185402506474e-06, 1.282794298026862e+02, 5.315379357731910e+03, 9.942117780588580e+02, 5.555162814971959e+03
799, -5.000000000011939e-05, 3.500000000001962e-03, 2.097460313296329e-04, -2.477704209871617e-06, 1.104081158708187e+02, 2.646692013144465e+03, 7.743397886241448e+02, 2.971724152837127e+03
800, -1.923239128717724e-16, 3.500000000000160e-03, 2.094491565649502e-04, -7.723594918133613e-06, 8.664904378135486e+01, -1.612035439623514e+01, 5.135924604930035e+02, 1.032313136166935e+03
801, 4.999999999981385e-05, 3.499999999998358e-03, 2.091902675172186e-04, -1.297350846109726e-05, 5.664947431081646e+01, -2.672378189189067e+03, 2.118229198564767e+02, 2.761714645949818e+03
802, 9.999999999985163e-05, 3.499999999996555e-03, 2.089692396974913e-04, -1.822947172201897e-05, 2.004960962583152e+01, -5.321391319013400e+03, -1.311154534688430e+02, 5.347873992784020e+03
803, 1.499999999999148e-04, 3.499999999994753e-03, 2.087859333102178e-04, -2.349351675414660e-05, -2.351746480221016e+01, -7.962458877517075e+03, -5.153688941024170e+02, 8.005573754738162e+03
804, 1.999999999999576e-04, 3.499999999992950e-03, 2.086401931071397e-04, -2.876768080515945e-05, -7.442573003394864e+01, -1.059486910838777e+04, -9.410831976611995e+02, 1.068748236100671e+04
805, -2.000000000000167e-04, 3.400000000007423e-03, 2.003671710867897e-04, 1.342438872496334e-05, 1.465199076988579e+02, 1.100276463196835e+04, 1.329264736922232e+03, 1.117702234392188e+04
806, -1.500000000000494e-04, 3.400000000005649e-03, 1.999614416495094e-04, 8.272700024224696e-06, 1.389377435180927e+02, 8.241142451826048e+03, 1.189456673910519e+03, 8.444225829036593e+03
807, -1.000000000000872e-04, 3.400000000003875e-03, 1.995951474955446e-04, 3.123083660821977e-06, 1.263292418589588e+02, 5.483911180696500e+03, 1.008415064152503e+03, 5.724621209983855e+03
808, -5.000000000012958e-05, 3.400000000002102e-03, 1.992682157804245e-04, -2.026503623162302e-06, 1.083552170448174e+02, 2.731729428376640e+03, 7.859794536160235e+02, 3.058291526115036e+03
809, -2.051242747706794e-16, 3.400000000000329e-03, 1.989805588047294e-04, -7.178110514046921e-06, 8.466948318024481e+01, -1.473329485201589e+01, 5.219891637136562e+02, 1.048699985896090e+03
810, 4.999999999980369e-05, 3.399999999998554e-03, 1.987320738675880e-04, -1.233379116036014e-05, 5.491865806843589e+01, -2.754796577944917e+03, 2.162834914766265e+02, 2.842817950947062e+03
811, 9.999999999984403e-05, 3.399999999996781e-03, 1.985226431184543e-04, -1.749560520388867e-05, 1.874207551913037e+01, -5.487769044715731e+03, -1.312981384008074e+02, 5.512768952337859e+03
812, 1.499999999999104e-04, 3.399999999995008e-03, 1.983521334077864e-04, -2.266561780890133e-05, -2.422824407186783e+01, -8.212948254303843e+03, -5.209160355807239e+02, 8.254728915626130e+03
813, 1.999999999999557e-04, 3.399999999993234e-03, 1.982203961371450e-04, -2.784589969026885e-05, -7.436743216428954e+01, -1.092962049312999e+04, -9.527300628617668e+02, 1.102122031847324e+04
814, -2.000000000000187e-04, 3.300000000007353e-03, 1.900588271101213e-04, 1.356114773570902e-05, 1.449787446037259e+02, 1.134334580421984e+04, 1.345233826253918e+03, 1.151703264695756e+04
815, -1.500000000000538e-04, 3.300000000005614e-03, 1.896588475382390e-04, 8.506608892324269e-06, 1.369460652576980e+02, 8.497226891875067e+03, 1.204528547984602e+03, 8.700451229191827e+03
816, -1.000000000000948e-04, 3.300000000003875e-03, 1.892994871465357e-04, 3.454192632471413e-06, 1.240803039303983e+02, 5.655326167461059e+03, 1.021937460308910e+03, 5.896787726716601e+03
817, -5.000000000013977e-05, 3.300000000002137e-03, 1.889806802017207e-04, -1.598176020940348e-06, 1.060426891220619e+02, 2.818302518187370e+03, 7.972860910339764e+02, 3.146269826983428e+03
818, -2.179652942510546e-16, 3.300000000000398e-03, 1.887023461417541e-04, -6.652577824446172e-06, 8.248684436225619e+01, -1.317414536196804e+01, 5.303996214217067e+02, 1.065103778310910e+03
819, 4.999999999979350e-05, 3.299999999998659e-03, 1.884643894236881e-04, -1.171109935227471e-05, 5.305889894312065e+01, -2.838422702110874e+03, 2.211030731149255e+02, 2.925100361525606e+03
820, 9.999999999983644e-05, 3.299999999996922e-03, 1.882666993708984e-04, -1.677583303149340e-05, 1.739747367597931e+01, -5.656750704443138e+03, -1.307785344648300e+02, 5.680173381822035e+03
821, 1.499999999999061e-04, 3.299999999995182e-03, 1.881091500194097e-04, -2.184887717512217e-05, -2.486636061143736e+01, -8.467454290326943e+03, -5.254200266965277e+02, 8.507735055159692e+03
822, 1.999999999999538e-04, 3.299999999993444e-03, 1.879915999635813e-04, -2.693233601218862e-05, -7.410927996824921e+01, -1.126981823166137e+04, -9.629959087963325e+02, 1.136016476167734e+04
823, -2.000000000000206e-04, 3.200000000007042e-03, 1.799465005423997e-04, 1.366588351212406e-05, 1.431009450600335e+02, 1.168946273014883e+04, 1.359723078734433e+03, 1.186228721096952e+04
824, -1.500000000000580e-04, 3.200000000005365e-03, 1.795523095689588e-04, 8.711446096881762e-06, 1.346224977850743e+02, 8.757532017512111e+03, 1.218494005254340e+03, 8.960662874406236e+03
825, -1.000000000001024e-04, 3.200000000003689e-03, 1.791999390425774e-04, 3.759186819652340e-06, 1.215220772851724e+02, 5.829630603939237e+03, 1.034726956366225e+03, 6.071667188588690e+03
826, -5.000000000014997e-05, 3.200000000002012e-03, 1.788893308788101e-04, -1.193001001749212e-06, 1.034610353032537e+02, 2.906417212694106e+03, 8.082328904315070e+02, 3.235664530366925e+03
827, -2.307656561499616e-16, 3.200000000000335e-03, 1.786204121940311e-04, -6.147230194384779e-06, 8.009289811795372e+01, -1.143806515588392e+01, 5.388223777118958e+02, 1.081524912394643e+03
828, 4.999999999978330e-05, 3.199999999998658e-03, 1.783930951486637e-04, -1.110561977032404e-05, 5.106346601793462e+01, -2.923253559811330e+03, 2.263057092340159e+02, 3.008557605608622e+03
829, 9.999999999982882e-05, 3.199999999996980e-03, 1.782072767895986e-04, -1.607029496555972e-05, 1.601077802457132e+01, -5.828335917957156e+03, -1.295069580922455e+02, 5.850083461935374e+03
830, 1.499999999999017e-04, 3.199999999995303e-03, 1.780628388917276e-04, -2.104338727684634e-05, -2.543495484672042e+01, -8.725980022638054e+03, -5.288054521087392e+02, 8.764589283097515e+03
831, 1.999999999999519e-04, 3.199999999993626e-03, 1.779596477983748e-04, -2.602703449701417e-05, -7.365143917973990e+01, -1.161546891586388e+04, -9.717794450373885e+02, 1.170431423981261e+04
832, -2.000000000000225e-04, 3.100000000006703e-03, 1.700362320839640e-04, 1.373820539644440e-05, 1.408783473891082e+02, 1.204112066784609e+04, 1.372628010925516e+03, 1.221278829387887e+04
833, -1.500000000000624e-04, 3.100000000005093e-03, 1.696478549600806e-04, 8.886866172930348e-06, 1.319585248617007e+02, 9.022064159895175e+03, 1.231274203444877e+03, 9.224864381568394e+03
834, -1.000000000001100e-04, 3.100000000003483e-03, 1.693025168819380e-04, 4.037766310659188e-06, 1.186460279669004e+02, 6.006831271607036e+03, 1.046730325552699e+03, 6.249264193578958e+03
835, -5.000000000016015e-05, 3.100000000001875e-03, 1.690001679669966e-04, -8.112325648682145e-07, 1.006021389964249e+02, 2.996080108942718e+03, 8.187924195447800e+02, 3.326481140734197e+03
836, -2.436134518939148e-16, 3.100000000000265e-03, 1.687407435675042e-04, -5.662275347772644e-06, 7.748047188768987e+01, -9.519208894680787e+00, 5.472559870824186e+02, 1.097964209820358e+03
837, 4.999999999977311e-05, 3.099999999998656e-03, 1.685241641093323e-04, -1.051751349648975e-05, 4.892670020250523e+01, -3.009284594820821e+03, 2.319161047105993e+02, 3.093185517149724e+03
838, 9.999999999982122e-05, 3.099999999997047e-03, 1.683503349294697e-04, -1.537910507656002e-05, 1.457847088760138e+01, -6.002521920022685e+03, -1.274324276014044e+02, 6.022495596404390e+03
839, 1.499999999998973e-04, 3.099999999995438e-03, 1.682191461125387e-04, -2.024921480166217e-05, -2.593463476116938e+01, -8.988524899970602e+03, -5.309949347394740e+02, 9.025289288709961e+03
840, 1.999999999999499e-04, 3.099999999993829e-03, 1.681304723265731e-04, -2.513001407255381e-05, -7.299105567500544e+01, -1.196657491475081e+04, -9.789767300392889e+02, 1.205366827006212e+04
841, -2.000000000000244e-04, 3.000000000006373e-03, 1.603341590034272e-04, 1.377775020711129e-05, 1.383084971982419e+02, 1.239832663242061e+04, 1.383840335171283e+03, 1.256853615060120e+04
842, -1.500000000000668e-04, 3.000000000004845e-03, 1.599516066303291e-04, 9.032551103572353e-06, 1.289502724191775e+02, 9.290831369900779e+03, 1.242787237073805e+03, 9.493057764014970e+03
843, -1.000000000001176e-04, 3.000000000003318e-03, 1.596133291795026e-04, 4.289658623023780e-06, 1.154467179801899e+02, 6.186936153561006e+03, 1.057892246638082e+03, 6.429582256131212e+03
844, -5.000000000017031e-05, 3.000000000001789e-03, 1.593192855428093e-04, -4.530972838956627e-07, 9.745981805280178e+01, 3.087298716714021e+03, 8.289361155810629e+02, 3.418724466055464e+03
845, -2.564273663199779e-16, 3.000000000000262e-03, 1.590694198856787e-04, -5.197893572260179e-06, 7.464349309152760e+01, -7.410912280345656e+00, 5.556988026308286e+02, 1.114422524190120e+03
846, 4.999999999976296e-05, 2.999999999998735e-03, 1.588636614808523e-04, -9.946914152467999e-06, 4.664343945456903e+01, -3.096510413910521e+03, 2.379596842967210e+02, 3.178980243934554e+03
847, 9.999999999981362e-05, 2.999999999997206e-03, 1.587019245412101e-04, -1.470234993733057e-05, 1.309707980353710e+01, -6.179305060104840e+03, -1.245022938735079e+02, 6.197406517815409e+03
848, 1.499999999998930e-04, 2.999999999995678e-03, 1.585841080515447e-04, -1.946639888736902e-05, -2.636649929293571e+01, -9.255087604345066e+03, -5.319084672410379e+02, 9.289833136549089e+03
849, 1.999999999999481e-04, 2.999999999994151e-03, 1.585100955992795e-04, -2.424126605412098e-05, -7.212658777490469e+01, -1.232313816295129e+04, -9.844802680875919e+02, 1.240822671489045e+04
850, -2.000000000000263e-04, 2.900000000006043e-03, 1.508465154698634e-04, 1.378418411745973e-05, 1.353882631368028e+02, 1.276108601164667e+04, 1.393247669267178e+03, 1.292953208389232e+04
851, -1.500000000000711e-04, 2.900000000004594e-03, 1.504697834365264e-04, 9.148212189456494e-06, 1.255922299204333e+02, 9.563839623866985e+03, 1.252947989388339e+03, 9.765245953164109e+03
852, -1.000000000001252e-04, 2.900000000003146e-03, 1.501385794310400e-04, 4.514620569276313e-06, 1.119174297550550e+02, 6.369951696159234e+03, 1.068155226864299e+03, 6.612625441849778e+03
853, -5.000000000018052e-05, 2.900000000001698e-03, 1.498528717105553e-04, -1.187924460490759e-07, 9.402690042037261e+01, 3.180079631571286e+03, 8.386342202378592e+02, 3.512399590146295e+03
854, -2.692480570096190e-16, 2.900000000000249e-03, 1.496126138480349e-04, -4.754235864174621e-06, 7.157496313370893e+01, -5.106894599227985e+00, 5.641489315854807e+02, 1.130900603652475e+03
855, 4.999999999975274e-05, 2.899999999998802e-03, 1.494177445619134e-04, -9.393926050268909e-06, 4.420750410108531e+01, -3.184925547455935e+03, 2.444625789196913e+02, 3.265937549100751e+03
856, 9.999999999980604e-05, 2.899999999997354e-03, 1.492681875446960e-04, -1.404008677875771e-05, 1.156192033891239e+01, -6.358681196155927e+03, -1.206622257216884e+02, 6.374812534821266e+03
857, 1.499999999998886e-04, 2.899999999995905e-03, 1.491638512902447e-04, -1.869494928354540e-05, -2.673295025505945e+01, -9.525665785683872e+03, -5.314633285053695e+02, 9.558218353342409e+03
858, 1.999999999999462e-04, 2.899999999994458e-03, 1.491046289197842e-04, -2.336075230639870e-05, -7.105701804430396e+01, -1.268515830015484e+04, -9.881788874971596e+02, 1.276798892583022e+04
859, -2.000000000000283e-04, 2.800000000005697e-03, 1.415796327177130e-04, 1.375720451127018e-05, 1.321086807692033e+02, 1.312939753520015e+04, 1.400735110884866e+03, 1.329577951716173e+04
860, -1.500000000000755e-04, 2.800000000004316e-03, 1.412087002955815e-04, 9.233591924769163e-06, 1.218748352432609e+02, 9.841089913964381e+03, 1.261669626195404e+03, 1.004143330053515e+04
861, -1.000000000001328e-04, 2.800000000002934e-03, 1.408845662018935e-04, 4.712440147161998e-06, 1.080489029361144e+02, 6.555881141812220e+03, 1.077460500054438e+03, 6.798398715683003e+03
862, -5.000000000019071e-05, 2.800000000001552e-03, 1.406072086600212e-04, 1.915158436256706e-07, 9.029430878317794e+01, 3.274427380685248e+03, 8.478562474475007e+02, 3.607512201631971e+03
863, -2.820416426449479e-16, 2.800000000000171e-03, 1.403765912572026e-04, -4.331422033520567e-06, 6.826604662918135e+01, -2.602242524236999e+00, 5.726043956912586e+02, 1.147399446691229e+03
864, 4.999999999974258e-05, 2.799999999998790e-03, 1.401926627704317e-04, -8.858622302627903e-06, 4.161046596626863e+01, -3.274525565490674e+03, 2.514515334198258e+02, 3.354052723760277e+03
865, 9.999999999979847e-05, 2.799999999997408e-03, 1.400553569905463e-04, -1.339234160970452e-05, 9.965169567765088e+00, -6.540647268547846e+03, -1.158565534087449e+02, 6.554709320653812e+03
866, 1.499999999998843e-04, 2.799999999996027e-03, 1.399645925447673e-04, -1.793484448422248e-05, -2.704109111004846e+01, -9.800258757185322e+03, -5.295747367646945e+02, 9.830441554465568e+03
867, 1.999999999999443e-04, 2.799999999994645e-03, 1.399202727175929e-04, -2.248840339331925e-05, -6.978841196788233e+01, -1.305263793866627e+04, -9.899584150716416e+02, 1.313295292335951e+04
868, -2.000000000000301e-04, 2.700000000005420e-03, 1.325399388789057e-04, 1.369654202805058e-05, 1.284706861794762e+02, 1.350326338738617e+04, 1.406184713479476e+03, 1.366727849990426e+04
869, -1.500000000000799e-04, 2.700000000004097e-03, 1.321747681063601e-04, 9.288466028038662e-06, 1.177971702943789e+02, 1.012258692274096e+04, 1.268862809069150e+03, 1.032162144740910e+04
870, -1.000000000001404e-04, 2.700000000002773e-03, 1.318576830970331e-04, 4.882938551318592e-06, 1.038378165285201e+02, 6.744730379541475e+03, 1.085747455706543e+03, 6.986905193558426e+03
871, -5.000000000020087e-05, 2.700000000001450e-03, 1.315886726596271e-04, 4.776946584698607e-07, 8.625713643938684e+01, 3.370348677681952e+03, 8.565706291461626e+02, 3.704066714048814e+03
872, -2.948962146524792e-16, 2.700000000000125e-03, 1.313677110219801e-04, -3.929538720237162e-06, 6.471113826139708e+01, 1.102228320435188e-01, 5.810629457934883e+02, 1.163920042859962e+03
873, 4.999999999973239e-05, 2.699999999998801e-03, 1.311947576524636e-04, -8.341042849560304e-06, 3.884693807324265e+01, -3.365303184201846e+03, 2.589538639474980e+02, 3.443322010733074e+03
874, 9.999999999979085e-05, 2.699999999997478e-03, 1.310697570794704e-04, -1.275910725225473e-05, 8.302661779281493e+00, -6.725196204903061e+03, -1.100281697630369e+02, 6.737093719117910e+03
875, 1.499999999998800e-04, 2.699999999996155e-03, 1.309926387093341e-04, -1.718602977059273e-05, -2.729263283313458e+01, -1.007885981316323e+04, -5.261555803443873e+02, 1.010650095530591e+04
876, 1.999999999999424e-04, 2.699999999994831e-03, 1.309633166429644e-04, -2.162411662703552e-05, -6.831909251468994e+01, -1.342557121192206e+04, -9.897014991357283e+02, 1.350311891419826e+04
877, -2.000000000000321e-04, 2.600000000005380e-03, 1.237339592725734e-04, 1.360196270585424e-05, 1.244807207761262e+02, 1.388268751557170e+04, 1.409473426394148e+03, 1.404402775443014e+04
878, -1.500000000000841e-04, 2.600000000004088e-03, 1.233744939519698e-04, 9.312645548051551e-06, 1.133610365779698e+02, 1.040833576214185e+04, 1.274433954511290e+03, 1.060581124750220e+04
879, -1.000000000001480e-04, 2.600000000002797e-03, 1.230644188907331e-04, 5.025972252752560e-06, 9.928224593761547e+01, 6.936505305642517e+03, 1.092952579237543e+03, 7.178147430222401e+03
880, -5.000000000021105e-05, 2.600000000001504e-03, 1.228037341240834e-04, 7.396463106875946e-07, 8.191084384828309e+01, 3.467850061143323e+03, 8.647441102132497e+02, 3.802067054617865e+03
881, -3.077169053421203e-16, 2.600000000000212e-03, 1.225924251675889e-04, -3.548637346902635e-06, 6.090398452123623e+01, 3.037332800484819e+00, 5.895217762695531e+02, 1.180462726292282e+03
882, 4.999999999972220e-05, 2.599999999998920e-03, 1.224304628338188e-04, -7.841192419824069e-06, 3.590970356504499e+01, -3.457251778724615e+03, 2.669974170387317e+02, 3.533741306911630e+03
883, 9.999999999978321e-05, 2.599999999997628e-03, 1.223178030471564e-04, -1.214034130819496e-05, 6.566807415073868e+00, -6.912322242608314e+03, -1.031183626106679e+02, 6.921962097076490e+03
884, 1.499999999998756e-04, 2.599999999996335e-03, 1.222543866571096e-04, -1.644841517989455e-05, -2.749520473547693e+01, -1.036146494274888e+04, -5.211160374410675e+02, 1.038639389991011e+04
885, 1.999999999999405e-04, 2.599999999995043e-03, 1.222401392504437e-04, -2.076775403576214e-05, -6.665621446793284e+01, -1.380395652054691e+04, -9.872870467244572e+02, 1.387848560001837e+04
886, -2.000000000000340e-04, 2.500000000005436e-03, 1.151683168034790e-04, 1.347326999498022e-05, 1.201330523470297e+02, 1.426766235288353e+04, 1.410474933939996e+03, 1.442603006605181e+04
887, -1.500000000000885e-04, 2.500000000004174e-03, 1.148144813619245e-04, 9.305978900546170e-06, 1.085592579229969e+02, 1.069833299972637e+04, 1.278287209823665e+03, 1.089400663969797e+04
888, -1.000000000001556e-04, 2.500000000002911e-03, 1.145113576928270e-04, 5.141435051410072e-06, 9.437471304395353e+01, 7.131206588552463e+03, 1.099010728934540e+03, 7.372130029606472e+03
889, -5.000000000022121e-05, 2.500000000001650e-03, 1.142589577108146e-04, 9.773104117746281e-07, 7.724744905521425e+01, 3.566935139493064e+03, 8.723425383572776e+02, 3.901518447182318e+03
890, -3.205375960317614e-16, 2.500000000000388e-03, 1.140572788804807e-04, -3.188732056435404e-06, 5.683624000871396e+01, 6.184726738326844e+00, 5.979779791836941e+02, 1.197028082440440e+03
891, 4.999999999971200e-05, 2.499999999999127e-03, 1.139063040273311e-04, -7.359038471327627e-06, 3.279041186090330e+01, -3.550364456309544e+03, 2.756107683764603e+02, 3.625306054924719e+03
892, 9.999999999977564e-05, 2.499999999997865e-03, 1.138060011476780e-04, -1.153596410621415e-05, 4.749784640361554e+00, -7.102017914152754e+03, -9.506684604511457e+01, 7.109310651918163e+03
893, 1.499999999998713e-04, 2.499999999996604e-03, 1.137563232170179e-04, -1.572187346308159e-05, -2.765542501702794e+01, -1.064806669268024e+04, -5.143639338592552e+02, 1.067011792437780e+04
894, 1.999999999999386e-04, 2.499999999995341e-03, 1.137572079968733e-04, -1.991914034429431e-05, -6.480457968082840e+01, -1.418778713037959e+04, -9.825906943133032e+02, 1.425905235341908e+04
895, -2.000000000000358e-04, 2.400000000005491e-03, 1.068497316543959e-04, 1.331030693794964e-05, 1.154332687149513e+02, 1.465818551316660e+04, 1.409060004263514e+03, 1.481328603740453e+04
896, -1.500000000000929e-04, 2.400000000004260e-03, 1.065014301234209e-04, 9.268354031410772e-06, 1.033933755101345e+02, 1.099257946295750e+04, 1.280324651478111e+03, 1.118621019379609e+04
897, -1.000000000001632e-04, 2.400000000003029e-03, 1.062051788214530e-04, 5.229260228782499e-06, 8.911284397472559e+01, 7.328837278995073e+03, 1.103855349593997e+03, 7.568857009241212e+03
898, -5.000000000023145e-05, 2.400000000001797e-03, 1.059610022180112e-04, 1.190666017962622e-06, 7.226178151342356e+01, 3.667609031056511e+03, 8.793310756215619e+02, 4.002426065152501e+03
899, -3.333650629849805e-16, 2.400000000000566e-03, 1.057689104076285e-04, -2.849797572992737e-06, 5.250077205050525e+01, 9.559193846381618e+00, 6.064287632240785e+02, 1.213617467985939e+03
900, 4.999999999970184e-05, 2.399999999999334e-03, 1.056288989168033e-04, -6.894509057452811e-06, 2.948074641024505e+01, -3.644633230571751e+03, 2.848234946877795e+02, 3.718011727840447e+03
901, 9.999999999976805e-05, 2.399999999998102e-03, 1.055409485092006e-04, -1.094585657177095e-05, 2.842874738980527e+00, -7.294274548873514e+03, -8.581136831941149e+01, 7.299135363707160e+03
902, 1.499999999998670e-04, 2.399999999996872e-03, 1.055050249892284e-04, -1.500623795540919e-05, -2.778153746276848e+01, -1.093865620459552e+04, -5.058040356191603e+02, 1.095767023101506e+04
903, 1.999999999999366e-04, 2.399999999995640e-03, 1.055210790039008e-04, -1.907806082914574e-05, -6.277129829202727e+01, -1.457705471564331e+04, -9.754841291492515e+02, 1.464481820522490e+04
904, -2.000000000000378e-04, 2.300000000005451e-03, 9.878502147684962e-05, 1.311295846513930e-05, 1.103874559951987e+02, 1.505425109506118e+04, 1.405095374560729e+03, 1.520579601696163e+04
905, -1.500000000000972e-04, 2.300000000004251e-03, 9.844213638217011e-05, 9.199700681464455e-06, 9.786505193714652e+01, 1.129107311246668e+04, 1.280444956517344e+03, 1.148242412702937e+04
906, -1.000000000001708e-04, 2.300000000003051e-03, 9.815265684382117e-05, 5.289422790938704e-06, 8.349458289082281e+01, 7.529398736682148e+03, 1.107417588085792e+03, 7.768332094153410e+03
907, -5.000000000024163e-05, 2.300000000001851e-03, 9.791662057849544e-05, 1.379733853460899e-06, 6.694857966327936e+01, 3.769875870854408e+03, 8.856735620572006e+02, 4.104794898403138e+03
908, -3.461857536746216e-16, 2.300000000000652e-03, 9.773405101015534e-05, -2.531766995847266e-06, 4.788972160652497e+01, 1.316705844184867e+01, 6.148709533932048e+02, 1.230232019028899e+03
909, 4.999999999969163e-05, 2.299999999999453e-03, 9.760495707280368e-05, -6.447490637011439e-06, 2.597081954275336e+01, -3.740050235776852e+03, 2.946657046544259e+02, 3.811853367996800e+03
910, 9.999999999976044e-05, 2.299999999998253e-03, 9.752933301131386e-05, -1.036985805334443e-05, 8.346909310560022e-01, -7.489083453823633e+03, -7.528823001790752e+01, 7.491431577838940e+03
911, 1.499999999998626e-04, 2.299999999997052e-03, 9.750715818037894e-05, -1.430130041862161e-05, -2.788596244866744e+01, -1.123322476627754e+04, -4.953387484855744e+02, 1.124904705348849e+04
912, 1.999999999999347e-04, 2.299999999995853e-03, 9.753839684157639e-05, -1.824425918336697e-05, -6.056868050694857e+01, -1.497175088325749e+04, -9.658354833089236e+02, 1.503578090445916e+04
913, -2.000000000000396e-04, 2.200000000005174e-03, 9.098110148337294e-05, 1.288115366072956e-05, 1.050011783725615e+02, 1.545584901247126e+04, 1.398443971101229e+03, 1.560356085599983e+04
914, -1.500000000001016e-04, 2.200000000004032e-03, 9.064349269746843e-05, 9.099992673285904e-06, 9.197585388199286e+01, 1.159380884720178e+04, 1.278544102029482e+03, 1.178265090247340e+04
915, -1.000000000001784e-04, 2.200000000002889e-03, 9.036066159468456e-05, 5.321941750572943e-06, 7.751803767121555e+01, 7.732890448231930e+03, 1.109626559687597e+03, 7.970559023822025e+03
916, -5.000000000025179e-05, 2.200000000001748e-03, 9.013265984685493e-05, 1.544578585086367e-06, 6.130282190407706e+01, 3.873738974605647e+03, 8.913326231654307e+02, 4.208629800647928e+03
917, -3.590132206278407e-16, 2.200000000000606e-03, 8.995952492393899e-05, -2.234529534697363e-06, 4.299540781882797e+01, 1.701476567656368e+01, 6.233010016144499e+02, 1.246872707304330e+03
918, 4.999999999968146e-05, 2.199999999999464e-03, 8.984127989241110e-05, -6.017825820588006e-06, 2.225086665953950e+01, -3.836606562205969e+03, 3.051679893075408e+02, 3.906826162385851e+03
919, 9.999999999975283e-05, 2.199999999998322e-03, 8.977793321151679e-05, -9.807764080636450e-06, -1.285979599038683e+00, -7.686433913579436e+03, -6.343240326192992e+01, 7.686194991430903e+03
920, 1.499999999998582e-04, 2.199999999997180e-03, 8.976947852755715e-05, -1.360680881383579e-05, -2.798067656255989e+01, -1.153176051765987e+04, -4.828683083797893e+02, 1.154424522631892e+04
921, 1.999999999999328e-04, 2.199999999996038e-03, 8.981589446640865e-05, -1.741743530350955e-05, -5.820913426616153e+01, -1.537186363857589e+04, -9.535098621312995e+02, 1.543193890948549e+04
922, -2.000000000000416e-04, 2.100000000004828e-03, 8.344498439643212e-05, 1.261486816777013e-05, 9.928654586043194e+01, 1.586296990513878e+04, 1.388965116883970e+03, 1.600658019176086e+04
923, -1.500000000001059e-04, 2.100000000003754e-03, 8.311248799865395e-05, 8.969250283044827e-06, 8.573223636826401e+01, 1.190078228092854e+04, 1.274514961563738e+03, 1.208689211933585e+04
924, -1.000000000001860e-04, 2.100000000002678e-03, 8.283615812433923e-05, 5.326882487935242e-06, 7.118440505697640e+01, 7.939312254697863e+03, 1.110409233419566e+03, 8.175540992555065e+03
925, -5.000000000026199e-05, 2.100000000001603e-03, 8.261606112846550e-05, 1.685311171345857e-06, 5.532136692725362e+01, 3.979202112619854e+03, 8.962696641372216e+02, 4.313935251000844e+03
926, -3.718339113174818e-16, 2.100000000000528e-03, 8.245224926376619e-05, -1.957928170245002e-06, 3.781119489052867e+01, 2.110958696409966e+01, 6.317151159064463e+02, 1.263540618407698e+03
927, 4.999999999967128e-05, 2.099999999999452e-03, 8.234476047474020e-05, -5.605311038630126e-06, 1.831160767823394e+01, -3.934291912881190e+03, 3.163617130374486e+02, 4.002925620673298e+03
928, 9.999999999974523e-05, 2.099999999998377e-03, 8.229361818942479e-05, -9.259324037551649e-06, -3.530167881498073e+00, -7.886313099808184e+03, -5.017701393102936e+01, 7.883421698906054e+03
929, 1.499999999998539e-04, 2.099999999997302e-03, 8.229883110910809e-05, -1.292246497519364e-05, -2.807751233286308e+01, -1.183424859034259e+04, -4.682899885285560e+02, 1.184326211719802e+04
930, 1.999999999999309e-04, 2.099999999996226e-03, 8.236039299623915e-05, -1.659724296539506e-05, -5.570460948244249e+01, -1.577737677010537e+04, -9.383684180205131e+02, 1.583329140380670e+04
931, -2.000000000000435e-04, 2.000000000004496e-03, 7.618378058213449e-05, 1.231412661140616e-05, 9.325442782803748e+01, 1.627559906605152e+04, 1.376514042729353e+03, 1.641485429815218e+04
932, -1.500000000001103e-04, 2.000000000003499e-03, 7.585620764097486e-05, 8.807542664894319e-06, 7.913950002792785e+01, 1.221198485632407e+04, 1.268247367310034e+03, 1.239514993771968e+04
933, -1.000000000001936e-04, 2.000000000002501e-03, 7.558620669261322e-05, 5.304359161091742e-06, 6.449408193707654e+01, 8.148661294062086e+03, 1.109690400973059e+03, 8.383281616267226e+03
934, -5.000000000027220e-05, 2.000000000001505e-03, 7.537385952030657e-05, 1.802091261920529e-06, 4.900010098756911e+01, 4.086267366682863e+03, 9.004448525178678e+02, 4.420716085020440e+03
935, -3.846512138753339e-16, 2.000000000000507e-03, 7.521923391431446e-05, -1.701757266122491e-06, 3.232895713319999e+01, 2.545785137289522e+01, 6.401092231297123e+02, 1.280236885204166e+03
936, 4.999999999966107e-05, 1.999999999999510e-03, 7.512238346135288e-05, -5.209694165000873e-06, 1.414143299762873e+01, -4.033096434870987e+03, 3.282789523856466e+02, 4.100146660965601e+03
937, 9.999999999973761e-05, 1.999999999998513e-03, 7.508334733181736e-05, -8.724238797442872e-06, -5.912437005256606e+00, -8.088708405512269e+03, -3.545344916140186e+01, 8.083106980409389e+03
938, 1.499999999998495e-04, 1.999999999997515e-03, 7.510215006476888e-05, -1.224792225792302e-05, -2.819351107594662e+01, -1.214067448611290e+04, -4.514982539979110e+02, 1.214609394266670e+04
939, 1.999999999999290e-04, 1.999999999996517e-03, 7.517880135072391e-05, -1.578328748163122e-05, -5.307366418416450e+01, -1.618827436499066e+04, -9.202683953906326e+02, 1.623983612397384e+04
940, -2.000000000000454e-04, 1.900000000004165e-03, 6.920469797812140e-05, 1.197900510327579e-05, 8.692058224349535e+01, 1.669372106890050e+04, 1.360942230411985e+03, 1.682838308993786e+04
941, -1.500000000001146e-04, 1.900000000003247e-03, 6.888183333186580e-05, 8.614990331318385e-06, 7.220627208223459e+01, 1.252740728298505e+04, 1.259628195449091e+03, 1.270742637142061e+04
942, -1.000000000002012e-04, 1.900000000002328e-03, 6.861796268237096e-05, 5.254537176241383e-06, 5.744946655903095e+01, 8.360934098814410e+03, 1.107392766371575e+03, 8.593784497772191e+03
943, -5.000000000028235e-05, 1.900000000001409e-03, 6.841318400564110e-05, 1.895129654807386e-06, 4.233594093518127e+01, 4.194936658735845e+03, 9.038171106983538e+02, 4.528977169278189e+03
944, -3.974685164331859e-16, 1.900000000000491e-03, 6.826758140336250e-05, -1.465760125402177e-06, 2.654080806129264e+01, 3.006632796949316e+01, 6.484788776500851e+02, 1.296962547001215e+03
945, 4.999999999965091e-05, 1.899999999999572e-03, 6.818122488812431e-05, -4.830672088549262e-06, 9.728334811908553e+00, -4.133009098097967e+03, 3.409522980032492e+02, 4.198483930669198e+03
946, 9.999999999973007e-05, 1.899999999998654e-03, 6.815417016621339e-05, -8.202158311607281e-06, -8.448215475903226e+00, -8.293605167189155e+03, -1.919168317861318e+01, 8.285245862214069e+03
947, 1.499999999998452e-04, 1.899999999997735e-03, 6.818645841797544e-05, -1.158278314445801e-05, -2.834674408418550e+01, -1.245102053564001e+04, -4.323852763105119e+02, 1.245273673696221e+04
948, 1.999999999999271e-04, 1.899999999996817e-03, 6.827811607559884e-05, -1.497512332923673e-05, -5.033644245311143e+01, -1.660453669928062e+04, -8.990636820819559e+02, 1.665157074155178e+04
949, -2.000000000000473e-04, 1.800000000003828e-03, 6.251504209787249e-05, 1.160963380068612e-05, 8.030057024853500e+01, 1.711731503244688e+04, 1.342097422914236e+03, 1.724716683271568e+04
950, -1.500000000001189e-04, 1.800000000002982e-03, 6.219664308764210e-05, 8.391767709458387e-06, 6.494180289336919e+01, 1.284703677471786e+04, 1.248541472959816e+03, 1.302372355002760e+04
951, -1.000000000002088e-04, 1.800000000002135e-03, 6.193867651718377e-05, 5.177635729883762e-06, 5.005357264247050e+01, 8.576125052559395e+03, 1.103436984141214e+03, 8.807053286572951e+03
952, -5.000000000029254e-05, 1.800000000001289e-03, 6.174125733713250e-05, 1.964690826377248e-06, 3.532611322550770e+01, 4.305210842384682e+03, 9.063441769878198e+02, 4.638723387845585e+03
953, -4.102858189910380e-16, 1.800000000000442e-03, 6.160448675292695e-05, -1.249626473039100e-06, 2.043876733368143e+01, 3.494171620424322e+01, 6.568193431320800e+02, 1.313718742187905e+03
954, 4.999999999964072e-05, 1.799999999999596e-03, 6.152845200592009e-05, -4.467888207679108e-06, 5.059790794367927e+00, -4.234017963179882e+03, 3.544149888553311e+02, 4.297932077353093e+03
955, 9.999999999972246e-05, 1.799999999998750e-03, 6.151322615204860e-05, -7.692679114821727e-06, -1.115380690521988e+01, -8.500986795683297e+03, -1.320048954486765e+00, 8.489833399275949e+03
956, 1.499999999998409e-04, 1.799999999997903e-03, 6.155886783793011e-05, -1.092659675970473e-05, -2.855641579323378e+01, -1.276526607897294e+04, -4.108404783823368e+02, 1.276318661772384e+04
957, 1.999999999999252e-04, 1.799999999997057e-03, 6.166542107442661e-05, -1.417225166446838e-05, -4.751406926143682e+01, -1.702613960510333e+04, -8.746044416912770e+02, 1.706849310290885e+04
958, -2.000000000000492e-04, 1.700000000003484e-03, 5.612221590188887e-05, 1.120619956351789e-05, 7.341627146227165e+01, 1.754635932558582e+04, 1.319823710585496e+03, 1.767120475464927e+04
959, -1.500000000001233e-04, 1.700000000002704e-03, 5.580801109955981e-05, 8.138105774341338e-06, 5.735941196241697e+01, 1.317085948337898e+04, 1.234868209280383e+03, 1.334404294433316e+04
960, -1.000000000002164e-04, 1.700000000001925e-03, 5.555569351141581e-05, 5.073930427426528e-06, 4.231193339551191e+01, 8.794227627938271e+03, 1.097741580381378e+03, 9.023091190583009e+03
961, -5.000000000030273e-05, 1.700000000001145e-03, 5.536539586435773e-05, 2.011095534248428e-06, 2.796908120259900e+01, 4.417090227467652e+03, 9.079825370649623e+02, 4.749959324778555e+03
962, -4.231031215488901e-16, 1.700000000000365e-03, 5.523723727933647e-05, -1.052989868239582e-06, 1.401488996724493e+01, 4.009060510435233e+01, 6.651255276372914e+02, 1.330506600126077e+03
963, 4.999999999963053e-05, 1.699999999999585e-03, 5.517132304874087e-05, -4.120929858317828e-06, 1.220874937841927e-01, -4.336110770348776e+03, 3.687008264752017e+02, 4.398485716153623e+03
964, 9.999999999971485e-05, 1.699999999998805e-03, 5.516774441140282e-05, -7.195341769760828e-06, -1.404808468139822e+01, -8.710836046583634e+03, 1.823463793379102e+01, 8.696864427043229e+03
965, 1.499999999998365e-04, 1.699999999998025e-03, 5.522657832503106e-05, -1.027885633217058e-05, -2.884606035548950e+01, -1.308338973270437e+04, -3.867508007970462e+02, 1.307743916907790e+04
966, 1.999999999999232e-04, 1.699999999997246e-03, 5.534788723567865e-05, -1.337411781115907e-05, -4.463403672822324e+01, -1.745305833106491e+04, -8.467371114633153e+02, 1.749060008562795e+04
967, -2.000000000000511e-04, 1.600000000003144e-03, 5.003371976737914e-05, 1.076894866545328e-05, 6.629147310322173e+01, 1.798082803093676e+04, 1.293960919560295e+03, 1.810049611274099e+04
968, -1.500000000001277e-04, 1.600000000002436e-03, 4.972340764968341e-05, 7.854294749832929e-06, 4.947399341866867e+01, 1.349885836530782e+04, 1.218486322695507e+03, 1.366838599313028e+04
969, -1.000000000002240e-04, 1.600000000001727e-03, 4.947645374203454e-05, 4.943755968513866e-06, 3.423140876977686e+01, 9.015233324585635e+03, 1.090222903085117e+03, 9.241901283044168e+03
970, -5.000000000031292e-05, 1.600000000001018e-03, 4.929300936832325e-05, 2.034723488836738e-06, 2.026424054661220e+01, 4.530574237215818e+03, 9.086874240892259e+02, 4.862689338714310e+03
971, -4.359339766338982e-16, 1.600000000000309e-03, 4.917321239603621e-05, -8.754250472443530e-07, 7.261746987279594e+00, 4.551977728335487e+01, 6.733920027178731e+02, 1.347327292894970e+03
972, 4.999999999962034e-05, 1.599999999999600e-03, 4.911718701017583e-05, -3.789325672051344e-06, -5.098297071410116e+00, -4.439273868953462e+03, 3.838441993679303e+02, 4.500139828919668e+03
973, 9.999999999970728e-05, 1.599999999998891e-03, 4.912504348543414e-05, -6.709628242047833e-06, -1.714981420050503e+01, -8.923132820955114e+03, 3.954709456792835e+01, 8.906334218260447e+03
974, 1.499999999998322e-04, 1.599999999998182e-03, 4.919687795605734e-05, -9.638996588801283e-06, -2.923864777077688e+01, -1.340536528643851e+04, -3.600006433886908e+02, 1.339549049891932e+04
975, 1.999999999999214e-04, 1.599999999997473e-03, 4.933277218296744e-05, -1.258010867103937e-05, -4.172280534415700e+01, -1.788526129573075e+04, -8.153046714460685e+02, 1.791788918056575e+04
976, -2.000000000000531e-04, 1.500000000002802e-03, 4.425715135513384e-05, 1.029818956626053e-05, 5.895270436394776e+01, 1.842069127899348e+04, 1.264345219975026e+03, 1.853504029734311e+04
977, -1.500000000001320e-04, 1.500000000002160e-03, 4.395039894968479e-05, 7.540686865067064e-06, 4.130296058222962e+01, 1.383101382656449e+04, 1.199270813725825e+03, 1.399675418466752e+04
978, -1.000000000002316e-04, 1.500000000001518e-03, 4.370849185498882e-05, 4.787508893140733e-06, 2.582048991368970e+01, 9.239131887858852e+03, 1.080795292146303e+03, 9.463486713131089e+03
979, -5.000000000032311e-05, 1.500000000000877e-03, 4.353160083248540e-05, 2.036016088436554e-06, 1.221167979883990e+01, 4.645661240605479e+03, 9.084129766067649e+02, 4.976917859158366e+03
980, -4.487512791917503e-16, 1.500000000000236e-03, 4.341988334682933e-05, -7.164451992080221e-07, 1.715491561296858e-01, 5.123553714546597e+01, 6.816131588539893e+02, 1.364182364700933e+03
981, 4.999999999961016e-05, 1.499999999999595e-03, 4.337348333590889e-05, -3.472542864774641e-06, -1.061646068593222e+01, -4.543493588136584e+03, 3.998802217769689e+02, 4.602889507650479e+03
982, 9.999999999969963e-05, 1.499999999998952e-03, 4.339253098034831e-05, -6.234959204958299e-06, -2.048077277176685e+01, -9.137856540224806e+03, 6.269369747333627e+01, 9.118237926471946e+03
983, 1.499999999998278e-04, 1.499999999998311e-03, 4.347714247324231e-05, -9.006391078140469e-06, -2.976199867894729e+01, -1.373116575008535e+04, -3.304717332014823e+02, 1.371733614900627e+04
984, 1.999999999999195e-04, 1.499999999997670e-03, 4.362741978756205e-05, -1.178955006897347e-05, -3.881325944514606e+01, -1.832271546319729e+04, -7.801462860142615e+02, 1.835035674603357e+04
985, -2.000000000000549e-04, 1.400000000002461e-03, 3.880020546042191e-05, 9.794295754244916e-06, 5.143097481092286e+01, 1.886591628409273e+04, 1.230808807695993e+03, 1.897483646141882e+04
986, -1.500000000001364e-04, 1.400000000001890e-03, 3.849664696165375e-05, 7.197699181465221e-06, 3.286666250366397e+01, 1.416730389286789e+04, 1.177093571978912e+03, 1.432914906503114e+04
987, -1.000000000002392e-04, 1.400000000001320e-03, 3.825943685240507e-05, 4.605650390243472e-06, 1.708960416104424e+01, 9.465911623426489e+03, 1.069370934148063e+03, 9.687850862340849e+03
988, -5.000000000033329e-05, 1.400000000000748e-03, 3.808876619420748e-05, 2.015479214577510e-06, 3.812586735918558e+00, 4.762349117046835e+03, 9.071121827735873e+02, 5.092649601027790e+03
989, -4.615719698813914e-16, 1.400000000000178e-03, 3.798481292252159e-05, -5.754991816286462e-07, -7.263105258743963e+00, 5.724464609201141e+01, 6.897832054590531e+02, 1.381073760563785e+03
990, 4.999999999959998e-05, 1.399999999999606e-03, 3.794774160822685e-05, -3.169984464469161e-06, -1.644780916774948e+01, -4.648754860851946e+03, 4.168447222441944e+02, 4.706729938177301e+03
991, 9.999999999969204e-05, 1.399999999999035e-03, 3.797770322490730e-05, -5.770691286010984e-06, -2.406378047116459e+01, -9.354984211637809e+03, 8.775237510077335e+01, 9.332570814631223e+03
992, 1.499999999998235e-04, 1.399999999998463e-03, 3.807483492058497e-05, -8.380349445519421e-06, -3.044559565470468e+01, -1.406076036405391e+04, -2.980434091862501e+02, 1.404297162268010e+04
993, 1.999999999999176e-04, 1.399999999997893e-03, 3.823925979306159e-05, -1.100170406501815e-05, -3.594051245613650e+01, -1.876538239330216e+04, -7.410976638753245e+02, 1.878799872678287e+04
994, -2.000000000000568e-04, 1.300000000002126e-03, 3.367067387374325e-05, 9.257708660911394e-06, 4.375964045987757e+01, 1.931646496058430e+04, 1.193179808696238e+03, 1.941988369120355e+04
995, -1.500000000001407e-04, 1.300000000001629e-03, 3.336990921966896e-05, 6.825816479778090e-06, 2.418644067250239e+01, 1.450770198335835e+04, 1.151823177783958e+03, 1.466557223591170e+04
996, -1.000000000002468e-04, 1.300000000001133e-03, 3.313701187388542e-05, 4.398709162536267e-06, 8.049134292305098e+00, 9.695557401633119e+03, 1.055859550337545e+03, 9.914997427632175e+03
997, -5.000000000034346e-05, 1.300000000000637e-03, 3.297219408280164e-05, 1.973686078091265e-06, -4.932286186948204e+00, 4.880634311252943e+03, 9.047365570481161e+02, 5.209890011186178e+03
998, -4.743892724392434e-16, 1.300000000000140e-03, 3.287565514764584e-05, -4.519686870191636e-07, -1.504991626203423e+01, 6.355494227387612e+01, 6.978960181983254e+02, 1.398003623977334e+03
999, 4.999999999958981e-05, 1.299999999999644e-03, 3.284758117682804e-05, -2.880986486266510e-06, -2.260804509819332e+01, -4.755039495986720e+03, 4.347744296668815e+02, 4.811654877079977e+03
1000, 9.999999999968445e-05, 1.299999999999148e-03, 3.288814484360345e-05, -5.316114250654330e-06, -2.792278476515821e+01, -9.574488948365384e+03, 1.148031156646645e+02, 9.549326915414615e+03
1001, 1.499999999998191e-04, 1.299999999998652e-03, 3.299750516525605e-05, -7.760114632357965e-06, -3.132182025645398e+01, -1.439411481210724e+04, -2.625919347727532e+02, 1.437239161112683e+04
1002, 1.999999999999157e-04, 1.299999999998155e-03, 3.317580728790892e-05, -1.021576618053085e-05, -3.314498843142246e+01, -1.921322057722207e+04, -6.979906399857941e+02, 1.923081026181044e+04
1003, -2.000000000000587e-04, 1.200000000001781e-03, 2.887644515318423e-05, 8.688940664430740e-06, 3.597697636792100e+01, 1.977229459111972e+04, 1.151282636092839e+03, 1.987017966257572e+04
1004, -1.500000000001450e-04, 1.200000000001350e-03, 2.857803860363760e-05, 6.425594252198926e-06, 1.528393583081561e+01, 1.485217290913033e+04, 1.123324676936544e+03, 1.500602238187306e+04
1005, -1.000000000002543e-04, 1.200000000000919e-03, 2.834903398196209e-05, 4.167284386073848e-06, -1.293593647462785e+00, 9.928044538065833e+03, 1.040167093320672e+03, 1.014492710974329e+04
1006, -5.000000000035367e-05, 1.200000000000488e-03, 2.818966559266252e-05, 1.911280121877942e-06, -1.402531785516771e+01, 5.000508639615306e+03, 9.012339809304763e+02, 5.328643501319982e+03
1007, -4.872353741173022e-16, 1.200000000000057e-03, 2.810015499946760e-05, -3.451654076023111e-07, -2.319754829497288e+01, 7.017810135469517e+01, 7.059431813306835e+02, 1.414970711010176e+03
1008, 4.999999999957962e-05, 1.199999999999626e-03, 2.808071076976935e-05, -2.604815142663932e-06, -2.911160030418682e+01, -4.862318199535293e+03, 4.537062752193659e+02, 4.917650207929072e+03
1009, 9.999999999967686e-05, 1.199999999999196e-03, 2.813152824238301e-05, -4.870448214465013e-06, -3.208049279423994e+01, -9.796331096187785e+03, 1.439290049949782e+02, 9.768492825394642e+03
1010, 1.499999999998148e-04, 1.199999999998765e-03, 2.825278927470797e-05, -7.144860058804957e-06, -3.242564161256541e+01, -1.473118728792423e+04, -2.239885063871579e+02, 1.470558660302461e+04
1011, 1.999999999999137e-04, 1.199999999998334e-03, 2.844466202484317e-05, -9.430862564432992e-06, -3.047522585989600e+01, -1.966618842808128e+04, -6.506515022323879e+02, 1.967878610253488e+04
1012, -2.000000000000607e-04, 1.100000000001707e-03, 2.442550433129583e-05, 8.088578217980214e-06, 2.813127298546260e+01, 2.023336056686835e+04, 1.104940227873509e+03, 2.032571923566484e+04
1013, -1.500000000001494e-04, 1.100000000001301e-03, 2.412898311596146e-05, 5.997661948657602e-06, 6.177665617172806e+00, 1.520065867637354e+04, 1.091460174188952e+03, 1.535048515303664e+04
1014, -1.000000000002619e-04, 1.100000000000895e-03, 2.390341407696425e-05, 3.912048959141597e-06, -1.094104830874198e+01, 1.016331936675838e+04, 1.022191941232771e+03, 1.037762402732373e+04
1015, -5.000000000036384e-05, 1.100000000000489e-03, 2.374905431223552e-05, 1.828978073999705e-06, -2.347872298981883e+01, 5.121947218634466e+03, 8.965411377301061e+02, 5.448903758308614e+03
1016, -5.000628410705213e-16, 1.100000000000083e-03, 2.366614837691924e-05, -2.543282888512076e-07, -3.171823749408077e+01, 7.713479107130274e+01, 7.139058949211533e+02, 1.431955128151908e+03
1017, 4.999999999956943e-05, 1.099999999999677e-03, 2.365492823507466e-05, -2.340664341470668e-06, -3.596944409603157e+01, -4.970529626659857e+03, 4.736733059582184e+02, 5.024674098730573e+03
1018, 9.999999999966927e-05, 1.099999999999272e-03, 2.371561300466361e-05, -4.432841168399105e-06, -3.655476578960111e+01, -1.002043416501007e+04, 1.752181302843745e+02, 9.990027699205863e+03
1019, 1.499999999998105e-04, 1.099999999998866e-03, 2.384840863930911e-05, -6.533686936642258e-06, -3.379332400868952e+01, -1.507191604215582e+04, -1.820928452891600e+02, 1.504253190467864e+04
1020, 1.999999999999118e-04, 1.099999999998460e-03, 2.405350744158859e-05, -8.646047021908135e-06, -2.799657903249931e+01, -2.012425644540778e+04, -5.988954158052260e+02, 2.013192398885848e+04
1021, -2.000000000000626e-04, 1.000000000002109e-03, 2.032593255618236e-05, 7.457285045404441e-06, 2.028846018396393e+01, 2.069962382029955e+04, 1.053981675840827e+03, 2.078649610752518e+04
1022, -1.500000000001537e-04, 1.000000000001674e-03, 2.003078570008260e-05, 5.542726869421042e-06, -3.112816573866667e+00, 1.555305805944412e+04, 1.056092359355308e+03, 1.569891004528101e+04
1023, -1.000000000002696e-04, 1.000000000001239e-03, 1.980815719601774e-05, 3.633753567192233e-06, -2.090738340370194e+01, 1.040126552302534e+04, 1.001817387433223e+03, 1.061302220870934e+04
1024, -5.000000000037402e-05, 1.000000000000804e-03, 1.965832697009981e-05, 1.727573475892295e-06, -3.331721663522126e+01, 5.244889658103119e+03, 8.905649105711874e+02, 5.570627545644902e+03
1025, -5.128852258260569e-16, 1.000000000000369e-03, 1.958156278564737e-05, -1.786210224325815e-07, -4.063339168287280e+01, 8.446249584585030e+01, 7.217344358644489e+02, 1.448879347884735e+03
1026, 4.999999999955924e-05, 9.999999999999337e-04, 1.957812071624828e-05, -2.087654062293863e-06, -4.319655005373374e+01, -5.079548212811867e+03, 4.946919853969416e+02, 5.132613244014250e+03
1027, 9.999999999966167e-05, 9.999999999994987e-04, 1.964824535477286e-05, -4.002367523127095e-06, -4.136360985106717e+01, -1.024664432303137e+04, 2.087660586756713e+02, 1.021381845853106e+04
1028, 1.499999999998061e-04, 9.999999999990637e-04, 1.979216877287283e-05, -5.925622132122816e-06, -3.547087556409497e+01, -1.541620298825541e+04, -1.367391324953895e+02, 1.538316322099574e+04
1029, 1.999999999999099e-04, 9.999999999986283e-04, 2.001010931853211e-05, -7.860297714947278e-06, -2.580323315741202e+01, -2.058743216042609e+04, -5.425123173990341e+02, 2.059023707004878e+04
1030, -2.000000000000644e-04, 9.000000000025380e-04, 1.658590737441055e-05, 6.795805208597264e-06, 1.253493616065248e+01, 2.117106762234859e+04, 9.982520337789955e+02, 2.125251829605750e+04
1031, -1.500000000001581e-04, 9.000000000020734e-04, 1.629158477060773e-05, 5.061579126836876e-06, -1.253896854521008e+01, 1.590923612867815e+04, 1.017089159338775e+03, 1.605119321666585e+04
1032, -1.000000000002772e-04, 9.000000000016087e-04, 1.607136347408382e-05, 3.333232314836059e-06, -3.115107847141803e+01, 1.064174838400719e+04, 9.789008940320934e+02, 1.085098017588842e+04
1033, -5.000000000038420e-05, 9.000000000011442e-04, 1.592554497346233e-05, 1.607941121178549e-06, -4.353297496188725e+01, 5.369276072108879e+03, 8.831613470544604e+02, 5.693715626879809e+03
1034, -5.256991402521199e-16, 9.000000000006796e-04, 1.585441870982072e-05, -1.171298984419248e-07, -4.997965495317248e+01, 9.222356631244793e+01, 7.293220705281017e+02, 1.465559444845520e+03
1035, 4.999999999954906e-05, 9.000000000002148e-04, 1.585826561863173e-05, -1.844830293173116e-06, -5.086821121826870e+01, -5.189206918244715e+03, 5.167463216528517e+02, 5.241243336451115e+03
1036, 9.999999999965402e-05, 8.999999999997502e-04, 1.593735811369752e-05, -3.578028603577161e-06, -4.660302797268810e+01, -1.047477008888845e+04, 2.446749332797811e+02, 1.043964230911530e+04
1037, 1.499999999998018e-04, 8.999999999992857e-04, 1.609195867681798e-05, -5.319617062914082e-06, -3.754766142121321e+01, -1.576393039792269e+04, -8.771896557599860e+01, 1.572736126763224e+04
1038, 1.999999999999080e-04, 8.999999999988212e-04, 1.632231507109803e-05, -7.072513134494125e-06, -2.402340525727459e+01, -2.105580223216296e+04, -4.812479630427692e+02, 2.105379108454365e+04
1039, -2.000000000000664e-04, 8.000000000027327e-04, 1.321370792058950e-05, 6.104965175828651e-06, 4.806170235210175e+00, 2.164757030359681e+04, 9.375737119852146e+02, 2.172384443863347e+04
1040, -1.500000000001624e-04, 8.000000000022627e-04, 1.291961795279532e-05, 4.555096442571205e-06, -2.185714361284045e+01, 1.626934593956391e+04, 9.742824475576143e+02, 1.640732162931486e+04
1041, -1.000000000002848e-04, 8.000000000017928e-04, 1.270123011581079e-05, 3.011407671385423e-06, -4.126494851911593e+01, 1.088515549671887e+04, 9.532830508212606e+02, 1.109151288355412e+04
1042, -5.000000000039436e-05, 8.000000000013229e-04, 1.255886341618571e-05, 1.471040940889827e-06, -5.380770627496781e+01, 5.495494955586320e+03, 8.741934613452814e+02, 5.818214233282938e+03
1043, -5.385198309417610e-16, 8.000000000008525e-04, 1.249282812569398e-05, -6.886184652084045e-08, -5.979630217937688e+01, 1.005067301103888e+02, 7.365918581324230e+02, 1.481879659091519e+03
1044, 4.999999999953886e-05, 8.000000000003829e-04, 1.250342948137666e-05, -1.611164738329908e-06, -5.938702901355850e+01, -5.299750230274204e+03, 5.398358649130411e+02, 5.350429658009941e+03
1045, 9.999999999964645e-05, 7.999999999999128e-04, 1.259097247501300e-05, -3.158752749090324e-06, -5.276334777041279e+01, -1.070513706993225e+04, 2.830508401811461e+02, 1.066740535599511e+04
1046, 1.499999999997974e-04, 7.999999999994429e-04, 1.275575443309174e-05, -4.714546386755469e-06, -4.033525500550877e+01, -1.611529877844416e+04, -3.482607091397938e+01, 1.607511442263303e+04
1047, 1.999999999999061e-04, 7.999999999989728e-04, 1.299805917657373e-05, -6.281506368612989e-06, -2.264055942856407e+01, -2.152942187783740e+04, -4.148351559629027e+02, 2.152277852658318e+04
1048, -2.000000000000683e-04, 7.000000000024487e-04, 1.021773824248981e-05, 5.385675894996482e-06, -3.682524924571908e+00, 2.212838621067814e+04, 8.714282445840262e+02, 2.220058592153095e+04
1049, -1.500000000001667e-04, 7.000000000020254e-04, 9.923239410390277e-06, 4.024236225715442e-06, -3.045056910388371e+01, 1.663495053919175e+04, 9.272037591249077e+02, 1.676825635968519e+04
1050, -1.000000000002923e-04, 7.000000000016023e-04, 9.706049370051711e-06, 2.669276275847739e-06, -4.945279145231325e+01, 1.113489101828305e+04, 9.248615748397567e+02, 1.133627020606098e+04
1051, -5.000000000040459e-05, 7.000000000011791e-04, 9.566512865829928e-06, 1.317907221851967e-06, -6.261085677616552e+01, 5.626352967298040e+03, 8.640651412910457e+02, 5.945649137411514e+03
1052, -5.513337453678241e-16, 7.000000000007558e-04, 9.504966675649972e-06, -3.274156646468050e-08, -7.004663477016470e+01, 1.094060586356120e+02, 7.441718955340286e+02, 1.499123246961845e+03
1053, 4.999999999952868e-05, 7.000000000003326e-04, 9.521751720414170e-06, -1.385538379043823e-06, -7.026636523840216e+01, -5.413861683770684e+03, 5.644503483491642e+02, 5.461540781798309e+03
1054, 9.999999999963887e-05, 6.999999999999092e-04, 9.617199458790162e-06, -2.743375185386441e-06, -6.174516037184071e+01, -1.094116959402461e+04, 3.239901898571466e+02, 1.089870426151915e+04
1055, 1.499999999997930e-04, 6.999999999994860e-04, 9.791640896984465e-06, -4.109193637201353e-06, -4.457960276471908e+01, -1.647199795169161e+04, 2.181043377154305e+01, 1.642747626358794e+04
1056, 1.999999999999042e-04, 6.999999999990628e-04, 1.004539102471166e-05, -5.485998811531613e-06, -2.091460623544708e+01, -2.200777347658696e+04, -3.433268450653667e+02, 2.199757841842881e+04
1057, -2.000000000000702e-04, 6.000000000020976e-04, 7.606597893432879e-06, 4.638939620530604e-06, -1.688991726443851e+01, 2.260935053015808e+04, 7.977074421814325e+02, 2.268241842127566e+04
1058, -1.500000000001711e-04, 6.000000000017323e-04, 7.310960722683794e-06, 3.469973592584048e-06, -3.652355645878856e+01, 1.701313130896317e+04, 8.739412667457700e+02, 1.713901468524056e+04
1059, -1.000000000003000e-04, 6.000000000013669e-04, 7.094190933827768e-06, 2.307798712430983e-06, -5.075135403943864e+01, 1.140440938114612e+04, 8.939641352714866e+02, 1.159385160201491e+04
1060, -5.000000000041474e-05, 6.000000000010013e-04, 6.956701367453335e-06, 1.149565725885491e-06, -6.568818387679676e+01, 5.772392123273635e+03, 8.556575247164583e+02, 6.083730834870430e+03
1061, -5.641662945187267e-16, 6.000000000006360e-04, 6.898955981883186e-06, -7.605444739403457e-09, -8.038814871430759e+01, 1.189461058082263e+02, 7.561421352183745e+02, 1.525364828372696e+03
1062, 4.999999999951849e-05, 6.000000000002706e-04, 6.921354171950078e-06, -1.166646196121201e-06, -8.731408848305091e+01, -5.542167339770870e+03, 5.933617869211579e+02, 5.582448999659412e+03
1063, 9.999999999963128e-05, 5.999999999999052e-04, 7.024235787676158e-06, -2.330516750366680e-06, -7.849232976975054e+01, -1.119660846216721e+04, 3.677167860917340e+02, 1.114241306327185e+04
1064, 1.499999999997888e-04, 5.999999999995398e-04, 7.207868633577145e-06, -3.502179642303962e-06, -5.235909242509160e+01, -1.684146884079601e+04, 8.035905084710356e+01, 1.678987898857688e+04
1065, 1.999999999999023e-04, 5.999999999991742e-04, 7.472561277647791e-06, -4.684618135650035e-06, -1.494247909324417e+01, -2.248688593555868e+04, -2.684364275062873e+02, 2.247835570438882e+04
1066, -2.000000000000721e-04, 5.000000000017480e-04, 5.389196055957770e-06, 3.865912886313227e-06, -4.148058573043522e+01, 2.308228507350529e+04, 7.093704684725957e+02, 2.316724765934472e+04
1067, -1.500000000001754e-04, 5.000000000014432e-04, 5.091530679596293e-06, 2.893058309642440e-06, -3.703369464959337e+01, 1.742488561292536e+04, 8.089156499141484e+02, 1.753670448000317e+04
1068, -1.000000000003076e-04, 5.000000000011384e-04, 4.873976365204757e-06, 1.927497935538477e-06, -4.037887100833154e+01, 1.172525981353224e+04, 8.623319377854190e+02, 1.189137162563077e+04
1069, -5.000000000042491e-05, 5.000000000008338e-04, 4.737348920167787e-06, 9.667341674802348e-07, -5.910214080002788e+01, 5.956583686164498e+03, 8.595445814707584e+02, 6.256496105559792e+03
1070, -5.769852911424733e-16, 5.000000000005289e-04, 4.682498814736325e-06, 7.811800196157197e-09, -9.005851246638963e+01, 1.286366244867856e+02, 7.863520937032098e+02, 1.587836900948159e+03
1071, 4.999999999950832e-05, 5.000000000002242e-04, 4.710093811554280e-06, -9.526717451342135e-07, -1.129234607835563e+02, -5.708291555422486e+03, 6.366894868643359e+02, 5.738435163460294e+03
1072, 9.999999999962365e-05, 4.999999999999196e-04, 4.820270387890806e-06, -1.918155896968983e-06, -1.069939245015867e+02, -1.150358983875282e+04, 4.152603294067386e+02, 1.142681771086963e+04
1073, 1.499999999997844e-04, 4.999999999996149e-04, 5.012973418618795e-06, -2.891698991477154e-06, -6.689500827335837e+01, -1.724544084421511e+04, 1.346196172803688e+02, 1.718065559875346e+04
1074, 1.999999999999003e-04, 4.999999999993100e-04, 5.288173429812236e-06, -3.875946757435509e-06, 1.697309634361091e+00, -2.295882838099281e+04, -1.972273935949935e+02, 2.296391374676990e+04
1075, -2.000000000000740e-04, 4.000000000013997e-04, 3.574710088857044e-06, 3.067996867233952e-06, -8.783627411302973e+01, 2.353158802291989e+04, 5.893028262730631e+02, 2.364881213523172e+04
1076, -1.500000000001797e-04, 4.000000000011572e-04, 3.273625242538112e-06, 2.293385050523534e-06, -1.945911021532834e+01, 1.792636702414183e+04, 7.212403420744145e+02, 1.800370590097269e+04
1077, -1.000000000003152e-04, 4.000000000009148e-04, 3.053313242159902e-06, 1.527599659219635e-06, -3.049101943071037e+01, 1.213583450520649e+04, 8.391468517523497e+02, 1.228153681453027e+04
1078, -5.000000000043512e-05, 4.000000000006724e-04, 2.915509800752484e-06, 7.692289663322872e-07, -9.302374704490080e+01, 6.152452714208923e+03, 8.982815949861972e+02, 6.498739533451035e+03
1079, -5.898025937003254e-16, 4.000000000004300e-04, 2.862417555894292e-06, 1.490315702416751e-08, -9.855974499463355e+01, 1.361711530242726e+02, 8.627998938885185e+02, 1.741491665802888e+03
1080, 4.999999999949812e-05, 4.000000000001875e-04, 2.895017665248155e-06, -7.406431958135262e-07, -9.503521428548720e+01, -5.888823967186805e+03, 7.165741003104980e+02, 5.968408655428096e+03
1081, 9.999999999961606e-05, 3.999999999999452e-04, 3.013172154893046e-06, -1.502721586380661e-06, -1.313077233049876e+02, -1.190038880769442e+04, 4.745835581692647e+02, 1.180729383837260e+04
1082, 1.499999999997800e-04, 3.999999999997027e-04, 3.215534865066078e-06, -2.274834024570499e-06, -9.903779858638836e+01, -1.774039965608358e+04, 1.719170949928181e+02, 1.764471224297409e+04
1083, 1.999999999998984e-04, 3.999999999994603e-04, 3.501219527311099e-06, -3.058574505448258e-06, 3.874139087122148e+01, -2.340895397179282e+04, -1.481563807815518e+02, 2.344956756686489e+04
1084, -2.000000000000760e-04, 3.000000000010516e-04, 2.170636041059114e-06, 2.247112855635274e-06, -3.781375502773358e+01, 2.407992369676201e+04, 4.211259595169985e+02, 2.413243974588103e+04
1085, -1.500000000001842e-04, 3.000000000008717e-04, 1.864454433880037e-06, 1.668744115199964e-06, -2.197297992811968e+01, 1.852150625854831e+04, 6.303575074140406e+02, 1.858628592851243e+04
1086, -1.000000000003227e-04, 3.000000000006917e-04, 1.638091708310796e-06, 1.105455859326113e-06, -3.077376755954624e+02, 1.230520964487545e+04, 8.532514812914012e+02, 1.272786676824826e+04
1087, -5.000000000044532e-05, 3.000000000005118e-04, 1.497743073026001e-06, 5.569008495166287e-07, -2.548361478652537e+02, 6.213974569703227e+03, 9.859462011655310e+02, 6.762682289306500e+03
1088, -6.026207432911247e-16, 3.000000000003319e-04, 1.445659746709998e-06, 1.524853382598095e-08, -1.071414715126323e+02, 1.362263933256197e+02, 9.825366251504896e+02, 1.980086057898592e+03
1089, 4.999999999948792e-05, 3.000000000001520e-04, 1.482753860289008e-06, -5.272665413375773e-07, 5.181639174163934e+01, -5.948740054875554e+03, 8.474393178948324e+02, 6.235326074801173e+03
1090, 9.999999999960845e-05, 2.999999999999720e-04, 1.608967639284129e-06, -1.078443935834070e-06, 1.381312223057892e+02, -1.206163299907502e+04, 5.744416683842169e+02, 1.225374146857960e+04
1091, 1.499999999997756e-04, 2.999999999997920e-04, 1.822894349993382e-06, -1.646240236656832e-06, -9.836523942575832e+01, -1.832385424731930e+04, 2.088310379886393e+02, 1.823027402938743e+04
1092, 1.999999999998966e-04, 2.999999999996122e-04, 2.119240239578157e-06, -2.231257171947987e-06, -2.006449971000643e+01, -2.396035648587221e+04, -1.427613817994433e+02, 2.394199456250952e+04
1093, -2.000000000000778e-04, 2.000000000007014e-04, 1.173361426559984e-06, 1.403156079048081e-06, 2.865662587319382e+02, 2.483253064169673e+04, 3.264282834097224e+02, 2.455464496152642e+04
1094, -1.500000000001885e-04, 2.000000000005817e-04, 8.587278117436515e-07, 1.016814844584861e-06, -1.243363695981701e+03, 1.745317644785463e+04, 6.653289342589808e+02, 1.874383268472946e+04
1095, -1.000000000003304e-04, 2.000000000004620e-04, 6.328516768221809e-07, 6.671503302018987e-07, -9.215363736635663e+02, 1.156982126484731e+04, 8.977587114777810e+02, 1.261974240899239e+04
1096, -5.000000000045550e-05, 2.000000000003424e-04, 4.958090819947884e-07, 3.349205954755521e-07, -5.145023011104627e+02, 5.828154265877049e+03, 9.446109019387491e+02, 6.618039842052625e+03
1097, -6.154388928819240e-16, 2.000000000002227e-04, 4.466738798148478e-07, 1.076999162776648e-08, -1.189037866018898e+02, 1.173705029623902e+02, 9.236299056637679e+02, 1.862308876221919e+03
1098, 4.999999999947777e-05, 2.000000000001030e-04, 4.852831305226385e-07, -3.138962616990353e-07, 2.900023739023932e+02, -5.598836153315531e+03, 8.503022627945131e+02, 6.129475911699143e+03
1099, 9.999999999960084e-05, 1.999999999999833e-04, 6.125870671747207e-07, -6.477075884228954e-07, 7.377015502767995e+02, -1.135599004635159e+04, 7.068033055715996e+02, 1.217602809151768e+04
1100, 1.499999999997714e-04, 1.999999999998636e-04, 8.303277234186038e-07, -1.000074334082560e-06, 1.130999547275889e+03, -1.725760810052419e+04, 3.726123253182186e+02, 1.840370210051900e+04
1101, 1.999999999998946e-04, 1.999999999997439e-04, 1.139195548117221e-06, -1.390322930532092e-06, -3.307523059526459e+02, -2.469961408082824e+04, -7.282791383955544e+01, 2.436929707281541e+04
1102, -2.000000000000798e-04, 1.000000000003506e-04, 5.165030742511376e-07, 5.411551981090071e-07, -7.773825954908828e+03, 1.383581097701603e+04, 1.425656072012441e+03, 2.179693531834865e+04
1103, -1.500000000001928e-04, 1.000000000002906e-04, 2.428149179858497e-07, 3.894678169867987e-07, -3.626338897596518e+03, 1.167071013534682e+04, 1.151394232840810e+03, 1.546940670594542e+04
1104, -1.000000000003380e-04, 1.000000000002307e-04, 5.942547205480624e-08, 2.535449107057112e-07, -1.510517114503413e+03, 8.374863611831448e+03, 4.425129276166047e+02, 9.924919287783856e+03
1105, -5.000000000046567e-05, 1.000000000001708e-04, -4.754751451269545e-08, 1.270460992186401e-07, -5.780199453998148e+02, 4.355550020232127e+03, -5.510957273847566e+00, 4.933582277451737e+03
1106, -6.282434899455673e-16, 1.000000000001108e-04, -8.467750785424268e-08, 4.173540864139694e-09, -1.177200828995021e+02, 6.077962197921829e+01, -1.793694245332762e+02, 4.006940309904615e+02
1107, 4.999999999946757e-05, 1.000000000000509e-04, -5.388514474968777e-08, -1.189317217349221e-07, 3.484438699671196e+02, -4.241939124999500e+03, -6.669048470999508e+01, 4.592320385543906e+03
1108, 9.999999999959325e-05, 9.999999999999091e-05, 4.725083349911506e-08, -2.461609702425453e-07, 1.303632548158494e+03, -8.282076663955973e+03, 3.178693336127956e+02, 9.606767653702358e+03
1109, 1.499999999997670e-04, 9.999999999993101e-05, 2.258838054438906e-07, -3.834293788731052e-07, 3.481285317741771e+03, -1.159643614057648e+04, 9.593548370169151e+02, 1.519931351041427e+04
1110, 1.999999999998927e-04, 9.999999999987105e-05, 4.967144269347732e-07, -5.370393785172397e-07, 7.753430980174992e+03, -1.374113275560266e+04, 1.149468694665824e+03, 2.161715483849516e+04
