"PointID","x","y","Displacement_x","Displacement_y","Sxx","Syy","Sxy","Von_Mises_Stress"
0, -2.500000000000000e-04, 0.000000000000000e+00, 0.000000000000000e+00, 0.000000000000000e+00, 4.578371942856207e+04, 5.594916754476653e+04, 5.758867227058238e+03, 1.536211386361872e+04
1, 2.500000000000000e-04, 0.000000000000000e+00, 0.000000000000000e+00, 0.000000000000000e+00, -4.629705555286336e+04, -5.659222932932821e+04, 5.644310412260503e+03, 1.527820549696264e+04
2, 2.500000000000000e-04, 1.000000000000000e-02, 8.810065941676142e-04, -7.402587089927496e-05, 2.147498934730224e+01, 1.841716812037726e+01, 3.034282753623453e+00, 6.795421839119329e+00
3, -2.500000000000000e-04, 1.000000000000000e-02, 8.845114002739762e-04, -1.495617989369960e-05, 1.217760485402736e+01, 4.225403252584701e+01, 3.522229943247028e+00, 3.089038550407914e+01
4, -2.000000000000817e-04, 0.000000000000000e+00, 0.000000000000000e+00, 0.000000000000000e+00, 3.092761500007512e+04, 3.779633069660416e+04, 3.280857860337135e+03, 9.499229890822107e+03
5, -1.500000000001972e-04, 0.000000000000000e+00, 0.000000000000000e+00, 0.000000000000000e+00, 2.226677706400443e+04, 2.721848297371133e+04, 1.536028306785212e+03, 5.827256923562572e+03
6, -1.000000000003456e-04, 0.000000000000000e+00, 0.000000000000000e+00, 0.000000000000000e+00, 1.449868986959258e+04, 1.772307734102820e+04, 3.683017087170772e+02, 3.307455088210072e+03
7, -5.000000000047588e-05, 0.000000000000000e+00, 0.000000000000000e+00, 0.000000000000000e+00, 7.257710977469445e+03, 8.870377547026168e+03, -3.112841068884380e+02, 1.728665567821371e+03
8, -6.410887445906788e-16, 0.000000000000000e+00, 0.000000000000000e+00, 0.000000000000000e+00, 2.110586698521854e+02, 2.565726715015759e+02, -5.449869277458281e+02, 1.090923704940674e+03
9, 4.999999999945738e-05, 0.000000000000000e+00, 0.000000000000000e+00, 0.000000000000000e+00, -6.862692180221589e+03, -8.388012255466319e+03, -3.453807269652700e+02, 1.674441016632367e+03
10, 9.999999999958566e-05, 0.000000000000000e+00, 0.000000000000000e+00, 0.000000000000000e+00, -1.418627389814782e+04, -1.733639844174098e+04, 3.026115955552116e+02, 3.207737481653675e+03
11, 1.499999999997626e-04, 0.000000000000000e+00, 0.000000000000000e+00, 0.000000000000000e+00, -2.209811760065493e+04, -2.700502080811034e+04, 1.444143241833848e+03, 5.693847372302303e+03
12, 1.999999999998909e-04, 0.000000000000000e+00, 0.000000000000000e+00, 0.000000000000000e+00, -3.095618636026422e+04, -3.783856757903048e+04, 3.172241285636950e+03, 9.360535793298641e+03
13, 2.500000000000000e-04, 9.999999999981111e-05, 7.116806950015075e-07, -6.440545609549375e-07, 2.464165058827445e+03, -1.898398954459468e+04, 1.424833312054309e+03, 2.163663411348578e+04
14, 2.500000000000000e-04, 1.999999999996242e-04, 1.221741580035145e-06, -1.453590531084211e-06, -4.963910369278834e+03, -2.757575125064991e+04, -2.446219209481839e+02, 2.261713305397653e+04
15, 2.500000000000000e-04, 2.999999999994322e-04, 2.009808115901311e-06, -2.273088911036970e-06, -5.289471942473074e+03, -2.800240424071309e+04, -1.865713016163295e+02, 2.271599720432238e+04
16, 2.500000000000000e-04, 3.999999999992179e-04, 3.116042937238768e-06, -3.098314629814880e-06, -5.767465232288434e+03, -2.826352300825120e+04, -2.193888255378366e+02, 2.250033647051836e+04
17, 2.500000000000000e-04, 4.999999999990053e-04, 4.546928620798558e-06, -3.916066069348613e-06, -5.782823237015371e+03, -2.788070531514836e+04, -2.679209830882108e+02, 2.210437782322287e+04
18, 2.500000000000000e-04, 5.999999999988090e-04, 6.297176147742039e-06, -4.723476627718252e-06, -5.700521962973917e+03, -2.734581347870768e+04, -3.265680215815057e+02, 2.165514330342735e+04
19, 2.500000000000000e-04, 6.999999999986395e-04, 8.360080746670937e-06, -5.520387647043849e-06, -5.584563205430275e+03, -2.676757036607193e+04, -3.841541357531744e+02, 2.119693586271046e+04
20, 2.500000000000000e-04, 7.999999999985029e-04, 1.072889170782176e-05, -6.307623573013302e-06, -5.464795815758760e+03, -2.618869160250181e+04, -4.383443753698278e+02, 2.074243090251140e+04
21, 2.500000000000000e-04, 8.999999999983563e-04, 1.339706202096796e-05, -7.086146464033165e-06, -5.346490715526585e+03, -2.561663389329998e+04, -4.885390851704618e+02, 2.029367847873791e+04
22, 2.500000000000000e-04, 9.999999999981935e-04, 1.635818539059447e-05, -7.856875605540946e-06, -5.230422416322519e+03, -2.505201905137940e+04, -5.348452589979709e+02, 1.985043906232778e+04
23, 2.500000000000000e-04, 1.099999999998054e-03, 1.960594856402029e-05, -8.620657986097308e-06, -5.116212762552100e+03, -2.449417626498377e+04, -5.774422385957313e+02, 1.941234729900616e+04
24, 2.500000000000000e-04, 1.199999999997903e-03, 2.313410972487941e-05, -9.378277666721019e-06, -5.003592913830662e+03, -2.394273137689682e+04, -6.164983091153246e+02, 1.897923197560324e+04
25, 2.500000000000000e-04, 1.299999999997659e-03, 2.693649283612502e-05, -1.013046441712504e-05, -4.892433266001733e+03, -2.339756404492125e+04, -6.521607827703009e+02, 1.855104093821285e+04
26, 2.500000000000000e-04, 1.399999999997322e-03, 3.100698713502504e-05, -1.087789865702072e-05, -4.782679155971482e+03, -2.285866767628896e+04, -6.845665950358502e+02, 1.812776562841668e+04
27, 2.500000000000000e-04, 1.499999999997028e-03, 3.533954772175434e-05, -1.162121419567093e-05, -4.674299438054763e+03, -2.232606459993097e+04, -7.138473860425670e+02, 1.770940783008472e+04
28, 2.500000000000000e-04, 1.599999999996764e-03, 3.992819610826050e-05, -1.236100020693940e-05, -4.567270106694293e+03, -2.179978014247911e+04, -7.401312961907211e+02, 1.729597003569988e+04
29, 2.500000000000000e-04, 1.699999999996466e-03, 4.476702063955901e-05, -1.309780302327875e-05, -4.461569360153693e+03, -2.127983618548833e+04, -7.635436613315507e+02, 1.688745376601192e+04
30, 2.500000000000000e-04, 1.799999999996210e-03, 4.985017682207378e-05, -1.383212785057846e-05, -4.357175313814218e+03, -2.076624943540293e+04, -7.842070653822572e+02, 1.648385987605373e+04
31, 2.500000000000000e-04, 1.899999999995898e-03, 5.517188750861750e-05, -1.456444046841398e-05, -4.254071983411445e+03, -2.025903752226093e+04, -8.022409949339815e+02, 1.608518835312693e+04
32, 2.500000000000000e-04, 1.999999999995521e-03, 6.072644328169777e-05, -1.529516893274012e-05, -4.152239403689479e+03, -1.975821068910830e+04, -8.177624782214746e+02, 1.569143975690135e+04
33, 2.500000000000000e-04, 2.099999999995151e-03, 6.650820250935311e-05, -1.602470517059906e-05, -4.051663803459260e+03, -1.926378068135009e+04, -8.308854657889133e+02, 1.530261358512487e+04
34, 2.500000000000000e-04, 2.199999999994897e-03, 7.251159163949038e-05, -1.675340661698285e-05, -3.952330770777757e+03, -1.877575563703552e+04, -8.417211553848599e+02, 1.491870982287941e+04
35, 2.500000000000000e-04, 2.299999999994653e-03, 7.873110534866228e-05, -1.748159776208662e-05, -3.854225984456389e+03, -1.829414040469921e+04, -8.503782195455850e+02, 1.453972836503648e+04
36, 2.500000000000000e-04, 2.399999999994409e-03, 8.516130658796547e-05, -1.820957166878666e-05, -3.757342376469433e+03, -1.781894311925601e+04, -8.569622953855202e+02, 1.416566810822510e+04
37, 2.500000000000000e-04, 2.499999999994080e-03, 9.179682691118249e-05, -1.893759148409308e-05, -3.661671190832847e+03, -1.735016841309216e+04, -8.615759336529916e+02, 1.379652885915877e+04
38, 2.500000000000000e-04, 2.599999999993751e-03, 9.863236662565170e-05, -1.966589191234863e-05, -3.567201255504845e+03, -1.688781606909081e+04, -8.643196821278930e+02, 1.343231078644253e+04
39, 2.500000000000000e-04, 2.699999999993507e-03, 1.056626947469413e-04, -2.039468058368099e-05, -3.473927307414705e+03, -1.643188831815742e+04, -8.652912182958057e+02, 1.307301300870491e+04
40, 2.500000000000000e-04, 2.799999999993264e-03, 1.128826491944697e-04, -2.112413946471823e-05, -3.381845807275849e+03, -1.598238693605439e+04, -8.645852930492499e+02, 1.271863466154554e+04
41, 2.500000000000000e-04, 2.899999999993009e-03, 1.202871370028698e-04, -2.185442619642249e-05, -3.290949500832106e+03, -1.553930862606912e+04, -8.622942117097635e+02, 1.236917565931414e+04
42, 2.500000000000000e-04, 2.999999999992623e-03, 1.278711342327892e-04, -2.258567540016473e-05, -3.201240808671395e+03, -1.510265650565963e+04, -8.585074313292871e+02, 1.202463453212231e+04
43, 2.500000000000000e-04, 3.099999999992220e-03, 1.356296863631483e-04, -2.331799997839425e-05, -3.112711817754361e+03, -1.467242358572851e+04, -8.533120417414063e+02, 1.168501184941476e+04
44, 2.500000000000000e-04, 3.199999999991949e-03, 1.435579080855814e-04, -2.405149233071490e-05, -3.025362092548002e+03, -1.424860721179874e+04, -8.467930141309162e+02, 1.135030680827215e+04
45, 2.500000000000000e-04, 3.299999999991705e-03, 1.516509834550762e-04, -2.478622555509374e-05, -2.939191662341460e+03, -1.383120375374077e+04, -8.390324652925954e+02, 1.102051855905377e+04
46, 2.500000000000000e-04, 3.399999999991461e-03, 1.599041660007278e-04, -2.552225462613482e-05, -2.854201509826633e+03, -1.342020953774282e+04, -8.301097546998753e+02, 1.069564651927974e+04
47, 2.500000000000000e-04, 3.499999999991149e-03, 1.683127788580294e-04, -2.625961755814593e-05, -2.770387694584052e+03, -1.301561527507113e+04, -8.201024928249960e+02, 1.037569084788691e+04
48, 2.500000000000000e-04, 3.599999999990803e-03, 1.768722145934736e-04, -2.699833645380841e-05, -2.687753534163840e+03, -1.261741642680660e+04, -8.090858577844671e+02, 1.006065032006351e+04
49, 2.500000000000000e-04, 3.699999999990560e-03, 1.855779353347693e-04, -2.773841860802719e-05, -2.606308189817788e+03, -1.222561268393429e+04, -7.971318829855543e+02, 9.750522852956050e+03
50, 2.500000000000000e-04, 3.799999999990315e-03, 1.944254731860050e-04, -2.847985756379682e-05, -2.526046417785720e+03, -1.184019087732992e+04, -7.843105290506719e+02, 9.445308837575240e+03
51, 2.500000000000000e-04, 3.899999999990071e-03, 2.034104298770922e-04, -2.922263408997130e-05, -2.446970781370955e+03, -1.146114326083460e+04, -7.706901261574092e+02, 9.145007302990292e+03
52, 2.500000000000000e-04, 3.999999999989709e-03, 2.125284768372231e-04, -2.996671715737212e-05, -2.369085154246567e+03, -1.108846252232127e+04, -7.563364149906632e+02, 8.849616984788494e+03
53, 2.500000000000000e-04, 4.099999999989249e-03, 2.217753552904262e-04, -3.071206488788267e-05, -2.292392000092561e+03, -1.072213958742531e+04, -7.413129739223840e+02, 8.559136877475721e+03
54, 2.500000000000000e-04, 4.199999999988788e-03, 2.311468762132030e-04, -3.145862546469575e-05, -2.216895218326990e+03, -1.036216643149567e+04, -7.256813134575507e+02, 8.273566136248639e+03
55, 2.500000000000000e-04, 4.299999999988333e-03, 2.406389203650443e-04, -3.220633804539807e-05, -2.142600760170683e+03, -1.000853687218140e+04, -7.095006310152314e+02, 7.992904071730016e+03
56, 2.500000000000000e-04, 4.399999999988144e-03, 2.502474384402039e-04, -3.295513364022229e-05, -2.069507610190481e+03, -9.661238219589595e+03, -6.928286670524496e+02, 7.717151021798534e+03
57, 2.500000000000000e-04, 4.499999999988117e-03, 2.599684508073942e-04, -3.370493588716210e-05, -1.997625878193186e+03, -9.320266613872940e+03, -6.757206062982629e+02, 7.446305170683035e+03
58, 2.500000000000000e-04, 4.599999999988090e-03, 2.697980478509985e-04, -3.445566189958640e-05, -1.926959563270402e+03, -8.985612757054860e+03, -6.582291987085466e+02, 7.180365424005488e+03
59, 2.500000000000000e-04, 4.699999999988035e-03, 2.797323899740358e-04, -3.520722299504334e-05, -1.857507761897235e+03, -8.657263513581442e+03, -6.404057473268266e+02, 6.919332075236696e+03
60, 2.500000000000000e-04, 4.799999999987717e-03, 2.897677072536134e-04, -3.595952548222519e-05, -1.789282620737401e+03, -8.335216353745147e+03, -6.223001359286438e+02, 6.663203304240083e+03
61, 2.500000000000000e-04, 4.899999999987257e-03, 2.999002998577802e-04, -3.671247135956984e-05, -1.722283103135415e+03, -8.019457509433593e+03, -6.039596608825333e+02, 6.411978991795762e+03
62, 2.500000000000000e-04, 4.999999999986965e-03, 3.101265378259765e-04, -3.746595899767559e-05, -1.656515125241614e+03, -7.709979026498555e+03, -5.854298772768483e+02, 6.165657934775043e+03
63, 2.500000000000000e-04, 5.099999999987202e-03, 3.204428611546929e-04, -3.821988381292323e-05, -1.591983286200337e+03, -7.406771591981375e+03, -5.667546123820827e+02, 5.924238871253706e+03
64, 2.500000000000000e-04, 5.199999999987608e-03, 3.308457797600682e-04, -3.897413888443774e-05, -1.528693211393470e+03, -7.109826650056335e+03, -5.479757800300433e+02, 5.687720130435298e+03
65, 2.500000000000000e-04, 5.299999999988015e-03, 3.413318735452373e-04, -3.972861558151093e-05, -1.466646793046358e+03, -6.819132638825221e+03, -5.291337706939584e+02, 5.456100706403639e+03
66, 2.500000000000000e-04, 5.399999999988211e-03, 3.518977922695982e-04, -4.048320413631135e-05, -1.405848618225119e+03, -6.534680231282505e+03, -5.102674587305074e+02, 5.229379048496483e+03
67, 2.500000000000000e-04, 5.499999999988184e-03, 3.625402555492229e-04, -4.123779421306166e-05, -1.346305013247391e+03, -6.256461742758118e+03, -4.914137596371667e+02, 5.007553199018701e+03
68, 2.500000000000000e-04, 5.599999999988157e-03, 3.732560529680780e-04, -4.199227545704265e-05, -1.288019013201997e+03, -5.984466920296725e+03, -4.726077413759562e+02, 4.790621593581399e+03
69, 2.500000000000000e-04, 5.699999999988293e-03, 3.840420440368992e-04, -4.274653800571513e-05, -1.230993832736628e+03, -5.718685280757722e+03, -4.538830790464190e+02, 4.578582087330126e+03
70, 2.500000000000000e-04, 5.799999999988694e-03, 3.948951581349985e-04, -4.350047295040168e-05, -1.175233857921165e+03, -5.459107086228574e+03, -4.352720159482448e+02, 4.371431887571798e+03
71, 2.500000000000000e-04, 5.899999999989099e-03, 4.058123944444314e-04, -4.425397280812461e-05, -1.120742345938132e+03, -5.205722395057337e+03, -4.168056101081562e+02, 4.169168942148120e+03
72, 2.500000000000000e-04, 5.999999999989505e-03, 4.167908218731974e-04, -4.500693200514677e-05, -1.067524331354042e+03, -4.958523954300297e+03, -3.985133030983048e+02, 3.971791721220183e+03
73, 2.500000000000000e-04, 6.099999999989911e-03, 4.278275791824326e-04, -4.575924734932187e-05, -1.015581203243805e+03, -4.717501842524700e+03, -3.804229362941896e+02, 3.779299255334068e+03
74, 2.500000000000000e-04, 6.199999999990317e-03, 4.389198749439593e-04, -4.651081841051880e-05, -9.649198058450419e+02, -4.482650298811284e+03, -3.625602333547149e+02, 3.591688671417029e+03
75, 2.500000000000000e-04, 6.299999999990723e-03, 4.500649877295397e-04, -4.726154790362334e-05, -9.155333267200872e+02, -4.253951522136022e+03, -3.449508001530081e+02, 3.408958824273034e+03
76, 2.500000000000000e-04, 6.399999999990975e-03, 4.612602654661158e-04, -4.801134197287121e-05, -8.674366988300632e+02, -4.031404838315259e+03, -3.276184770931717e+02, 3.231103504038334e+03
77, 2.500000000000000e-04, 6.499999999990961e-03, 4.725031260960153e-04, -4.876011056431712e-05, -8.206284780795618e+02, -3.814995456951056e+03, -3.105843828084955e+02, 3.058117760900344e+03
78, 2.500000000000000e-04, 6.599999999990934e-03, 4.837910573953414e-04, -4.950776768268987e-05, -7.751008886190937e+02, -3.604704076717897e+03, -2.938694501010511e+02, 2.889998480433803e+03
79, 2.500000000000000e-04, 6.699999999991035e-03, 4.951216163066198e-04, -5.025423174449226e-05, -7.308691948019224e+02, -3.400529842017330e+03, -2.774944178543395e+02, 2.726738084057921e+03
80, 2.500000000000000e-04, 6.799999999991401e-03, 5.064924294869321e-04, -5.099942581518050e-05, -6.879278350960160e+02, -3.202455121200295e+03, -2.614774943603310e+02, 2.568332025418594e+03
81, 2.500000000000000e-04, 6.899999999991809e-03, 5.179011929647631e-04, -5.174327793034877e-05, -6.462821158284686e+02, -3.010472766546611e+03, -2.458352899984782e+02, 2.414774811898124e+03
82, 2.500000000000000e-04, 6.999999999992214e-03, 5.293456724366760e-04, -5.248572139556037e-05, -6.059181043727247e+02, -2.824560462090975e+03, -2.305846599660649e+02, 2.266065103457590e+03
83, 2.500000000000000e-04, 7.099999999992620e-03, 5.408237023254421e-04, -5.322669497994615e-05, -5.668482298285641e+02, -2.644717111384981e+03, -2.157424767415276e+02, 2.122196587034950e+03
84, 2.500000000000000e-04, 7.199999999993026e-03, 5.523331862729726e-04, -5.396614314985665e-05, -5.290878630280504e+02, -2.470943202788823e+03, -2.013212275863737e+02, 1.983159879400792e+03
85, 2.500000000000000e-04, 7.299999999993359e-03, 5.638720979321535e-04, -5.470401626550136e-05, -4.926056899658926e+02, -2.303201458120244e+03, -1.873336096707320e+02, 1.848954450738987e+03
86, 2.500000000000000e-04, 7.399999999993427e-03, 5.754384792519802e-04, -5.544027073260051e-05, -4.574253211855928e+02, -2.141498250300569e+03, -1.737927380844966e+02, 1.719568926743421e+03
87, 2.500000000000000e-04, 7.499999999993399e-03, 5.870304416035245e-04, -5.617486912739283e-05, -4.235379827716791e+02, -1.985809590776675e+03, -1.607089513428288e+02, 1.594992804167267e+03
88, 2.500000000000000e-04, 7.599999999993372e-03, 5.986461652502981e-04, -5.690778016366801e-05, -3.909493422314903e+02, -1.836121531110861e+03, -1.480895271086286e+02, 1.475210048659994e+03
89, 2.500000000000000e-04, 7.699999999993440e-03, 6.102838997823253e-04, -5.763897885798134e-05, -3.596368741242425e+02, -1.692397773682301e+03, -1.359419004031373e+02, 1.360210430974440e+03
90, 2.500000000000000e-04, 7.799999999993771e-03, 6.219419627152032e-04, -5.836844661926283e-05, -3.295941797570495e+02, -1.554618595334330e+03, -1.242764529837278e+02, 1.249985346244237e+03
91, 2.500000000000000e-04, 7.899999999994177e-03, 6.336187389713260e-04, -5.909617155332438e-05, -3.008473627441603e+02, -1.422790266375401e+03, -1.131023662169278e+02, 1.144519313940997e+03
92, 2.500000000000000e-04, 7.999999999994584e-03, 6.453126821949869e-04, -5.982214845974342e-05, -2.733791754314101e+02, -1.296882944368899e+03, -1.024249975132355e+02, 1.043802416883382e+03
93, 2.500000000000000e-04, 8.099999999994990e-03, 6.570223138419343e-04, -6.054637896451363e-05, -2.471846381820047e+02, -1.176878337930212e+03, -9.224986575123407e+01, 9.478241009153503e+02
94, 2.500000000000000e-04, 8.199999999995398e-03, 6.687462231992390e-04, -6.126887162393118e-05, -2.222641410044930e+02, -1.062759944002366e+03, -8.258152506840297e+01, 8.565699200809772e+02
95, 2.500000000000000e-04, 8.299999999995804e-03, 6.804830672450416e-04, -6.198964181149991e-05, -1.986163460640438e+02, -9.545055222537177e+02, -7.342307269468766e+01, 7.700209328949580e+02
96, 2.500000000000000e-04, 8.399999999996209e-03, 6.922315705511013e-04, -6.270871165461851e-05, -1.762344134741841e+02, -8.520845331005810e+02, -6.477549484231128e+01, 6.881546651206255e+02
97, 2.500000000000000e-04, 8.499999999996616e-03, 7.039905251634162e-04, -6.342610992047506e-05, -1.550952344925873e+02, -7.554509009888729e+02, -5.663914609540302e+01, 6.109491777356483e+02
98, 2.500000000000000e-04, 8.599999999997021e-03, 7.157587894160245e-04, -6.414187195344645e-05, -1.351901630705053e+02, -6.645707598187288e+02, -4.901574059383776e+01, 5.383808944579616e+02
99, 2.500000000000000e-04, 8.699999999997429e-03, 7.275352873854284e-04, -6.485603973932867e-05, -1.165278400058304e+02, -5.794217751164729e+02, -4.190670627213617e+01, 4.704205387571125e+02
100, 2.500000000000000e-04, 8.799999999997834e-03, 7.393190091951492e-04, -6.556866175239227e-05, -9.909801906860729e+01, -4.999658944312003e+02, -3.530989790657790e+01, 4.070407953245119e+02
101, 2.500000000000000e-04, 8.899999999997930e-03, 7.511090105890851e-04, -6.627979306992987e-05, -8.287594964406239e+01, -4.261579632560549e+02, -2.922383304181636e+01, 3.482221568770834e+02
102, 2.500000000000000e-04, 8.999999999997496e-03, 7.629044118867703e-04, -6.698949551507177e-05, -6.784523641951948e+01, -3.579591756562098e+02, -2.364949266132651e+01, 2.939443684644810e+02
103, 2.500000000000000e-04, 9.099999999997034e-03, 7.747043974804564e-04, -6.769783745288164e-05, -5.400851767421980e+01, -2.953391229107025e+02, -1.858387428489724e+01, 2.441759663798927e+02
104, 2.500000000000000e-04, 9.199999999996832e-03, 7.865082165087791e-04, -6.840489348219650e-05, -4.134067102015256e+01, -2.382289229947689e+02, -1.401800208135252e+01, 1.988743354358003e+02
105, 2.500000000000000e-04, 9.299999999997156e-03, 7.983151825458149e-04, -6.911074358540954e-05, -2.977596549746894e+01, -1.865054643784026e+02, -9.938523974696761e+00, 1.579849133767243e+02
106, 2.500000000000000e-04, 9.399999999997563e-03, 8.101246711074007e-04, -6.981547212037129e-05, -1.927788458875493e+01, -1.400511288029139e+02, -6.328882336644574e+00, 1.214347377175792e+02
107, 2.500000000000000e-04, 9.499999999997968e-03, 8.219361178691825e-04, -7.051916701991054e-05, -9.748775900671056e+00, -9.867626530138097e+01, -3.177940315866956e+00, 8.915433578754440e+01
108, 2.500000000000000e-04, 9.599999999998375e-03, 8.337490135210648e-04, -7.122191844288136e-05, -1.233066505599446e+00, -6.231721361407537e+01, -4.739037520658338e-01, 6.109149995731661e+01
109, 2.500000000000000e-04, 9.699999999998783e-03, 8.455629012872205e-04, -7.192381992939566e-05, 6.214326337255137e+00, -3.119347696098523e+01, 1.752218485261823e+00, 3.757159600123764e+01
110, 2.500000000000000e-04, 9.799999999999188e-03, 8.573773605262490e-04, -7.262498498548951e-05, 1.163337802498816e+01, -6.829557519657810e+00, 3.264778906842385e+00, 1.958354192090908e+01
111, 2.500000000000000e-04, 9.899999999999593e-03, 8.691920193945253e-04, -7.332557487522379e-05, 1.398555806645517e+01, 7.893886652843145e+00, 3.629576503528642e+00, 9.476484738091797e+00
112, 2.000000000000817e-04, 1.000000000000000e-02, 8.813566690666464e-04, -6.811878485265254e-05, 2.020758692940874e+01, 1.763588630802010e+01, 4.448978947530462e+00, 9.262143315039333e+00
113, 1.500000000001972e-04, 1.000000000000000e-02, 8.817067679301550e-04, -6.221185524877541e-05, 1.761994799061885e+01, 1.811434204033837e+01, 7.107638801128767e+00, 1.422387228519868e+01
114, 1.000000000003456e-04, 1.000000000000000e-02, 8.820569495619506e-04, -5.630505648042784e-05, 1.177663482879519e+01, 1.814594606852620e+01, 9.452751898730547e+00, 1.994959146209214e+01
115, 5.000000000047588e-05, 1.000000000000000e-02, 8.824072584831883e-04, -5.039833373436398e-05, 4.019142165514143e+00, 1.817632931441525e+01, 1.113601251616266e+01, 2.639070000984318e+01
116, 6.410887445906788e-16, 1.000000000000000e-02, 8.827577206793754e-04, -4.449161359821272e-05, -3.787465703896201e+00, 1.915433473338298e+01, 1.183973488652243e+01, 3.297034267393180e+01
117, -4.999999999945738e-05, 1.000000000000000e-02, 8.831083426418041e-04, -3.858480841641511e-05, -9.178636269527086e+00, 2.268174299376700e+01, 1.132336535343678e+01, 3.908910562433719e+01
118, -9.999999999958566e-05, 1.000000000000000e-02, 8.834591083664360e-04, -3.267783532051654e-05, -9.127851994332929e+00, 3.072623281300212e+01, 9.630911127129473e+00, 4.426472492160003e+01
119, -1.499999999997626e-04, 1.000000000000000e-02, 8.838099710393667e-04, -2.677065232572840e-05, 3.902659644183841e-01, 4.529562858081043e+01, 7.499323508241563e+00, 4.734396481110046e+01
120, -1.999999999998909e-04, 1.000000000000000e-02, 8.841608250676579e-04, -2.086333758272589e-05, 2.769435393494905e+01, 6.907968378696488e+01, 6.582206036059984e+00, 4.342864575559236e+01
121, -2.500000000000000e-04, 9.899999999999590e-03, 8.726968679140490e-04, -1.425696479714075e-05, -1.895174497712802e+01, 3.531663020897397e+01, -1.071471971919084e+00, 5.431066887901458e+01
122, -2.500000000000000e-04, 9.799999999999181e-03, 8.608819473655687e-04, -1.355881801202382e-05, 5.744587783253449e+00, 8.084988154822200e+01, 3.780316315175040e+00, 7.548488800609920e+01
123, -2.500000000000000e-04, 9.699999999999055e-03, 8.490672100730954e-04, -1.286145496096798e-05, 1.450668491639986e+01, 1.097900815117031e+02, 8.306878801403283e+00, 9.672095227210417e+01
124, -2.500000000000000e-04, 9.599999999999458e-03, 8.372529346579455e-04, -1.216500451355405e-05, 2.104088032464365e+01, 1.408129965677674e+02, 1.300227763445455e+01, 1.225626236831200e+02
125, -2.500000000000000e-04, 9.499999999999916e-03, 8.254394365648403e-04, -1.146967863227116e-05, 2.858148240170385e+01, 1.774804747572428e+02, 1.807421318337833e+01, 1.532240798741753e+02
126, -2.500000000000000e-04, 9.400000000000373e-03, 8.136271091995445e-04, -1.077568938443686e-05, 3.722841011906061e+01, 2.196727090319445e+02, 2.353581415503702e+01, 1.884188430003101e+02
127, -2.500000000000000e-04, 9.300000000000832e-03, 8.018164062289170e-04, -1.008325185804778e-05, 4.749511387650669e+01, 2.676687274980795e+02, 2.940553091183277e+01, 2.278928720430032e+02
128, -2.500000000000000e-04, 9.200000000001289e-03, 7.900078638916816e-04, -9.392586184644924e-06, 5.871760995849574e+01, 3.208190423976455e+02, 3.571497177052102e+01, 2.716604456319150e+02
129, -2.500000000000000e-04, 9.100000000001746e-03, 7.782020645492022e-04, -8.703916192331135e-06, 7.133421846378336e+01, 3.794634383045862e+02, 4.248219574347142e+01, 3.196287908503367e+02
130, -2.500000000000000e-04, 9.000000000002204e-03, 7.663996610967127e-04, -8.017475190194281e-06, 8.526047581337687e+01, 4.435855622305052e+02, 4.969717506731611e+01, 3.718549507462934e+02
131, -2.500000000000000e-04, 8.900000000002661e-03, 7.546013721203579e-04, -7.333506339525817e-06, 1.004210397256530e+02, 5.131779121710792e+02, 5.737571457067349e+01, 4.284111649349388e+02
132, -2.500000000000000e-04, 8.800000000003118e-03, 7.428079785174906e-04, -6.652262123086625e-06, 1.168326337759288e+02, 5.882961314589238e+02, 6.553395960925037e+01, 4.893430586978331e+02
133, -2.500000000000000e-04, 8.700000000003576e-03, 7.310203259066045e-04, -5.974003913130828e-06, 1.344400697337848e+02, 6.689281512443420e+02, 7.418201939329586e+01, 5.546975728105409e+02
134, -2.500000000000000e-04, 8.600000000004033e-03, 7.192393228065578e-04, -5.299001597852103e-06, 1.532548348972153e+02, 7.551180484335591e+02, 8.332737498442121e+01, 6.245103149632293e+02
135, -2.500000000000000e-04, 8.500000000004490e-03, 7.074659418204603e-04, -4.627533851503318e-06, 1.732901684480698e+02, 8.469087041233702e+02, 9.297609328610261e+01, 6.988133851725511e+02
136, -2.500000000000000e-04, 8.400000000004949e-03, 6.957012203119529e-04, -3.959887772560943e-06, 1.946093731136579e+02, 9.443927345385621e+02, 1.031219563348769e+02, 7.776320727586777e+02
137, -2.500000000000000e-04, 8.300000000005149e-03, 6.839462635802315e-04, -3.296359845570504e-06, 2.171596507735077e+02, 1.047559322396045e+03, 1.137700576802112e+02, 8.610099411325360e+02
138, -2.500000000000000e-04, 8.200000000005172e-03, 6.722022418511943e-04, -2.637254602221978e-06, 2.410307751625155e+02, 1.156521703656747e+03, 1.249108048492548e+02, 9.489649502629617e+02
139, -2.500000000000000e-04, 8.100000000005195e-03, 6.604703952579802e-04, -1.982886172821994e-06, 2.661484794246401e+02, 1.271254838638957e+03, 1.365474596736439e+02, 1.041546748017755e+03
140, -2.500000000000000e-04, 8.000000000005220e-03, 6.487520298745503e-04, -1.333576753829442e-06, 2.925155816701666e+02, 1.391774738857693e+03, 1.486864262044145e+02, 1.138771841946574e+03
141, -2.500000000000000e-04, 7.900000000005243e-03, 6.370485180002257e-04, -6.896561537346242e-07, 3.202709692983512e+02, 1.518230966266710e+03, 1.613067418211710e+02, 1.240640001839485e+03
142, -2.500000000000000e-04, 7.800000000005240e-03, 6.253613059602565e-04, -5.146376153347464e-08, 3.492209041343789e+02, 1.650484856324864e+03, 1.744131068430967e+02, 1.347207333941233e+03
143, -2.500000000000000e-04, 7.700000000005121e-03, 6.136919040881758e-04, 5.806543360666854e-07, 3.794501656565141e+02, 1.788621422117503e+03, 1.880013533268620e+02, 1.458472373905919e+03
144, -2.500000000000000e-04, 7.600000000005145e-03, 6.020418919913961e-04, 1.206343717267435e-06, 4.109516186317078e+02, 1.932652119684107e+03, 2.020665041286472e+02, 1.574450984713787e+03
145, -2.500000000000000e-04, 7.500000000005337e-03, 5.904129185942721e-04, 1.825242828877978e-06, 4.436439994757768e+02, 2.082513815227366e+03, 2.166066974592925e+02, 1.695160204381442e+03
146, -2.500000000000000e-04, 7.400000000005796e-03, 5.788066978549135e-04, 2.436983433300316e-06, 4.776873009847292e+02, 2.238365627316495e+03, 2.316027393154574e+02, 1.820589872609458e+03
147, -2.500000000000000e-04, 7.300000000006254e-03, 5.672250172153176e-04, 3.041188704124311e-06, 5.130068614943368e+02, 2.400178022632111e+03, 2.470430111105160e+02, 1.950778303340566e+03
148, -2.500000000000000e-04, 7.200000000006711e-03, 5.556697332859466e-04, 3.637474592182514e-06, 5.495850694315162e+02, 2.567948187978272e+03, 2.629243138691248e+02, 2.085738827754804e+03
149, -2.500000000000000e-04, 7.100000000007169e-03, 5.441427713267275e-04, 4.225450465305090e-06, 5.874756560443487e+02, 2.741735543887394e+03, 2.792301890401677e+02, 2.225469311910447e+03
150, -2.500000000000000e-04, 7.000000000007627e-03, 5.326461286937839e-04, 4.804718599977632e-06, 6.266110451831152e+02, 2.921502364122628e+03, 2.959483292957442e+02, 2.369993211002029e+03
151, -2.500000000000000e-04, 6.900000000008085e-03, 5.211818714887685e-04, 5.374874851514598e-06, 6.670219623697791e+02, 3.107286468784122e+03, 3.130672210023656e+02, 2.519312446031698e+03
152, -2.500000000000000e-04, 6.800000000008542e-03, 5.097521367075378e-04, 5.935508828925208e-06, 7.086763069736369e+02, 3.299070861601214e+03, 3.305731739929507e+02, 2.673435700012121e+03
153, -2.500000000000000e-04, 6.700000000009001e-03, 4.983591307952831e-04, 6.486204410284653e-06, 7.516130837938570e+02, 3.496905160385282e+03, 3.484464594205907e+02, 2.832364440909157e+03
154, -2.500000000000000e-04, 6.600000000009459e-03, 4.870051319747391e-04, 7.026539187938770e-06, 7.958165504303478e+02, 3.700792830888454e+03, 3.666691620422844e+02, 2.996109525300331e+03
155, -2.500000000000000e-04, 6.500000000009916e-03, 4.756924899491234e-04, 7.556085366130638e-06, 8.412183612304777e+02, 3.910686140979433e+03, 3.852272992386094e+02, 3.164685251210881e+03
156, -2.500000000000000e-04, 6.400000000010177e-03, 4.644236227189213e-04, 8.074410271674350e-06, 8.878830100140985e+02, 4.126650473763768e+03, 4.041024131677028e+02, 3.338084739121418e+03
157, -2.500000000000000e-04, 6.300000000010201e-03, 4.532010202653947e-04, 8.581076151921201e-06, 9.358099896623817e+02, 4.348702391569382e+03, 4.232695556561145e+02, 3.516313838947803e+03
158, -2.500000000000000e-04, 6.200000000010225e-03, 4.420272446354539e-04, 9.075640472719279e-06, 9.849825409731141e+02, 4.576843390621643e+03, 4.427052374005846e+02, 3.699380498424768e+03
159, -2.500000000000000e-04, 6.100000000010248e-03, 4.309049295328180e-04, 9.557656394694736e-06, 1.035365440814183e+03, 4.811055389032761e+03, 4.623892830954774e+02, 3.887293400499248e+03
160, -2.500000000000000e-04, 6.000000000010509e-03, 4.198367789026448e-04, 1.002667340812189e-05, 1.086988535653892e+03, 5.051375169336471e+03, 4.822969648513795e+02, 4.080049366189153e+03
161, -2.500000000000000e-04, 5.900000000010967e-03, 4.088255688640745e-04, 1.048223736151542e-05, 1.139859528614563e+03, 5.297824837066692e+03, 5.023983493127330e+02, 4.277650279284182e+03
162, -2.500000000000000e-04, 5.800000000011424e-03, 3.978741485189691e-04, 1.092389080799715e-05, 1.193943477055901e+03, 5.550390354928113e+03, 5.226644687463526e+02, 4.480105131275624e+03
163, -2.500000000000000e-04, 5.700000000011876e-03, 3.869854387636834e-04, 1.135117357578031e-05, 1.249211289478456e+03, 5.809059445923278e+03, 5.430696775150136e+02, 4.687420816224875e+03
164, -2.500000000000000e-04, 5.600000000012062e-03, 3.761624314184322e-04, 1.176362337971426e-05, 1.305666715901523e+03, 6.073845437034786e+03, 5.635867020757287e+02, 4.899596738476997e+03
165, -2.500000000000000e-04, 5.500000000012085e-03, 3.654081898165550e-04, 1.216077624288343e-05, 1.363337222494419e+03, 6.344783885350871e+03, 5.841813766318119e+02, 5.116628028115531e+03
166, -2.500000000000000e-04, 5.400000000012110e-03, 3.547258505725398e-04, 1.254216672910418e-05, 1.422205358740816e+03, 6.621875227043586e+03, 6.048173096552766e+02, 5.338518769431304e+03
167, -2.500000000000000e-04, 5.300000000012160e-03, 3.441186230850923e-04, 1.290732850190010e-05, 1.482250146869644e+03, 6.905115758734501e+03, 6.254595673824538e+02, 5.565273589507293e+03
168, -2.500000000000000e-04, 5.200000000012475e-03, 3.335897890310171e-04, 1.325579493146795e-05, 1.543464686744585e+03, 7.194512996276402e+03, 6.460721682342651e+02, 5.796894339465756e+03
169, -2.500000000000000e-04, 5.100000000012934e-03, 3.231427025839823e-04, 1.358709961672359e-05, 1.605847230351739e+03, 7.490079125741611e+03, 6.666165288282969e+02, 6.033381753606499e+03
170, -2.500000000000000e-04, 5.000000000013221e-03, 3.127807908590162e-04, 1.390077692836423e-05, 1.669389271973038e+03, 7.791821409997182e+03, 6.870517677471071e+02, 6.274737907751095e+03
171, -2.500000000000000e-04, 4.900000000012981e-03, 3.025075540107999e-04, 1.419636257508818e-05, 1.734071616761015e+03, 8.099736946366044e+03, 7.073375705924719e+02, 6.520966250765460e+03
172, -2.500000000000000e-04, 4.800000000012570e-03, 2.923265646934537e-04, 1.447339436096707e-05, 1.799904371887512e+03, 8.413846469243668e+03, 7.274303669113995e+02, 6.772063926307796e+03
173, -2.500000000000000e-04, 4.700000000012160e-03, 2.822414690981215e-04, 1.473141271605229e-05, 1.866889774769885e+03, 8.734166343788260e+03, 7.472813425650636e+02, 7.028029958329158e+03
174, -2.500000000000000e-04, 4.600000000011960e-03, 2.722559877171480e-04, 1.496996126600050e-05, 1.934983061631048e+03, 9.060673553446701e+03, 7.668436188861822e+02, 7.288872445615839e+03
175, -2.500000000000000e-04, 4.500000000011985e-03, 2.623739136094127e-04, 1.518858772714831e-05, 2.004183503477150e+03, 9.393379655364810e+03, 7.860708724785729e+02, 7.554591281949560e+03
176, -2.500000000000000e-04, 4.400000000012010e-03, 2.525991129196634e-04, 1.538684459547333e-05, 2.074505295732075e+03, 9.732308856517744e+03, 8.049113463766112e+02, 7.825182712095923e+03
177, -2.500000000000000e-04, 4.300000000011870e-03, 2.429355261247849e-04, 1.556428982286107e-05, 2.145931530176371e+03, 1.007745987535687e+04, 8.233104068377590e+02, 8.100648245321553e+03
178, -2.500000000000000e-04, 4.200000000011467e-03, 2.333871676453722e-04, 1.572048763139082e-05, 2.218448567233713e+03, 1.042883327392766e+04, 8.412132122473517e+02, 8.380988945569123e+03
179, -2.500000000000000e-04, 4.100000000011056e-03, 2.239581257154073e-04, 1.585500935671323e-05, 2.292053737151165e+03, 1.078643885573472e+04, 8.585620619914179e+02, 8.666204117142501e+03
180, -2.500000000000000e-04, 4.000000000010646e-03, 2.146525628755495e-04, 1.596743421680156e-05, 2.366730646714988e+03, 1.115027535795240e+04, 8.752976772186569e+02, 8.956296209331409e+03
181, -2.500000000000000e-04, 3.900000000010236e-03, 2.054747156583599e-04, 1.605735020945288e-05, 2.442470494811230e+03, 1.152034693518996e+04, 8.913600354359394e+02, 9.251266481832241e+03
182, -2.500000000000000e-04, 3.800000000009824e-03, 1.964288946052782e-04, 1.612435502117479e-05, 2.519279621306492e+03, 1.189666942797995e+04, 9.066855972578670e+02, 9.551112745403165e+03
183, -2.500000000000000e-04, 3.700000000009415e-03, 1.875194851041159e-04, 1.616805693055093e-05, 2.597144501010498e+03, 1.227924207563418e+04, 9.212077765208098e+02, 9.855836266630220e+03
184, -2.500000000000000e-04, 3.600000000009160e-03, 1.787509471744829e-04, 1.618807576937161e-05, 2.676055419498002e+03, 1.266806662580835e+04, 9.348588024620328e+02, 1.016543810512831e+04
185, -2.500000000000000e-04, 3.500000000009170e-03, 1.701278154849691e-04, 1.618404392746924e-05, 2.756005243101888e+03, 1.306314651071630e+04, 9.475687914736268e+02, 1.047991925392840e+04
186, -2.500000000000000e-04, 3.400000000009196e-03, 1.616546994346784e-04, 1.615560735322652e-05, 2.836992470798813e+03, 1.346448857741578e+04, 9.592656463500316e+02, 1.079927941194356e+04
187, -2.500000000000000e-04, 3.300000000009092e-03, 1.533362834692418e-04, 1.610242664587499e-05, 2.919012907290286e+03, 1.387209576796357e+04, 9.698741891295846e+02, 1.112351778547299e+04
188, -2.500000000000000e-04, 3.200000000008720e-03, 1.451773272795347e-04, 1.602417816226813e-05, 3.002057040170219e+03, 1.428596597531079e+04, 9.793168125100949e+02, 1.145263491662966e+04
189, -2.500000000000000e-04, 3.100000000008311e-03, 1.371826657157707e-04, 1.592055512103292e-05, 3.086118944750208e+03, 1.470609927166336e+04, 9.875142382304045e+02, 1.178663142211038e+04
190, -2.500000000000000e-04, 3.000000000007901e-03, 1.293572088299904e-04, 1.579126876876184e-05, 3.171197704138408e+03, 1.513249832115729e+04, 9.943845977502202e+02, 1.212550680852836e+04
191, -2.500000000000000e-04, 2.900000000007490e-03, 1.217059421456851e-04, 1.563604958729427e-05, 3.257290532289350e+03, 1.556516285364285e+04, 9.998428790940067e+02, 1.246926077240505e+04
192, -2.500000000000000e-04, 2.800000000007079e-03, 1.142339268113486e-04, 1.545464851964803e-05, 3.344389312900627e+03, 1.600408727007974e+04, 1.003802077263360e+03, 1.281789478846967e+04
193, -2.500000000000000e-04, 2.700000000006744e-03, 1.069462993881506e-04, 1.524683822548547e-05, 3.432496021902197e+03, 1.644927237193593e+04, 1.006173414362138e+03, 1.317140866824328e+04
194, -2.500000000000000e-04, 2.600000000006672e-03, 9.984827209150361e-05, 1.501241441804307e-05, 3.521615644710913e+03, 1.690071874897352e+04, 1.006864414641909e+03, 1.352980057770174e+04
195, -2.500000000000000e-04, 2.500000000006697e-03, 9.294513319201300e-05, 1.475119723367202e-05, 3.611740693054995e+03, 1.735841505428113e+04, 1.005779791025694e+03, 1.389307122078249e+04
196, -2.500000000000000e-04, 2.400000000006722e-03, 8.624224668299602e-05, 1.446303259709851e-05, 3.702874831671620e+03, 1.782235772970244e+04, 1.002822343406992e+03, 1.426122042174267e+04
197, -2.500000000000000e-04, 2.300000000006651e-03, 7.974505247743629e-05, 1.414779362237724e-05, 3.795021333396026e+03, 1.829254008413195e+04, 9.978921373398308e+02, 1.463424766768003e+04
198, -2.500000000000000e-04, 2.200000000006315e-03, 7.345906651784451e-05, 1.380538213293123e-05, 3.888182356686455e+03, 1.876895234333177e+04, 9.908861083226291e+02, 1.501215296065528e+04
199, -2.500000000000000e-04, 2.100000000005904e-03, 6.738988072570293e-05, 1.343573010832224e-05, 3.982365685802351e+03, 1.925158672037961e+04, 9.816990038100578e+02, 1.539493561984275e+04
200, -2.500000000000000e-04, 2.000000000005494e-03, 6.154316317277678e-05, 1.303880128216748e-05, 4.077576437377529e+03, 1.974043009507503e+04, 9.702223321760663e+02, 1.578259516676078e+04
201, -2.500000000000000e-04, 1.900000000005083e-03, 5.592465803617452e-05, 1.261459271215946e-05, 4.173823562185617e+03, 2.023546971130298e+04, 9.563449499099937e+02, 1.617513090124250e+04
202, -2.500000000000000e-04, 1.800000000004675e-03, 5.054018566961166e-05, 1.216313641615467e-05, 4.271115753786459e+03, 2.073668974437776e+04, 9.399528734673323e+02, 1.657254272756582e+04
203, -2.500000000000000e-04, 1.700000000004264e-03, 4.539564253628546e-05, 1.168450102170037e-05, 4.369465788073235e+03, 2.124407376514505e+04, 9.209297381877280e+02, 1.697482962243126e+04
204, -2.500000000000000e-04, 1.600000000003854e-03, 4.049700127152794e-05, 1.117879354096412e-05, 4.468886528595508e+03, 2.175760164646716e+04, 8.991557280492574e+02, 1.738199052237858e+04
205, -2.500000000000000e-04, 1.500000000003443e-03, 3.585031062863646e-05, 1.064616109252254e-05, 4.569393692231413e+03, 2.227725230480907e+04, 8.745084478007986e+02, 1.779402474832888e+04
206, -2.500000000000000e-04, 1.400000000003032e-03, 3.146169544847936e-05, 1.008679270613928e-05, 4.671005447266266e+03, 2.280300248737462e+04, 8.468625864683920e+02, 1.821093137716843e+04
207, -2.500000000000000e-04, 1.300000000002622e-03, 2.733735664430993e-05, 9.500921179654546e-06, 4.773740970131830e+03, 2.333482525639433e+04, 8.160898709807497e+02, 1.863270942702134e+04
208, -2.500000000000000e-04, 1.200000000002211e-03, 2.348357109861639e-05, 8.888824982574849e-06, 4.877625271961240e+03, 2.387269462321443e+04, 7.820593251241152e+02, 1.905935798527780e+04
209, -2.500000000000000e-04, 1.100000000002113e-03, 1.990669154617496e-05, 8.250830137823427e-06, 4.982701255194193e+03, 2.441660165704394e+04, 7.446385612218980e+02, 1.949088071833724e+04
210, -2.500000000000000e-04, 1.000000000002544e-03, 1.661314652802892e-05, 7.587311748066714e-06, 5.089068135306628e+03, 2.496661181788814e+04, 7.036975739307712e+02, 1.992730548657195e+04
211, -2.500000000000000e-04, 9.000000000030026e-04, 1.360944125426259e-05, 6.898694085693248e-06, 5.196921058935805e+03, 2.552295072176940e+04, 6.591170174753438e+02, 2.036873149769748e+04
212, -2.500000000000000e-04, 8.000000000032027e-04, 1.090216257468545e-05, 6.185448297066549e-06, 5.306489353599847e+03, 2.608597267514721e+04, 6.107714751264513e+02, 2.081535717420620e+04
213, -2.500000000000000e-04, 7.000000000028719e-04, 8.497997079352092e-06, 5.448091041770720e-06, 5.416774322853702e+03, 2.665453565289390e+04, 5.584281376553388e+02, 2.126710780175461e+04
214, -2.500000000000000e-04, 6.000000000024631e-04, 6.403769667730050e-06, 4.687223858746154e-06, 5.522321092457491e+03, 2.722066231121743e+04, 5.010903142246821e+02, 2.172147273224760e+04
215, -2.500000000000000e-04, 5.000000000020526e-04, 4.626485541284373e-06, 3.903723713998577e-06, 5.593912061486852e+03, 2.774211841899989e+04, 4.360176631032469e+02, 2.216536691474186e+04
216, -2.500000000000000e-04, 4.000000000016421e-04, 3.173047302202021e-06, 3.099603410103960e-06, 5.570128647582376e+03, 2.811383870338865e+04, 3.522132395295262e+02, 2.255471302731783e+04
217, -2.500000000000000e-04, 3.000000000012316e-04, 2.048801351690605e-06, 2.279746816566336e-06, 5.095323539533799e+03, 2.785428598677583e+04, 2.469623793965288e+02, 2.276432149971358e+04
218, -2.500000000000000e-04, 2.000000000008210e-04, 1.247109082011913e-06, 1.459719632909942e-06, 4.783547839960629e+03, 2.744889185072073e+04, 5.835306429738398e+01, 2.266564447454673e+04
219, -2.500000000000000e-04, 1.000000000004105e-04, 7.261248904516052e-07, 6.459150718043205e-07, -2.461941343824236e+03, 1.899521209005196e+04, 1.656424329166140e+03, 2.171138871002772e+04
220, -1.999999999998928e-04, 9.899999999999593e-03, 8.723458367706858e-04, -2.016459721160109e-05, -2.469051597306917e+00, 5.183113865148736e+01, 4.615231584603917e+00, 5.507914406899727e+01
221, -1.499999999997670e-04, 9.899999999999591e-03, 8.719948688319046e-04, -2.607185850741665e-05, 2.528441086927069e-01, 4.750912205956131e+01, 1.021950854067392e+01, 5.148698112165229e+01
222, -9.999999999959327e-05, 9.899999999999591e-03, 8.716440432943929e-04, -3.197884533602623e-05, 3.891778410974046e+00, 4.112874854561810e+01, 1.384998009342720e+01, 4.640990992408508e+01
223, -4.999999999946756e-05, 9.899999999999593e-03, 8.712933839360126e-04, -3.788558392926748e-05, 7.488823432738939e+00, 3.433178086964007e+01, 1.627596215004933e+01, 4.219208622003231e+01
224, 6.282680539010377e-16, 9.899999999999593e-03, 8.709428838513839e-04, -4.379214200854020e-05, 1.027835326506015e+01, 2.747324238029351e+01, 1.722612223005884e+01, 3.850482255542649e+01
225, 5.000000000046569e-05, 9.899999999999590e-03, 8.705925267700331e-04, -4.969861476778521e-05, 1.229875421937441e+01, 2.101349438439342e+01, 1.657667973170668e+01, 3.427961405637605e+01
226, 1.000000000003380e-04, 9.899999999999590e-03, 8.702422919631593e-04, -5.560510546768381e-05, 1.362461977072887e+01, 1.535010027088700e+01, 1.440060428904648e+01, 2.885284905369385e+01
227, 1.500000000001929e-04, 9.899999999999593e-03, 8.698921533347555e-04, -6.151171157979854e-05, 1.429203785475358e+01, 1.097046857814759e+01, 1.090190332141465e+01, 2.205535777486233e+01
228, 2.000000000000797e-04, 9.899999999999593e-03, 8.695420772314163e-04, -6.741851636962127e-05, 1.406445408560030e+01, 8.234599244875499e+00, 6.429351120250620e+00, 1.411854917382781e+01
229, -1.999999999998947e-04, 9.799999999999184e-03, 8.605306908740843e-04, -1.946627552761644e-05, 1.145135821630520e+00, 6.776982734778005e+01, 8.705349913824836e+00, 6.886205043013969e+01
230, -1.499999999997712e-04, 9.799999999999181e-03, 8.601796197107066e-04, -2.537328652610370e-05, 5.080550635231713e+00, 5.866062245180205e+01, 1.547644991503116e+01, 6.187815530345670e+01
231, -9.999999999960086e-05, 9.799999999999184e-03, 8.598287440748266e-04, -3.127994038087226e-05, 7.557343462105720e+00, 4.732580668516654e+01, 2.022739429267735e+01, 5.672848126479050e+01
232, -4.999999999947776e-05, 9.799999999999184e-03, 8.594780735200402e-04, -3.718633527834069e-05, 1.040241820380170e+01, 3.653614572417544e+01, 2.306386905699864e+01, 5.301641196481197e+01
233, 6.154473632113966e-16, 9.799999999999184e-03, 8.591276015741823e-04, -4.309256533727542e-05, 1.314430958150252e+01, 2.667282256160457e+01, 2.398684034456235e+01, 4.984470586045107e+01
234, 5.000000000045551e-05, 9.799999999999184e-03, 8.587773104417219e-04, -4.899873492824065e-05, 1.530255831016834e+01, 1.777903678128092e+01, 2.289749153748318e+01, 4.586189508136727e+01
235, 1.000000000003303e-04, 9.799999999999184e-03, 8.584271756114405e-04, -5.490495466777519e-05, 1.661129613883498e+01, 9.959655112714071e+00, 1.979086343774404e+01, 4.013673418187024e+01
236, 1.500000000001885e-04, 9.799999999999188e-03, 8.580771667229759e-04, -6.081133470213500e-05, 1.685694087912869e+01, 3.413716655597987e+00, 1.477800908653147e+01, 3.246965487606157e+01
237, 2.000000000000778e-04, 9.799999999999188e-03, 8.577272456714739e-04, -6.671797859755728e-05, 1.560337072971963e+01, -1.655514315489794e+00, 8.024902334775671e+00, 2.356831226317459e+01
238, -1.999999999998966e-04, 9.699999999999027e-03, 8.487157123510800e-04, -1.876854295239424e-05, 3.225278756562371e+00, 8.623770067020359e+01, 1.367263962138916e+01, 8.740038037007564e+01
239, -1.499999999997756e-04, 9.699999999998999e-03, 8.483644618472573e-04, -2.467513444463700e-05, 6.467977720423690e+00, 7.155766478918238e+01, 2.128590043599721e+01, 7.777548194767859e+01
240, -9.999999999960846e-05, 9.699999999998973e-03, 8.480134730781307e-04, -3.058133475113987e-05, 9.680187182647224e+00, 5.655838130357989e+01, 2.656893026162918e+01, 7.086040717515745e+01
241, -4.999999999948794e-05, 9.699999999998947e-03, 8.476627479234661e-04, -3.648725809261114e-05, 1.250757840784572e+01, 4.154027040101035e+01, 2.947017160198829e+01, 6.570282536826339e+01
242, 6.026266725217555e-16, 9.699999999998920e-03, 8.473122795647837e-04, -4.239302428095898e-05, 1.500226432784537e+01, 2.721580061225379e+01, 2.997339328979839e+01, 6.117832696135361e+01
243, 5.000000000044535e-05, 9.699999999998892e-03, 8.469620512769424e-04, -4.829875505537087e-05, 1.689183991154971e+01, 1.390789178866783e+01, 2.807484588994417e+01, 5.622892345916388e+01
244, 1.000000000003228e-04, 9.699999999998864e-03, 8.466120375399696e-04, -5.420457481697604e-05, 1.787931767501803e+01, 1.842153027950896e+00, 2.378559185679586e+01, 5.020167497035765e+01
245, 1.500000000001842e-04, 9.699999999998836e-03, 8.462622046929498e-04, -6.011060881768194e-05, 1.769089016275311e+01, -8.726979647894586e+00, 1.715235584261172e+01, 4.329800329274591e+01
246, 2.000000000000759e-04, 9.699999999998809e-03, 8.459125100735176e-04, -6.601698217544891e-05, 1.616238858579544e+01, -1.735757499392623e+01, 8.238218168917804e+00, 3.735051422377766e+01
247, -1.999999999998985e-04, 9.599999999999352e-03, 8.369011447300949e-04, -1.807157992801462e-05, 4.463782138406023e+00, 1.080225747488719e+02, 1.904159903648481e+01, 1.103392654606805e+02
248, -1.499999999997800e-04, 9.599999999999241e-03, 8.365496755016179e-04, -2.397759162855604e-05, 7.642918845221497e+00, 8.796788454448941e+01, 2.744691165318479e+01, 9.729045149334796e+01
249, -9.999999999961608e-05, 9.599999999999132e-03, 8.361985419615134e-04, -2.988317339600338e-05, 1.085482043086347e+01, 6.765480382445426e+01, 3.303098595406712e+01, 8.712302936596794e+01
250, -4.999999999949810e-05, 9.599999999999024e-03, 8.358477473253767e-04, -3.578846119723712e-05, 1.378959007774045e+01, 4.749778367507584e+01, 3.579020418740282e+01, 7.912014395019379e+01
251, 5.898059818321144e-16, 9.599999999998917e-03, 8.354972839784635e-04, -4.169359414318234e-05, 1.617640175801144e+01, 2.787728240508703e+01, 3.572402153060533e+01, 7.239981674834350e+01
252, 5.000000000043517e-05, 9.599999999998809e-03, 8.351471347467790e-04, -4.759871362967032e-05, 1.782227808356622e+01, 9.216700548110950e+00, 3.284720677003367e+01, 6.625565587247713e+01
253, 1.000000000003152e-04, 9.599999999998698e-03, 8.347972731017095e-04, -5.350396216182591e-05, 1.849566398267241e+01, -8.125487899437498e+00, 2.718767273084715e+01, 6.054224906302179e+01
254, 1.500000000001798e-04, 9.599999999998591e-03, 8.344476634122970e-04, -5.940948312701575e-05, 1.798970966124555e+01, -2.378180322060054e+01, 1.878230752990063e+01, 5.617792798803887e+01
255, 2.000000000000740e-04, 9.599999999998483e-03, 8.340982612283046e-04, -6.531542038181560e-05, 1.614112196186832e+01, -3.734979008439095e+01, 7.669216449561088e+00, 5.564660991777954e+01
256, -1.999999999999004e-04, 9.499999999999719e-03, 8.250873124566363e-04, -1.737555792378524e-05, 5.255013783528515e+00, 1.331552667847843e+02, 2.469246984892345e+01, 1.371034171227881e+02
257, -1.499999999997843e-04, 9.499999999999528e-03, 8.247355983714625e-04, -2.328080358182175e-05, 8.632537612217085e+00, 1.070187743810908e+02, 3.382277480333461e+01, 1.193975375253997e+02
258, -9.999999999962368e-05, 9.499999999999330e-03, 8.243843086828426e-04, -2.918557396041721e-05, 1.189825231227581e+01, 8.054128247546046e+01, 3.963210504425022e+01, 1.048555224627574e+02
259, -4.999999999950831e-05, 9.499999999999136e-03, 8.240334462968282e-04, -3.509002866800056e-05, 1.480870323456052e+01, 5.419962291403567e+01, 4.215193867188766e+01, 9.305261032549907e+01
260, 5.769988436696294e-16, 9.499999999998942e-03, 8.236830033644971e-04, -4.099432827202920e-05, 1.711529761299058e+01, 2.842025716801304e+01, 4.141245827265533e+01, 8.359287596008626e+01
261, 5.000000000042495e-05, 9.499999999998747e-03, 8.233329618447915e-04, -4.689863429990172e-05, 1.858401431620681e+01, 3.608185542887599e+00, 3.744684002679529e+01, 7.637629710464738e+01
262, 1.000000000003075e-04, 9.499999999998551e-03, 8.229832940238194e-04, -5.280310894259741e-05, 1.900828018856869e+01, -1.982898838454324e+01, 3.029501543712496e+01, 7.196864089006118e+01
263, 1.500000000001755e-04, 9.499999999998359e-03, 8.226339628468885e-04, -5.870791460947555e-05, 1.819216179032454e+01, -4.149566088025286e+01, 2.000396325392477e+01, 7.185589995687050e+01
264, 2.000000000000721e-04, 9.499999999998164e-03, 8.222849222718864e-04, -6.461321358077702e-05, 1.596638247834579e+01, -6.099800382976574e+01, 6.631660675859778e+00, 7.809886332760040e+01
265, -1.999999999999023e-04, 9.400000000000087e-03, 8.132746164995606e-04, -1.668065279143303e-05, 5.809697445143833e+00, 1.616458851578826e+02, 3.063851332135550e+01, 1.674508626284483e+02
266, -1.499999999997887e-04, 9.399999999999811e-03, 8.129226391588047e-04, -2.258490996345358e-05, 9.452884379519723e+00, 1.284592036588612e+02, 4.041279753063021e+01, 1.438585445686957e+02
267, -9.999999999963125e-05, 9.399999999999530e-03, 8.125711898156578e-04, -2.848864414174947e-05, 1.286162341776929e+01, 9.494668425802985e+01, 4.637769153583963e+01, 1.238608828562240e+02
268, -4.999999999951849e-05, 9.399999999999249e-03, 8.122202700907882e-04, -3.439203798375232e-05, 1.579504932648502e+01, 6.156413987306799e+01, 4.859088753284701e+01, 1.074202357769729e+02
269, 5.641646004528322e-16, 9.399999999998968e-03, 8.118698710128450e-04, -4.029527413384579e-05, 1.802848137084162e+01, 2.876105208563785e+01, 4.710291529612302e+01, 9.481522341756656e+01
270, 5.000000000041476e-05, 9.399999999998687e-03, 8.115199733555403e-04, -4.619853525728973e-05, 1.934125912728615e+01, -3.031473467383956e+00, 4.196421626468850e+01, 8.685920187631706e+01
271, 1.000000000003000e-04, 9.399999999998406e-03, 8.111705479602259e-04, -5.210200391571278e-05, 1.952061442612348e+01, -3.339585385154802e+01, 3.322891117819609e+01, 8.495172021410511e+01
272, 1.500000000001711e-04, 9.399999999998125e-03, 8.108215560510081e-04, -5.800586229296691e-05, 1.836467074719575e+01, -6.192362470540164e+01, 2.095829357592414e+01, 9.057157757896273e+01
273, 2.000000000000702e-04, 9.399999999997844e-03, 8.104729495284145e-04, -6.391029171026475e-05, 1.566781330052861e+01, -8.822754017263230e+01, 5.223637722978749e+00, 1.044192991623519e+02
274, -1.999999999999042e-04, 9.300000000000464e-03, 8.014635197444238e-04, -1.598704185630418e-05, 6.608042726897171e+00, 1.937886467239919e+02, 3.689612714999525e+01, 2.012010817749042e+02
275, -1.499999999997930e-04, 9.300000000000100e-03, 8.011112680120895e-04, -2.189005399424125e-05, 1.046039805606703e+01, 1.525322689189236e+02, 4.722240999980453e+01, 1.705996498098128e+02
276, -9.999999999963886e-05, 9.299999999999729e-03, 8.007596614895705e-04, -2.779249447461649e-05, 1.395970682338969e+01, 1.109956657528260e+02, 5.327360377977827e+01, 1.441120562759913e+02
277, -4.999999999952863e-05, 9.299999999999361e-03, 8.004087001851168e-04, -3.369456865042815e-05, 1.689543014274397e+01, 6.964718646436555e+01, 5.511593279700449e+01, 1.222039769702746e+02
278, 5.513303572360351e-16, 9.299999999998993e-03, 8.000583735994380e-04, -3.959648131906988e-05, 1.904331977721951e+01, 2.893439303523693e+01, 5.281207260020157e+01, 1.060862544324726e+02
279, 5.000000000040461e-05, 9.299999999998625e-03, 7.997086609107437e-04, -4.549843674263747e-05, 2.018260946991569e+01, -1.070476771228364e+01, 4.642501340453773e+01, 9.785273398143497e+01
280, 1.000000000002923e-04, 9.299999999998258e-03, 7.993595311823834e-04, -5.140063854268727e-05, 2.009667195575264e+01, -4.884213053760489e+01, 3.602081258826833e+01, 9.971235754556582e+01
281, 1.500000000001668e-04, 9.299999999997890e-03, 7.990109435628606e-04, -5.730328947718599e-05, 1.857160075786629e+01, -8.505955985760926e+01, 2.167109160331133e+01, 1.123297035321777e+02
282, 2.000000000000683e-04, 9.299999999997520e-03, 7.986628474382601e-04, -6.320659113932005e-05, 1.539794760513700e+01, -1.189442507565395e+02, 3.455271709113727e+00, 1.345198196214344e+02
283, -1.999999999999061e-04, 9.200000000000841e-03, 7.896545599295917e-04, -1.529491111822663e-05, 7.247761152281587e+00, 2.292501282763049e+02, 4.351029124196603e+01, 2.384483859968703e+02
284, -1.499999999997973e-04, 9.200000000000397e-03, 7.893020241001120e-04, -2.119638776896712e-05, 1.136515660840292e+01, 1.790209988721474e+02, 5.429457122211851e+01, 1.997500520699315e+02
285, -9.999999999964642e-05, 9.199999999999951e-03, 7.889502648537640e-04, -2.709724417951134e-05, 1.502240578218540e+01, 1.285805551232063e+02, 6.035217780768668e+01, 1.657256610977314e+02
286, -4.999999999953884e-05, 9.199999999999505e-03, 7.885992801193627e-04, -3.299770808815296e-05, 1.800310238648089e+01, 7.838903749548162e+01, 6.174844696882961e+01, 1.374697929409872e+02
287, 5.385367716007061e-16, 9.199999999999058e-03, 7.882490573865616e-04, -3.889800647217497e-05, 2.008952494314097e+01, 2.889947509522601e+01, 5.855262725566615e+01, 1.174361777981817e+02
288, 5.000000000039439e-05, 9.199999999998614e-03, 7.878995737861114e-04, -4.479836547483507e-05, 2.106295059002160e+01, -1.944308186579211e+01, 5.083552450140972e+01, 1.094428657823119e+02
289, 1.000000000002848e-04, 9.199999999998171e-03, 7.875507961988489e-04, -5.069901028969990e-05, 2.070542408395143e+01, -6.620041179326010e+01, 3.867078111377728e+01, 1.163371890554156e+02
290, 1.500000000001625e-04, 9.199999999997726e-03, 7.872026813560599e-04, -5.660016499705545e-05, 1.880034210946813e+01, -1.109396232466512e+02, 2.213637645112544e+01, 1.370858682000110e+02
291, 2.000000000000664e-04, 9.199999999997280e-03, 7.868551759170124e-04, -6.250205234371459e-05, 1.513246033708930e+01, -1.532312943786350e+02, 1.316029469954005e+00, 1.683843271692462e+02
292, -1.999999999999080e-04, 9.100000000001274e-03, 7.778483256646960e-04, -1.460445370310165e-05, 8.097727657610680e+00, 2.683195784405733e+02, 5.051111820301274e+01, 2.791431601766114e+02
293, -1.499999999998017e-04, 9.100000000000802e-03, 7.774955013749880e-04, -2.050407171512465e-05, 1.241849378130198e+01, 2.081425796662578e+02, 6.166897008817847e+01, 2.313442570768684e+02
294, -9.999999999965405e-05, 9.100000000000334e-03, 7.771435981633298e-04, -2.640302127940260e-05, 1.619694208429594e+01, 1.478513488052372e+02, 6.764355717160953e+01, 1.887736372387793e+02
295, -4.999999999954905e-05, 9.099999999999862e-03, 7.767926118433948e-04, -3.230155251923491e-05, 1.920157137465526e+01, 8.789522621793864e+01, 6.850685235724042e+01, 1.532696104755117e+02
296, 5.257025283839090e-16, 9.099999999999390e-03, 7.764425277115003e-04, -3.819991469398053e-05, 2.121018594059150e+01, 2.872667884940985e+01, 6.433159824607537e+01, 1.288825659165200e+02
297, 5.000000000038422e-05, 9.099999999998916e-03, 7.760933206250601e-04, -4.409835606685705e-05, 2.200213797957232e+01, -2.920502552154368e+01, 5.519283535555496e+01, 1.216847151131629e+02
298, 1.000000000002772e-04, 9.099999999998446e-03, 7.757449550631455e-04, -4.999712380063240e-05, 2.135739919328239e+01, -8.545405508590787e+01, 4.116819290160503e+01, 1.348627717065410e+02
299, 1.500000000001581e-04, 9.099999999997978e-03, 7.753973851749211e-04, -5.589646383096118e-05, 1.905611764154833e+01, -1.395774687814577e+02, 2.233861758868988e+01, 1.648049455705751e+02
300, 2.000000000000645e-04, 9.099999999997506e-03, 7.750505548044293e-04, -6.179662071815877e-05, 1.487772588649268e+01, -1.911344108670928e+02, -1.210684644443025e+00, 2.060263660772843e+02
301, -1.999999999999099e-04, 9.000000000001736e-03, 7.660454726261852e-04, -1.391586969492338e-05, 9.062139532069970e+00, 3.109462354979482e+02, 5.789088688389182e+01, 3.233255735848153e+02
302, -1.499999999998060e-04, 9.000000000001264e-03, 7.656923586609392e-04, -1.981327409248969e-05, 1.358940995629703e+01, 2.399062806020249e+02, 6.933790212796416e+01, 2.654247626445273e+02
303, -9.999999999966160e-05, 9.000000000000792e-03, 7.653403234017834e-04, -2.570996219853327e-05, 1.746987764312904e+01, 1.688377253747917e+02, 7.514472573345601e+01, 2.133052848598485e+02
304, -4.999999999955923e-05, 9.000000000000320e-03, 7.649893604213093e-04, -3.160620679693619e-05, 2.047891400767986e+01, 9.819873055887066e+01, 7.538695255772208e+01, 1.696264730179570e+02
305, 5.128818376942679e-16, 8.999999999999852e-03, 7.646394527036271e-04, -3.750227960651693e-05, 2.239092186959044e+01, 2.844286108569370e+01, 7.014086318472782e+01, 1.404122100156188e+02
306, 5.000000000037403e-05, 8.999999999999380e-03, 7.642905727009992e-04, -4.339845124953114e-05, 2.298249502156922e+01, -3.997710190544396e+01, 5.948411503189975e+01, 1.346007080580377e+02
307, 1.000000000002695e-04, 8.999999999998908e-03, 7.639426823708567e-04, -4.929499117139730e-05, 2.203100127994061e+01, -1.066097789127658e+02, 4.349644441709877e+01, 1.552939568570112e+02
308, 1.500000000001538e-04, 8.999999999998436e-03, 7.635957331977557e-04, -5.519216755118965e-05, 1.931391671844892e+01, -1.710049383892918e+02, 2.226001842402136e+01, 1.954566455520822e+02
309, 2.000000000000626e-04, 8.999999999997964e-03, 7.632496661974375e-04, -6.109024720508695e-05, 1.460758882961202e+01, -2.327132405598065e+02, -4.140517320906794e+00, 2.474594273504422e+02
310, -1.999999999999118e-04, 8.900000000002187e-03, 7.542467219588064e-04, -1.322936945743364e-05, 1.008218800279120e+01, 3.571446725580798e+02, 6.566212927776510e+01, 3.710773895979782e+02
311, -1.499999999998104e-04, 8.900000000001712e-03, 7.538933196327352e-04, -1.912417271761004e-05, 1.481640629844892e+01, 2.743179637355456e+02, 7.730800546472490e+01, 3.020714636439770e+02
312, -9.999999999966923e-05, 8.900000000001240e-03, 7.535411669506876e-04, -2.501821270633708e-05, 1.879867441693399e+01, 1.915571062969855e+02, 8.285670079849643e+01, 2.393875670424441e+02
313, -4.999999999956943e-05, 8.900000000000770e-03, 7.531902550849934e-04, -3.091178488960721e-05, 2.180363056321455e+01, 1.093201542869806e+02, 8.238568097713193e+01, 1.865710150182914e+02
314, 5.000475944774707e-16, 8.900000000000293e-03, 7.528405645929693e-04, -3.680518361097787e-05, 2.360685334064853e+01, 2.806521870271544e+01, 7.597295474343457e+01, 1.520113036306626e+02
315, 5.000000000036387e-05, 8.899999999999823e-03, 7.524920654279298e-04, -4.269870205634003e-05, 2.398363687469182e+01, -5.175092138386736e+01, 6.369772314117311e+01, 1.482070276609624e+02
316, 1.000000000002620e-04, 8.899999999999349e-03, 7.521447169534461e-04, -4.859263220139589e-05, 2.270958975973922e+01, -1.296720759970360e+02, 4.564079736829181e+01, 1.776302384068193e+02
317, 1.500000000001494e-04, 8.899999999998874e-03, 7.517984679517032e-04, -5.448726474486285e-05, 1.956049744329401e+01, -2.052423752428134e+02, 2.188479831962288e+01, 2.290242545187921e+02
318, 2.000000000000606e-04, 8.899999999998404e-03, 7.514532566240044e-04, -6.038288904486990e-05, 1.431277546022354e+01, -2.780053667491032e+02, -7.485950253478550e+00, 2.927013052063527e+02
319, -1.999999999999137e-04, 8.800000000002590e-03, 7.424528577817534e-04, -1.254517277839297e-05, 1.117494880529654e+01, 4.069765337588872e+02, 7.383817439625386e+01, 4.224537828502200e+02
320, -1.499999999998147e-04, 8.800000000002060e-03, 7.420991714929191e-04, -1.843695491274744e-05, 1.610360001210333e+01, 3.114313890217763e+02, 8.558834724523481e+01, 3.413502068228837e+02
321, -9.999999999967683e-05, 8.800000000001532e-03, 7.417469190274600e-04, -2.432792783185062e-05, 2.017483416511982e+01, 2.160486052967376e+02, 9.078442877671017e+01, 2.670838524706719e+02
322, -4.999999999957961e-05, 8.800000000001001e-03, 7.413960891285769e-04, -3.021840973254463e-05, 2.316468224054473e+01, 1.212894560695056e+02, 8.950390542637314e+01, 2.041378641636022e+02
323, 4.872540088421418e-16, 8.800000000000474e-03, 7.410466598750973e-04, -3.610871769604884e-05, 2.484761576069415e+01, 2.761458188856979e+01, 8.182518910187576e+01, 1.636737681724952e+02
324, 5.000000000035368e-05, 8.799999999999947e-03, 7.406985986758805e-04, -4.199916764153839e-05, 2.499783000146893e+01, -6.451556709264794e+01, 6.782805559798888e+01, 1.625276246185384e+02
325, 1.000000000002544e-04, 8.799999999999419e-03, 7.403518622693025e-04, -4.789007427121885e-05, 2.338943081347631e+01, -1.546408158904017e+02, 4.759381533925190e+01, 2.018798003160070e+02
326, 1.500000000001451e-04, 8.799999999998892e-03, 7.400063967254258e-04, -5.378175101036345e-05, 1.979688363823793e+01, -2.423008946686755e+02, 2.120541752954591e+01, 2.655069195403943e+02
327, 2.000000000000587e-04, 8.799999999998365e-03, 7.396621374499776e-04, -5.967450994408717e-05, 1.399556447012962e+01, -3.270350684606141e+02, -1.125251511121432e+01, 3.417723935347267e+02
328, -1.999999999999156e-04, 8.700000000002964e-03, 7.306647286488726e-04, -1.186350856936416e-05, 1.230283115401313e+01, 4.604515027117309e+02, 8.242944574891209e+01, 4.775098804473459e+02
329, -1.499999999998191e-04, 8.700000000002345e-03, 7.303107657238737e-04, -1.775181712823240e-05, 1.741836860728132e+01, 3.512595156703754e+02, 9.418848221559330e+01, 3.833220476318979e+02
330, -9.999999999968445e-05, 8.700000000001731e-03, 7.299584341390003e-04, -2.363927158389233e-05, 2.157291885604015e+01, 2.423271207141547e+02, 9.893543885372095e+01, 2.964545528116014e+02
331, -4.999999999958977e-05, 8.700000000001117e-03, 7.296077201985797e-04, -2.952621295726885e-05, 2.454106457016710e+01, 1.341184847135262e+02, 9.674652161354241e+01, 2.223662941692215e+02
332, 4.743926605710325e-16, 8.700000000000502e-03, 7.292585994788101e-04, -3.541298119317278e-05, 2.609620800647557e+01, 2.709759248318387e+01, 8.769994986131270e+01, 1.754027582268228e+02
333, 5.000000000034347e-05, 8.699999999999888e-03, 7.289110368150693e-04, -4.129991509422228e-05, 2.601120537563726e+01, -7.827173061231801e+01, 7.187561355928830e+01, 1.775932038011719e+02
334, 1.000000000002468e-04, 8.699999999999274e-03, 7.285649862984629e-04, -4.718735225512889e-05, 2.405886116967719e+01, -1.815256571416003e+02, 4.935505189369682e+01, 2.280541136638364e+02
335, 1.500000000001407e-04, 8.699999999998657e-03, 7.282203912755825e-04, -5.307562899835870e-05, 2.001203196260391e+01, -2.822004082637580e+02, 2.022147692589411e+01, 3.049065291918661e+02
336, 2.000000000000568e-04, 8.699999999998044e-03, 7.278771843498909e-04, -5.896508030650253e-05, 1.364378756387738e+01, -3.798322075619371e+02, -1.544005713075044e+01, 3.946858753452590e+02
337, -1.999999999999175e-04, 8.600000000003331e-03, 7.188832463390433e-04, -1.118461452959560e-05, 1.347227289999968e+01, 5.176066109364624e+02, 9.144468584396535e+01, 5.362834633511169e+02
338, -1.499999999998235e-04, 8.600000000002632e-03, 7.185290174110690e-04, -1.706896452963755e-05, 1.876242097881163e+01, 3.938315605161262e+02, 1.031183385668897e+02, 4.280308708825150e+02
339, -9.999999999969208e-05, 8.600000000001931e-03, 7.181766307165721e-04, -2.295241653598667e-05, 2.299070996217529e+01, 2.704143244054163e+02, 1.073181335117527e+02, 3.275472059199148e+02
340, -4.999999999959999e-05, 8.600000000001230e-03, 7.178260701378651e-04, -2.883533454464098e-05, 2.592828603334585e+01, 1.478217899911648e+02, 1.041198820086877e+02, 2.412919924596069e+02
341, 4.615584173542353e-16, 8.600000000000526e-03, 7.174773087399696e-04, -3.471808151789739e-05, 2.734621068273417e+01, 2.652089308904613e+01, 9.360154515700697e+01, 1.872049095837161e+02
342, 5.000000000033329e-05, 8.599999999999825e-03, 7.171303087699007e-04, -4.060101929464491e-05, 2.701567349777332e+01, -9.302124004094962e+01, 7.584301634984308e+01, 1.934360698734161e+02
343, 1.000000000002392e-04, 8.599999999999124e-03, 7.167850216551904e-04, -4.648450851824042e-05, 2.470787493304261e+01, -2.103374568876274e+02, 5.092593382716578e+01, 2.561642265332230e+02
344, 1.500000000001364e-04, 8.599999999998423e-03, 7.164413880040113e-04, -5.236890856785183e-05, 2.019401674620214e+01, -3.249606263249556e+02, 1.893361965042512e+01, 3.472256549361612e+02
345, 2.000000000000548e-04, 8.599999999997722e-03, 7.160993376047000e-04, -5.825457749407615e-05, 1.324457465154662e+01, -4.364241865513979e+02, -2.004892365789800e+01, 4.514530232052407e+02
346, -1.999999999999195e-04, 8.500000000003703e-03, 7.071093867968340e-04, -1.050873674292852e-05, 1.468446750566064e+01, 5.784660433243619e+02, 1.008889915185875e+02, 5.988021540301675e+02
347, -1.499999999998278e-04, 8.500000000002915e-03, 7.067549059708988e-04, -1.638861055096194e-05, 2.014095844458179e+01, 4.391698208366608e+02, 1.123827486946553e+02, 4.755046964376526e+02
348, -9.999999999969967e-05, 8.500000000002127e-03, 7.064024917277122e-04, -2.226754338857350e-05, 2.443360640110578e+01, 3.003285074210668e+02, 1.159369081366909e+02, 3.603934836841478e+02
349, -4.999999999961013e-05, 8.500000000001340e-03, 7.060521255218643e-04, -2.814592244556465e-05, 2.733011622780672e+01, 1.624119414724330e+02, 1.116273863236307e+02, 2.609402096672724e+02
350, 4.487512791917503e-16, 8.500000000000552e-03, 7.057037779048044e-04, -3.402413387218565e-05, 2.859973761453954e+01, 2.589071137189526e+01, 9.953226071631147e+01, 1.990829538568848e+02
351, 5.000000000032310e-05, 8.499999999999765e-03, 7.053574085290180e-04, -3.990256270635093e-05, 2.801184162545901e+01, -1.087647133089365e+02, 7.973142293256807e+01, 2.100862327501016e+02
352, 1.000000000002316e-04, 8.499999999998977e-03, 7.050129661512045e-04, -4.578159279836859e-05, 2.533593544546329e+01, -2.410838529044154e+02, 5.230653203432304e+01, 2.862226350207558e+02
353, 1.500000000001320e-04, 8.499999999998190e-03, 7.046703886335820e-04, -5.166160674236234e-05, 2.034163717824951e+01, -3.705961785149366e+02, 1.734093139345711e+01, 3.924731931550610e+02
354, 2.000000000000531e-04, 8.499999999997402e-03, 7.043296029451221e-04, -5.754298581159103e-05, 1.279888846601337e+01, -4.968308694267776e+02, -2.508059454316943e+01, 5.120924086729075e+02
355, -1.999999999999213e-04, 8.400000000004074e-03, 6.953441909802983e-04, -9.836129507295674e-06, 1.597741202611071e+01, 6.430882962424268e+02, 1.107577752923200e+02, 6.650843557424772e+02
356, -1.499999999998322e-04, 8.400000000003200e-03, 6.949894760245682e-04, -1.571097662067942e-05, 2.158231455838296e+01, 4.873170657466763e+02, 1.219787552367750e+02, 5.257605209416868e+02
357, -9.999999999970726e-05, 8.400000000002326e-03, 6.946370654779192e-04, -2.158484070740651e-05, 2.592105925782568e+01, 3.320989626535385e+02, 1.247897382450694e+02, 3.950124347572949e+02
358, -4.999999999962035e-05, 8.400000000001451e-03, 6.942869383791166e-04, -2.745813233270190e-05, 2.876057854333369e+01, 1.779081702161538e+02, 1.192678000655287e+02, 2.813258548937264e+02
359, 4.359305885021092e-16, 8.400000000000581e-03, 6.939390627737873e-04, -3.333126102042934e-05, 2.986741690096419e+01, 2.521789934407666e+01, 1.054912913347674e+02, 2.110338082000581e+02
360, 5.000000000031294e-05, 8.399999999999703e-03, 6.935933957291891e-04, -3.920463517445632e-05, 2.900880646702892e+01, -1.254984702188289e+02, 8.354026345688015e+01, 2.275706506179125e+02
361, 1.000000000002240e-04, 8.399999999998832e-03, 6.932498833404012e-04, -4.507866201397117e-05, 2.595230338875080e+01, -2.737674326164382e+02, 5.349639591511131e+01, 3.182442107166218e+02
362, 1.500000000001277e-04, 8.399999999997958e-03, 6.929084607335537e-04, -5.095374750682736e-05, 2.046574441358184e+01, -4.191152846936110e+02, 1.544302634555427e+01, 4.406647585203253e+02
363, 2.000000000000511e-04, 8.399999999997083e-03, 6.925690520683481e-04, -5.683029630317475e-05, 1.231796004334431e+01, -5.610676069010145e+02, -3.053472612785398e+01, 5.766285514773925e+02
364, -1.999999999999233e-04, 8.300000000004210e-03, 6.835887672102486e-04, -9.167055787688592e-06, 1.730309802955716e+01, 7.114622890505203e+02, 1.210528904743496e+02, 7.351681383518043e+02
365, -1.499999999998365e-04, 8.300000000003279e-03, 6.832338390953565e-04, -1.503629251347430e-05, 2.305505520451449e+01, 5.382690585858616e+02, 1.319050402822012e+02, 5.788274595141727e+02
366, -9.999999999971485e-05, 8.300000000002344e-03, 6.828814668918078e-04, -2.090450510272497e-05, 2.743569105268422e+01, 3.657266212915813e+02, 1.338748583624960e+02, 4.314286317436661e+02
367, -4.999999999963053e-05, 8.300000000001409e-03, 6.825316271714547e-04, -2.677212768820069e-05, 3.020990593431877e+01, 1.943117674453844e+02, 1.270393318973585e+02, 3.024655159635653e+02
368, 4.231098978124681e-16, 8.300000000000474e-03, 6.821842854549454e-04, -3.263959332008973e-05, 3.114379336803776e+01, 2.450149485073007e+01, 1.114772922149821e+02, 2.230535066927463e+02
369, 5.000000000030276e-05, 8.299999999999542e-03, 6.818393962187861e-04, -3.850733392423505e-05, 3.000353220120108e+01, -1.432273781812135e+02, 8.726889842673316e+01, 2.459113475266687e+02
370, 1.000000000002164e-04, 8.299999999998609e-03, 6.814969029002472e-04, -4.437578024203818e-05, 2.655531545434932e+01, -3.083981169437803e+02, 5.449580847530891e+01, 3.522399387360817e+02
371, 1.500000000001233e-04, 8.299999999997672e-03, 6.811567378990094e-04, -5.024536177014375e-05, 2.056535425036569e+01, -4.705338630623365e+02, 1.324125699770093e+01, 4.918127334592562e+02
372, 2.000000000000492e-04, 8.299999999996739e-03, 6.808188225759654e-04, -5.611650669508527e-05, 1.179937476256579e+01, -6.291579285821203e+02, -3.640971263554070e+01, 6.450805635017248e+02
373, -1.999999999999252e-04, 8.200000000004194e-03, 6.718442894772732e-04, -8.501786936873355e-06, 1.872415316961646e+01, 7.836691370294416e+02, 1.317674861446547e+02, 8.090682974581536e+02
374, -1.499999999998408e-04, 8.200000000003217e-03, 6.714891728948642e-04, -1.436479615059078e-05, 2.459865288805112e+01, 5.920817571163539e+02, 1.421568966622751e+02, 6.347215189822901e+02
375, -9.999999999972244e-05, 8.200000000002240e-03, 6.711368773395741e-04, -2.022674117370459e-05, 2.899895898116274e+01, 4.012469684928854e+02, 1.431875311313927e+02, 4.696586599557745e+02
376, -4.999999999964069e-05, 8.200000000001265e-03, 6.707873769298365e-04, -2.608807980311893e-05, 3.168899074060436e+01, 2.116437187444415e+02, 1.349378667304052e+02, 3.243711079025773e+02
377, 4.102892071228270e-16, 8.200000000000287e-03, 6.704406346681376e-04, -3.194926876175591e-05, 3.243310806303786e+01, 2.375141398953614e+01, 1.174868661559731e+02, 2.351340610983276e+02
378, 5.000000000029257e-05, 8.199999999999309e-03, 6.700966024480191e-04, -3.781076363856192e-05, 3.099553978684542e+01, -1.619509304968707e+02, 9.091480997492826e+01, 2.651232752627619e+02
379, 1.000000000002088e-04, 8.199999999998328e-03, 6.697552210598740e-04, -4.367301883928049e-05, 2.714064173407171e+01, -3.449841506061551e+02, 5.530325913511405e+01, 3.882147124441824e+02
380, 1.500000000001190e-04, 8.199999999997352e-03, 6.694164201912584e-04, -4.953648753566055e-05, 2.063258046995873e+01, -5.248689046759312e+02, 1.073512853091017e+01, 5.459238428889804e+02
381, 2.000000000000473e-04, 8.199999999996377e-03, 6.690801184204570e-04, -5.540162161292451e-05, 1.123491988427314e+01, -7.011255828172513e+02, -4.270528286776378e+01, 7.174625081134423e+02
382, -1.999999999999271e-04, 8.100000000004175e-03, 6.601120007844063e-04, -7.840602924581530e-06, 2.017469790064213e+01, 8.596868047764124e+02, 1.429016218310637e+02, 8.868280959006587e+02
383, -1.499999999998452e-04, 8.100000000003150e-03, 6.597567234811097e-04, -1.369673390270383e-05, 2.616899936306955e+01, 6.487453657529105e+02, 1.527307948687688e+02, 6.934753887429325e+02
384, -9.999999999973005e-05, 8.100000000002133e-03, 6.594045461378401e-04, -1.955176169518195e-05, 3.058203135053442e+01, 4.386558334139984e+02, 1.527241845835661e+02, 5.097282944445912e+02
385, -4.999999999965090e-05, 8.100000000001112e-03, 6.590554403836276e-04, -2.540616791525729e-05, 3.317919356883573e+01, 2.299022645375099e+02, 1.429595474980984e+02, 3.470586341452842e+02
386, 3.974685164331859e-16, 8.100000000000092e-03, 6.587093666752884e-04, -3.126043307737639e-05, 3.372295142628948e+01, 2.296535931174619e+01, 1.235162373245870e+02, 2.472665956400049e+02
387, 5.000000000028236e-05, 8.099999999999071e-03, 6.583662743125014e-04, -3.711503655464486e-05, 3.197644970213324e+01, -1.816736611420127e+02, 9.447458408300095e+01, 2.852159848506740e+02
388, 1.000000000002012e-04, 8.099999999998051e-03, 6.580261014410523e-04, -4.297045653985066e-05, 2.770282402583226e+01, -3.835333208346706e+02, 5.591593187020455e+01, 4.261707786643541e+02
389, 1.500000000001146e-04, 8.099999999997031e-03, 6.576887750508737e-04, -4.882717000641013e-05, 2.066505140935914e+01, -5.821317007070301e+02, 7.922674477540422e+00, 6.030049746441367e+02
390, 2.000000000000454e-04, 8.099999999996011e-03, 6.573542109681537e-04, -5.468565267228504e-05, 1.062575811827483e+01, -7.769862809218932e+02, -4.942173238676626e+01, 7.937901199746995e+02
391, -1.999999999999291e-04, 8.000000000004158e-03, 6.483932106855952e-04, -7.183792358113561e-06, 2.165850694251131e+01, 9.395342776999556e+02, 1.544602357954654e+02, 9.684667202911701e+02
392, -1.499999999998495e-04, 8.000000000003093e-03, 6.480378039058357e-04, -1.303236041454610e-05, 2.776385840544089e+01, 7.082707626079384e+02, 1.636300760371070e+02, 7.551085046553937e+02
393, -9.999999999973761e-05, 8.000000000002028e-03, 6.476857898891282e-04, -1.887978749403523e-05, 3.218506502781241e+01, 4.779647891301525e+02, 1.624846713953295e+02, 5.516562663240138e+02
394, -4.999999999966106e-05, 8.000000000000966e-03, 6.473371377205741e-04, -2.472657911435626e-05, 3.468030196746916e+01, 2.490960109894243e+02, 1.511024752897289e+02, 3.705427484516736e+02
395, 3.846478257435448e-16, 7.999999999999901e-03, 6.469918052956222e-04, -3.057323966618027e-05, 3.501306107908258e+01, 2.214825580311009e+01, 1.295628211396307e+02, 2.594447950941172e+02
396, 5.000000000027218e-05, 7.999999999998840e-03, 6.466497393198507e-04, -3.642027239758694e-05, 3.294628552594506e+01, -2.023948641222915e+02, 9.794570639610879e+01, 3.062007549361769e+02
397, 1.000000000001936e-04, 7.999999999997775e-03, 6.463108753078166e-04, -4.226817938511070e-05, 2.824263399727042e+01, -4.240494482433021e+02, 5.633196203232312e+01, 4.661129556697145e+02
398, 1.500000000001103e-04, 7.999999999996709e-03, 6.459751375770247e-04, -4.811746150436525e-05, 2.066446282979727e+01, -6.423311053452538e+02, 4.803312468424849e+00, 6.630651632097980e+02
399, 2.000000000000435e-04, 7.999999999995648e-03, 6.456424392399381e-04, -5.396861839920058e-05, 9.973951308332701e+00, -8.567547045256655e+02, -5.655765653510385e+01, 8.740787360957710e+02
400, -1.999999999999309e-04, 7.900000000004136e-03, 6.366892956212739e-04, -6.531651118602593e-06, 2.326990621025375e+01, 1.023307409747707e+03, 1.664257502457343e+02, 1.053975867779165e+03
401, -1.499999999998538e-04, 7.900000000003030e-03, 6.363337946551297e-04, -1.237193779154506e-05, 2.945444543169620e+01, 7.707343724788893e+02, 1.748405207151765e+02, 8.196174479468506e+02
402, -9.999999999974523e-05, 7.900000000001926e-03, 6.359819929004616e-04, -1.821104693819071e-05, 3.384860133501142e+01, 5.192223142217572e+02, 1.724581241486505e+02, 5.954450936072532e+02
403, -4.999999999967128e-05, 7.900000000000816e-03, 6.356338569704860e-04, -2.404950802258058e-05, 3.621575452068018e+01, 2.692558225101965e+02, 1.593585576470053e+02, 3.948268897502981e+02
404, 3.718271350539037e-16, 7.899999999999709e-03, 6.352893422475150e-04, -2.988784939048274e-05, 3.631671443296359e+01, 2.131830441177019e+01, 1.356207879736292e+02, 2.716559309595801e+02
405, 5.000000000026201e-05, 7.899999999998603e-03, 6.349483928875257e-04, -3.572659824511576e-05, 3.391274805877175e+01, -2.241057932522370e+02, 1.013243781613820e+02, 3.280854859627651e+02
406, 1.000000000001860e-04, 7.899999999997496e-03, 6.346109418157018e-04, -4.156628063188253e-05, 2.876502588680914e+01, -4.665313055768839e+02, 5.654954804028980e+01, 5.080451372620711e+02
407, 1.500000000001060e-04, 7.899999999996389e-03, 6.342769107200181e-04, -4.740742141535404e-05, 2.063441271851773e+01, -7.054724547877073e+02, 1.377303288713129e+00, 7.261120925154042e+02
408, 2.000000000000416e-04, 7.899999999995286e-03, 6.339462100420930e-04, -5.325054425224374e-05, 9.281787516364489e+00, -9.404424863916653e+02, -6.411042130670197e+01, 9.583406392982745e+02
409, -1.999999999999328e-04, 7.800000000004094e-03, 6.250017042528224e-04, -5.884483757170926e-06, 2.486121011449058e+01, 1.110916677725481e+03, 1.787987205859791e+02, 1.143412615227093e+03
410, -1.499999999998583e-04, 7.800000000002947e-03, 6.246461469039840e-04, -1.171573653354232e-05, 3.113245213713188e+01, 8.360748016767861e+02, 1.863578196316605e+02, 8.870451701203750e+02
411, -9.999999999975283e-05, 7.800000000001799e-03, 6.242946092205251e-04, -1.754577650428094e-05, 3.550478397072854e+01, 5.623945832747955e+02, 1.826408884264370e+02, 6.411268494701129e+02
412, -4.999999999968147e-05, 7.800000000000654e-03, 6.239470552911049e-04, -2.337515714058561e-05, 3.774182151210120e+01, 2.903620071287663e+02, 1.677248859439891e+02, 4.199327418059884e+02
413, 3.590064443642627e-16, 7.799999999999507e-03, 6.236034379752522e-04, -2.920443078260937e-05, 3.760559519713654e+01, 2.046278710541714e+01, 1.416883278606505e+02, 2.838947073776795e+02
414, 5.000000000025183e-05, 7.799999999998360e-03, 6.232636988847065e-04, -3.503414865301572e-05, 3.485743617152795e+01, -2.468165966803669e+02, 1.046100860224836e+02, 3.508751076573772e+02
415, 1.000000000001784e-04, 7.799999999997211e-03, 6.229277683716318e-04, -4.086486083727772e-05, 2.925815599840401e+01, -5.109890252473649e+02, 5.656971046111560e+01, 5.519669785509062e+02
416, 1.500000000001016e-04, 7.799999999996065e-03, 6.225955655190009e-04, -4.669711626215048e-05, 2.056812833604413e+01, -7.715667457813665e+02, -2.352543999826722e+00, 7.921488475318830e+02
417, 2.000000000000397e-04, 7.799999999994919e-03, 6.222669981313639e-04, -5.253146267606351e-05, 8.546361492583387e+00, -1.028062155117760e+03, -7.207563511999727e+01, 1.046583396304805e+03
418, -1.999999999999347e-04, 7.700000000003952e-03, 6.133319507220202e-04, -5.242603041989957e-06, 2.650318364809331e+01, 1.202436655783460e+03, 1.915793264865388e+02, 1.236782149061218e+03
419, -1.499999999998626e-04, 7.700000000002785e-03, 6.129763784634479e-04, -1.106403514926378e-05, 3.283827147042255e+01, 9.043410405136931e+02, 1.981864898102807e+02, 9.574072359363961e+02
420, -9.999999999976044e-05, 7.700000000001617e-03, 6.126251601766054e-04, -1.688422056149833e-05, 3.717266049069394e+01, 6.075117776956089e+02, 1.930355522820702e+02, 6.887217191242463e+02
421, -4.999999999969162e-05, 7.700000000000449e-03, 6.122782574882113e-04, -2.270373669752612e-05, 3.926642159755318e+01, 3.124322896277076e+02, 1.762035846595577e+02, 4.458816036171256e+02
422, 3.461857536746216e-16, 7.699999999999279e-03, 6.119356207738090e-04, -2.852315993692821e-05, 3.888155682375854e+01, 1.959033198707775e+01, 1.477675070148905e+02, 2.961639678848226e+02
423, 5.000000000024164e-05, 7.699999999998113e-03, 6.115971891313944e-04, -3.434306557815236e-05, 3.577863033413810e+01, -2.705260559649186e+02, 1.078051856619538e+02, 3.745802892187425e+02
424, 1.000000000001708e-04, 7.699999999996944e-03, 6.112628903658466e-04, -4.016402781269462e-05, 2.971753086445850e+01, -5.574281760315251e+02, 5.639531210694909e+01, 5.978810969055178e+02
425, 1.500000000000973e-04, 7.699999999995776e-03, 6.109326409782183e-04, -4.598661969754458e-05, 2.045771223261909e+01, -8.406266803655966e+02, -6.382594863484119e+00, 8.611790065050376e+02
426, 2.000000000000377e-04, 7.699999999994609e-03, 6.106063461586805e-04, -5.181141312895386e-05, 7.758611159863932e+00, -1.119631286615728e+03, -8.044853959130492e+01, 1.138813352440142e+03
427, -1.999999999999367e-04, 7.600000000003967e-03, 6.016816179868042e-04, -4.606328842902562e-06, 2.818607923100903e+01, 1.297873251435032e+03, 2.047615784795334e+02, 1.334096972241961e+03
428, -1.499999999998669e-04, 7.600000000002791e-03, 6.013260756493397e-04, -1.041711959307040e-05, 3.457120207106779e+01, 9.755474127401111e+02, 2.103207936657618e+02, 1.030716049180304e+03
429, -9.999999999976803e-05, 7.600000000001615e-03, 6.009752354587462e-04, -1.622663092174268e-05, 3.885035830047758e+01, 6.545837064288083e+02, 2.036406130053107e+02, 7.382449140075664e+02
430, -4.999999999970180e-05, 7.600000000000435e-03, 6.006290566666569e-04, -2.203546430569572e-05, 4.078884032149196e+01, 3.354737697868975e+02, 1.847952532427242e+02, 4.726905437368104e+02
431, 3.333650629849805e-16, 7.599999999999259e-03, 6.002874872175773e-04, -2.784422022844964e-05, 4.014594744994534e+01, 1.870570983208160e+01, 1.538604505882708e+02, 3.084669136390698e+02
432, 5.000000000023146e-05, 7.599999999998081e-03, 5.999504637365547e-04, -3.365349813741245e-05, 3.668075827532648e+01, -2.952311681461172e+02, 1.109130164570766e+02, 3.992146237041233e+02
433, 1.000000000001632e-04, 7.599999999996904e-03, 5.996179115173436e-04, -3.946389640387391e-05, 3.015192353277351e+01, -6.058467271630140e+02, 5.603075835404413e+01, 6.457956853477573e+02
434, 1.500000000000929e-04, 7.599999999995727e-03, 5.992897445134792e-04, -4.527601228767037e-05, 2.031791074415804e+01, -9.126499315714236e+02, -1.070757007710786e+01, 9.332135891760347e+02
435, 2.000000000000358e-04, 7.599999999994550e-03, 5.989658653328862e-04, -5.109044190410639e-05, 6.938025703875510e+00, -1.215148356747929e+03, -8.922207290823602e+01, 1.235045521165236e+03
436, -1.999999999999386e-04, 7.500000000004145e-03, 5.900523579035093e-04, -3.975989000575565e-06, 2.985666303317251e+01, 1.397195676102246e+03, 2.183466069959919e+02, 1.435380416407914e+03
437, -1.499999999998712e-04, 7.500000000002950e-03, 5.896968933347443e-04, -9.775283415567757e-06, 3.628612358180033e+01, 1.049664028871024e+03, 2.227647010477641e+02, 1.106991972446040e+03
438, -9.999999999977570e-05, 7.500000000001755e-03, 5.893464931532155e-04, -1.557326681825662e-05, 4.051319817893739e+01, 7.035950755143188e+02, 2.144596348518418e+02, 7.897147054308632e+02
439, -4.999999999971198e-05, 7.500000000000564e-03, 5.890011142359318e-04, -2.137056483825492e-05, 4.229487717396781e+01, 3.594774831584764e+02, 1.935037929665348e+02, 5.003795330635201e+02
440, 3.205443722953394e-16, 7.499999999999370e-03, 5.886607021136462e-04, -2.716780215109522e-05, 4.139060813369991e+01, 1.780242725170541e+01, 1.599718053361502e+02, 3.208119640651673e+02
441, 5.000000000022125e-05, 7.499999999998177e-03, 5.883251909618401e-04, -3.296560242732103e-05, 3.755908642677306e+01, -3.209385238657541e+02, 1.139394382025390e+02, 4.247932660684413e+02
442, 1.000000000001556e-04, 7.499999999996980e-03, 5.879945035918181e-04, -3.876458829154792e-05, 3.055849816435233e+01, -6.562530601180443e+02, 5.548349235862203e+01, 6.957181816565749e+02
443, 1.500000000000885e-04, 7.499999999995787e-03, 5.876685514403059e-04, -4.456538128450848e-05, 2.014652423843222e+01, -9.876481097079584e+02, -1.531814756318018e+01, 1.008260188041861e+03
444, 2.000000000000339e-04, 7.499999999994593e-03, 5.873472345598081e-04, -5.036860181916209e-05, 6.079866101918469e+00, -1.314630283577889e+03, -9.838632638620459e+01, 1.335288274623256e+03
445, -1.999999999999404e-04, 7.400000000004559e-03, 5.784458884496470e-04, -3.351917987764348e-06, 3.162270957036370e+01, 1.500498699849516e+03, 2.323197671475490e+02, 1.540612401497706e+03
446, -1.499999999998756e-04, 7.400000000003323e-03, 5.780905535057981e-04, -9.138826910283560e-06, 3.806617254377981e+01, 1.126762785329057e+03, 2.355093694933626e+02, 1.186220454707632e+03
447, -9.999999999978329e-05, 7.400000000002085e-03, 5.777406590353388e-04, -1.492439427467440e-05, 4.221222270098039e+01, 7.545901981466631e+02, 2.254868994334864e+02, 8.431249890523933e+02
448, -4.999999999972218e-05, 7.400000000000849e-03, 5.773961596237859e-04, -2.070926999157382e-05, 4.381552663813062e+01, 3.844702986496860e+02, 2.023261743660884e+02, 5.289510346229715e+02
449, 3.077507866600104e-16, 7.399999999999613e-03, 5.770569984535623e-04, -2.649410302432058e-05, 4.263286752767286e+01, 1.689479779444049e+01, 1.661010131541798e+02, 3.331975908030740e+02
450, 5.000000000021107e-05, 7.399999999998373e-03, 5.767231073089613e-04, -3.227954134922641e-05, 3.842126857652356e+01, -3.476434960832318e+02, 1.168861844246846e+02, 4.513264040018464e+02
451, 1.000000000001480e-04, 7.399999999997137e-03, 5.763944065698742e-04, -3.806623192344054e-05, 3.093738007736584e+01, -7.086508858468692e+02, 5.475739032924558e+01, 7.476525197412861e+02
452, 1.500000000000842e-04, 7.399999999995899e-03, 5.760708052011402e-04, -4.385482065199835e-05, 1.993711445779556e+01, -1.065632887801909e+03, -2.020868637635341e+01, 1.086322140907735e+03
453, 2.000000000000320e-04, 7.399999999994663e-03, 5.757522007361340e-04, -4.964595235504871e-05, 5.175216723986637e+00, -1.418094280948698e+03, -1.079342978664232e+02, 1.439546912618386e+03
454, -1.999999999999424e-04, 7.300000000004963e-03, 5.668639997282835e-04, -2.734457498086474e-06, 3.341162784472965e+01, 1.607745305831498e+03, 2.466675854219437e+02, 1.649820026680157e+03
455, -1.499999999998800e-04, 7.300000000003675e-03, 5.665088491452114e-04, -8.508057404344221e-06, 3.986725487277789e+01, 1.206824357094471e+03, 2.485399029237973e+02, 1.268415236350910e+03
456, -9.999999999979085e-05, 7.300000000002383e-03, 5.661595291616440e-04, -1.428028624862573e-05, 4.392249554230791e+01, 8.075604350734202e+02, 2.367114116230413e+02, 8.984832064438457e+02
457, -4.999999999973237e-05, 7.300000000001096e-03, 5.658159920695712e-04, -2.005181833153121e-05, 4.533616674558233e+01, 4.104480720369313e+02, 2.112549103066287e+02, 5.584095736107377e+02
458, 2.949029909160572e-16, 7.299999999999806e-03, 5.654781787336788e-04, -2.582332698626251e-05, 4.386440913951762e+01, 1.598041594002584e+01, 1.722437106602447e+02, 3.456140919071295e+02
459, 5.000000000020089e-05, 7.299999999998517e-03, 5.651460185877072e-04, -3.159548457452485e-05, 3.926314944517217e+01, -3.753483681050345e+02, 1.197516346021513e+02, 4.788157541736006e+02
460, 1.000000000001404e-04, 7.299999999997227e-03, 5.648194296266167e-04, -3.736896246489825e-05, 3.128788471795187e+01, -7.630430773488461e+02, 5.385323288046882e+01, 8.015998752898337e+02
461, 1.500000000000799e-04, 7.299999999995936e-03, 5.644983183941476e-04, -4.314443100928969e-05, 1.969357621540993e+01, -1.146607337070543e+03, -2.537616127759193e+01, 1.167404650743003e+03
462, 2.000000000000302e-04, 7.299999999994650e-03, 5.641825799669428e-04, -4.892255952133132e-05, 4.234327839208049e+00, -1.525543653415250e+03, -1.178604941916207e+02, 1.547832373448539e+03
463, -1.999999999999443e-04, 7.200000000005343e-03, 5.553085513995275e-04, -2.123956990780949e-06, 3.521675934502528e+01, 1.718949441058914e+03, 2.613865725127441e+02, 1.763022264360629e+03
464, -1.499999999998843e-04, 7.200000000003976e-03, 5.549536428981098e-04, -7.883289603140862e-06, 4.167358184816220e+01, 1.289852020431178e+03, 2.618524691410175e+02, 1.353593837502419e+03
465, -9.999999999979844e-05, 7.200000000002606e-03, 5.546049692197144e-04, -1.364122284019354e-05, 4.563176044483436e+01, 8.625086764987511e+02, 2.481284734760798e+02, 9.558027272298591e+02
466, -4.999999999974257e-05, 7.200000000001237e-03, 5.542624803694755e-04, -1.939845538683285e-05, 4.684799649977417e+01, 4.374128667623246e+02, 2.202861691848312e+02, 5.887655757767391e+02
467, 2.821094052807283e-16, 7.199999999999870e-03, 5.539261149176808e-04, -2.515568499566345e-05, 4.507901209693929e+01, 1.505968120138886e+01, 1.783976492100822e+02, 3.580559246851681e+02
468, 5.000000000019069e-05, 7.199999999998501e-03, 5.535957999846352e-04, -3.091360847178409e-05, 4.008042203652370e+01, -4.040551466296357e+02, 1.225355177653622e+02, 5.072634579885627e+02
469, 1.000000000001328e-04, 7.199999999997132e-03, 5.532714512266885e-04, -3.667292165939480e-05, 3.160704156580748e+01, -8.194348668450563e+02, 5.277296341379478e+01, 8.575618184956113e+02
470, 1.500000000000756e-04, 7.199999999995762e-03, 5.529529728204322e-04, -4.243431942482858e-05, 1.941288087903115e+01, -1.230581618700668e+03, -3.081614185960320e+01, 1.251512999283646e+03
471, 2.000000000000282e-04, 7.199999999994395e-03, 5.526402574453757e-04, -4.819849563618316e-05, 3.251859287183393e+00, -1.636995737301437e+03, -1.281572430713968e+02, 1.660153394696222e+03
472, -1.999999999999461e-04, 7.100000000005715e-03, 5.437814721236808e-04, -1.520772543767668e-06, 3.707978266444769e+01, 1.834157873313826e+03, 2.764634957196869e+02, 1.880217519797700e+03
473, -1.499999999998886e-04, 7.100000000004259e-03, 5.434268667259954e-04, -7.264844995710051e-06, 4.351384668243699e+01, 1.375882588787792e+03, 2.754371715749386e+02, 1.441758997502778e+03
474, -9.999999999980600e-05, 7.100000000002804e-03, 5.430789143671130e-04, -1.300749090594933e-05, 4.735503640824098e+01, 9.194588361470644e+02, 2.597309473043514e+02, 1.015089009628888e+03
475, -4.999999999975274e-05, 7.100000000001348e-03, 5.427375628408463e-04, -1.874943337825624e-05, 4.835939564988537e+01, 4.653805128916985e+02, 2.294152473526442e+02, 6.200258342175023e+02
476, 2.692616095367750e-16, 7.099999999999895e-03, 5.424027484857345e-04, -2.449139461668706e-05, 4.628237616188062e+01, 1.414291355225853e+01, 1.845607252839450e+02, 3.705180027018640e+02
477, 5.000000000018050e-05, 7.099999999998441e-03, 5.420743961710090e-04, -3.023409591528162e-05, 4.087888472021433e+01, -4.337571985761516e+02, 1.252385094572473e+02, 5.366732232664556e+02
478, 1.000000000001252e-04, 7.099999999996985e-03, 5.417524192798316e-04, -3.597825764574283e-05, 3.190302384304155e+01, -8.778218301286558e+02, 5.152027521166352e+01, 9.155417330550084e+02
479, 1.500000000000712e-04, 7.099999999995530e-03, 5.414367196925294e-04, -4.172459924300963e-05, 1.910812461333107e+01, -1.317551684672806e+03, -3.652170608117921e+01, 1.338654094910695e+03
480, 2.000000000000263e-04, 7.099999999994075e-03, 5.411271877685160e-04, -4.747383919111299e-05, 2.246390962449851e+00, -1.752446464696783e+03, -1.388143046558239e+02, 1.776520380521955e+03
481, -1.999999999999481e-04, 7.000000000006086e-03, 5.322847618324880e-04, -9.252670996361257e-07, 3.894449291408233e+01, 1.953341234204677e+03, 2.918876299140281e+02, 2.001426600465618e+03
482, -1.499999999998929e-04, 7.000000000004546e-03, 5.319305232623654e-04, -6.653051834181970e-06, 4.535068958909974e+01, 1.464900202325106e+03, 2.892851705770288e+02, 1.532926762364124e+03
483, -9.999999999981362e-05, 7.000000000003004e-03, 5.315833700457762e-04, -1.237938399386062e-05, 4.906787600952333e+01, 9.784034249568817e+02, 2.715126043871300e+02, 1.076355396651875e+03
484, -4.999999999976293e-05, 7.000000000001462e-03, 5.312432478035077e-04, -1.810501112396747e-05, 4.985266877217703e+01, 4.943461941846926e+02, 2.386385181053249e+02, 6.522023178643791e+02
485, 2.564544713742900e-16, 6.999999999999921e-03, 5.309100906919959e-04, -2.383067991096995e-05, 4.746059407286899e+01, 1.322521241644034e+01, 1.907319491484259e+02, 3.829970849249276e+02
486, 5.000000000017032e-05, 6.999999999998381e-03, 5.305838213807368e-04, -2.955713617564471e-05, 4.164596668003958e+01, -4.644617263312575e+02, 1.278624074517345e+02, 5.670451286120276e+02
487, 1.000000000001176e-04, 6.999999999996837e-03, 5.302643510339249e-04, -3.528512485921682e-05, 3.216219663137855e+01, -9.382155106578635e+02, 5.009994893453025e+01, 9.755372439517090e+02
488, 1.500000000000668e-04, 6.999999999995296e-03, 5.299515792917241e-04, -4.101539001064275e-05, 1.876177578968796e+01, -1.407535710602795e+03, -4.248479118489389e+01, 1.428826213931426e+03
489, 2.000000000000244e-04, 6.999999999993755e-03, 5.296453942510297e-04, -4.674867477281694e-05, 1.195752707343502e+00, -1.871920876758081e+03, -1.498207620125212e+02, 1.896931983625128e+03
490, -1.999999999999499e-04, 6.900000000006458e-03, 5.208204897000850e-04, -3.378101589731352e-07, 4.083652546240103e+01, 2.076534237960248e+03, 3.076492287015299e+02, 2.126654031184094e+03
491, -1.499999999998973e-04, 6.900000000004828e-03, 5.204666846563961e-04, -6.048244878725279e-06, 4.719630025960336e+01, 1.556927338596451e+03, 3.033893324096491e+02, 1.627104224134873e+03
492, -9.999999999982122e-05, 6.900000000003202e-03, 5.201204113368078e-04, -1.175720209883135e-05, 5.077530419485009e+01, 1.039356896846571e+03, 2.834685046503647e+02, 1.139610081494837e+03
493, -4.999999999977310e-05, 6.900000000001573e-03, 5.197816132691060e-04, -1.746545381905283e-05, 5.133019255796884e+01, 5.243197645990847e+02, 2.479533637659150e+02, 6.853047626209573e+02
494, 2.436337806846489e-16, 6.899999999999946e-03, 5.194502224932150e-04, -2.317377124359520e-05, 4.861526605719649e+01, 1.231302198673615e+01, 1.969110656501004e+02, 3.954917496312455e+02
495, 5.000000000016015e-05, 6.899999999998319e-03, 5.191261595441726e-04, -2.888292475579453e-05, 4.238399154058774e+01, -4.961647668914001e+02, 1.304093589298416e+02, 5.983821260654472e+02
496, 1.000000000001100e-04, 6.899999999996692e-03, 5.188093334327427e-04, -3.459368390589682e-05, 3.238894408426393e+01, -1.000613549897457e+03, 4.851652376266696e+01, 1.037549789111110e+03
497, 1.500000000000625e-04, 6.899999999995065e-03, 5.184996416258442e-04, -4.030681739804278e-05, 1.838179140997360e+01, -1.500531803711020e+03, -4.869861056355415e+01, 1.522033090352067e+03
498, 2.000000000000225e-04, 6.899999999993437e-03, 5.181969700267342e-04, -4.602309308000645e-05, 1.140280375944087e-01, -1.995415969758924e+03, -1.611666525535184e+02, 2.021395243807355e+03
499, -1.999999999999519e-04, 6.800000000006828e-03, 5.093907953894267e-04, 2.412225745148208e-07, 4.273166862219810e+01, 2.203727083658347e+03, 3.237372206971633e+02, 2.255908760581011e+03
500, -1.499999999999017e-04, 6.800000000005111e-03, 5.090374932811887e-04, -5.450765084740052e-06, 4.903391190451453e+01, 1.651958765415391e+03, 3.177416265123401e+02, 1.724299002747985e+03
501, -9.999999999982880e-05, 6.800000000003401e-03, 5.086921833820111e-04, -1.114125134738879e-05, 5.246783432172475e+01, 1.102318709990375e+03, 2.955935661191101e+02, 1.204860608728778e+03
502, -4.999999999978328e-05, 6.800000000001686e-03, 5.083548071801540e-04, -1.683103272999866e-05, 5.278659793265481e+01, 5.553023767157376e+02, 2.573574924704316e+02, 7.193424939822764e+02
503, 2.308130899950078e-16, 6.799999999999972e-03, 5.080252946640019e-04, -2.252090498206964e-05, 4.974411239200015e+01, 1.140774449306338e+01, 2.030987693361020e+02, 4.080025950003741e+02
504, 5.000000000014997e-05, 6.799999999998255e-03, 5.077035643034718e-04, -2.821166308221520e-05, 4.309350829282926e+01, -5.288654498106475e+02, 1.328831927194748e+02, 6.306891638391285e+02
505, 1.000000000001024e-04, 6.799999999996542e-03, 5.073895230287802e-04, -3.390410122554070e-05, 3.258691862166162e+01, -1.065015894487109e+03, 4.677710619692103e+01, 1.101582646014778e+03
506, 1.500000000000582e-04, 6.799999999994830e-03, 5.070830662089509e-04, -3.959901281078891e-05, 1.797557307048976e+01, -1.596540658368668e+03, -5.515254020779517e+01, 1.618279911617885e+03
507, 2.000000000000206e-04, 6.799999999993115e-03, 5.067840776321854e-04, -4.529719042467626e-05, -9.903208966839117e-01, -2.122935438845318e+03, -1.728380493815371e+02, 2.149916986500200e+03
508, -1.999999999999538e-04, 6.700000000007203e-03, 4.979978882077612e-04, 8.114495587793351e-07, 4.465287508497224e+01, 2.334948085518310e+03, 3.401355355365524e+02, 2.389188331018055e+03
509, -1.499999999999060e-04, 6.700000000005407e-03, 4.976451613288208e-04, -4.860959181649873e-06, 5.088266239335476e+01, 1.750018596157045e+03, 3.323307316737113e+02, 1.824510285601631e+03
510, -9.999999999983645e-05, 6.700000000003612e-03, 4.973009011832550e-04, -1.053184365501251e-05, 5.415620505527022e+01, 1.167305389615182e+03, 3.078800435891843e+02, 1.272109111691410e+03
511, -4.999999999979346e-05, 6.700000000001816e-03, 4.969650473058803e-04, -1.620202489822256e-05, 5.422698202846911e+01, 5.873043864569900e+02, 2.668470923292102e+02, 7.543215507000081e+02
512, 2.179923993053667e-16, 6.700000000000018e-03, 4.966375277217969e-04, -2.187232323655529e-05, 5.084858450531470e+01, 1.051463676507174e+01, 2.092950892539333e+02, 4.205289108771955e+02
513, 5.000000000013978e-05, 6.699999999998221e-03, 4.963182589212060e-04, -2.754355827616663e-05, 4.377340178789714e+01, -5.625631666526890e+02, 1.352877327537620e+02, 6.639692137162075e+02
514, 1.000000000000948e-04, 6.699999999996424e-03, 4.960071458353923e-04, -3.321654889413272e-05, 3.275270459061690e+01, -1.131426674641947e+03, 4.488929496016885e+01, 1.167635997320398e+03
515, 1.500000000000538e-04, 6.699999999994629e-03, 4.957040818136065e-04, -3.889211322447932e-05, 1.753658796285401e+01, -1.695571985119544e+03, -6.183529172592357e+01, 1.717566707985379e+03
516, 2.000000000000187e-04, 6.699999999992831e-03, 4.954089485996607e-04, -4.457106864127450e-05, -2.126098861491670e+00, -2.254493667154127e+03, -1.848203881018618e+02, 2.282497309117575e+03
517, -1.999999999999557e-04, 6.600000000007607e-03, 4.866440488735786e-04, 1.372483592316120e-06, 4.658738000960076e+01, 2.470204120333455e+03, 3.568274489398958e+02, 2.526503793237967e+03
518, -1.499999999999103e-04, 6.600000000005753e-03, 4.862919719586508e-04, -4.279179603072890e-06, 5.273051266072139e+01, 1.851113205447381e+03, 3.471420671048811e+02, 1.927747589475862e+03
519, -9.999999999984406e-05, 6.600000000003900e-03, 4.859488503658361e-04, -9.929296605808100e-06, 5.583024021341956e+01, 1.234321431633394e+03, 3.203186034593448e+02, 1.341364051681367e+03
520, -4.999999999980367e-05, 6.600000000002050e-03, 4.856146217725696e-04, -1.557871299452252e-05, 5.564356873728019e+01, 6.203289420696032e+02, 2.764174322872589e+02, 7.902505668106733e+02
521, 2.051717086157256e-16, 6.600000000000198e-03, 4.852892123299558e-04, -2.122827369876766e-05, 5.192313022805382e+01, 9.635428415689347e+00, 2.154995285466601e+02, 4.330686284411542e+02
522, 5.000000000012958e-05, 6.599999999998345e-03, 4.849725366335706e-04, -2.687882299095496e-05, 4.442024713573426e+01, -5.972576406836145e+02, 1.376264086655156e+02, 6.982224754080686e+02
523, 1.000000000000872e-04, 6.599999999996491e-03, 4.846644976984581e-04, -3.253120447190483e-05, 3.288511038006646e+01, -1.199846994836239e+03, 4.286020735174562e+01, 1.235708878631194e+03
524, 1.500000000000495e-04, 6.599999999994639e-03, 4.843649869350731e-04, -3.818626105624152e-05, 1.706684051561163e+01, -1.797627529068006e+03, -6.873630133150664e+01, 1.819894055015683e+03
525, 2.000000000000168e-04, 6.599999999992787e-03, 4.840738841250951e-04, -4.384483495977998e-05, -3.286701828290091e+00, -2.390092474826849e+03, -1.970996507610337e+02, 2.419139286469412e+03
526, -1.999999999999576e-04, 6.500000000008018e-03, 4.753316291631845e-04, 1.923931491696549e-06, 4.849014521336790e+01, 2.609474538951968e+03, 3.738030241036382e+02, 2.667874784971881e+03
527, -1.499999999999147e-04, 6.500000000006126e-03, 4.749802790519553e-04, -3.705784564990955e-06, 5.453891132173007e+01, 1.955224196147773e+03, 3.621698810355695e+02, 2.034028673070153e+03
528, -9.999999999985163e-05, 6.500000000004228e-03, 4.746383870308673e-04, -9.333933414090077e-06, 5.746422060148473e+01, 1.303356239651125e+03, 3.329056682584463e+02, 1.412639960841403e+03
529, -4.999999999981387e-05, 6.500000000002332e-03, 4.743058889886483e-04, -1.496138518757734e-05, 5.701932448910958e+01, 6.543697060939146e+02, 2.860675895897876e+02, 8.271433622161584e+02
530, 1.923510179260846e-16, 6.500000000000438e-03, 4.739827092697943e-04, -2.058900945210001e-05, 5.295654934474649e+01, 8.765647445981415e+00, 2.217141199933425e+02, 4.456247747021201e+02
531, 5.000000000011942e-05, 6.499999999998543e-03, 4.736687606470865e-04, -2.621767518114497e-05, 4.502674256456686e+01, -6.329532306869426e+02, 1.399044420551834e+02, 7.334506498444227e+02
532, 1.000000000000796e-04, 6.499999999996646e-03, 4.733639442952957e-04, -3.184825073859185e-05, 3.297946760144072e+01, -1.270282381331146e+03, 4.069837415767593e+01, 1.305801239668388e+03
533, 1.500000000000451e-04, 6.499999999994751e-03, 4.730681497648315e-04, -3.748160386375254e-05, 1.656305243810971e+01, -1.902715390890364e+03, -7.584358971485798e+01, 1.925263291975596e+03
534, 2.000000000000149e-04, 6.499999999992855e-03, 4.727812549560341e-04, -4.311860165458120e-05, -4.475095470951260e+00, -2.529743718908382e+03, -2.096603347957615e+02, 2.559845980613728e+03
535, -1.999999999999595e-04, 6.400000000008258e-03, 4.640630497228616e-04, 2.465395148245901e-06, 5.040584154004196e+01, 2.752800734372357e+03, 3.910474800453123e+02, 2.813291787818202e+03
536, -1.499999999999190e-04, 6.400000000006336e-03, 4.637125058813824e-04, -3.141137288202072e-06, 5.634226271132346e+01, 2.062384012170342e+03, 3.774046651846179e+02, 2.143347994560159e+03
537, -9.999999999985919e-05, 6.400000000004416e-03, 4.633719369739265e-04, -8.746082298428947e-06, 5.907953433851716e+01, 1.374431334520852e+03, 3.456353889030191e+02, 1.485935949659834e+03
538, -4.999999999982406e-05, 6.400000000002495e-03, 4.630412772071846e-04, -1.435033463456080e-05, 5.836782139949594e+01, 6.894409834942596e+02, 2.957952195914618e+02, 8.650043836009899e+02
539, 1.795438797635995e-16, 6.400000000000575e-03, 4.627204492184045e-04, -1.995478853620409e-05, 5.395810136193180e+01, 7.914503522344262e+00, 2.279401980708840e+02, 4.581996818946834e+02
540, 5.000000000010922e-05, 6.399999999998654e-03, 4.624093640551108e-04, -2.556033771313081e-05, 4.560047626235999e+01, -6.696443271676920e+02, 1.421269862695270e+02, 7.696593075757136e+02
541, 1.000000000000720e-04, 6.399999999996736e-03, 4.621079211486854e-04, -3.116787533038553e-05, 3.304377208846472e+01, -1.342729746845250e+03, 3.841288657061361e+01, 1.377916896920132e+03
542, 1.500000000000408e-04, 6.399999999994814e-03, 4.618160082869811e-04, -3.677829399335205e-05, 1.603549412663409e+01, -2.010834019333533e+03, -8.314412590767742e+01, 2.033679376717496e+03
543, 2.000000000000129e-04, 6.399999999992895e-03, 4.615335015863000e-04, -4.239248573340822e-05, -5.678070210509588e+00, -2.673447394413137e+03, -2.224852055806325e+02, 2.704624157617019e+03
544, -1.999999999999615e-04, 6.300000000008254e-03, 4.528408026961447e-04, 2.996471891039150e-06, 5.232598250639572e+01, 2.900185248666526e+03, 4.085387802998061e+02, 2.962755160300886e+03
545, -1.499999999999234e-04, 6.300000000006307e-03, 4.524911468149301e-04, -2.585605541657782e-06, 5.813974757102642e+01, 2.172599774959919e+03, 3.928285871651180e+02, 2.255703527284117e+03
546, -9.999999999986685e-05, 6.300000000004357e-03, 4.521519967909294e-04, -8.166076065404422e-06, 6.067688570486533e+01, 1.447553740368132e+03, 3.584957590416417e+02, 1.561250859728842e+03
547, -4.999999999983422e-05, 6.300000000002410e-03, 4.518232852411970e-04, -1.374585909859290e-05, 5.968929805879139e+01, 7.255477661049890e+02, 3.055938681872020e+02, 9.038351335079296e+02
548, 1.667096365468024e-16, 6.300000000000461e-03, 4.515049332011831e-04, -1.932587359258025e-05, 5.492745405979733e+01, 7.084496567162603e+00, 2.341765274852380e+02, 4.707903277275563e+02
549, 5.000000000009904e-05, 6.299999999998514e-03, 4.511968500978673e-04, -2.490703803137817e-05, 4.614052553271102e+01, -7.073313438655512e+02, 1.442978147090299e+02, 8.068502310179492e+02
550, 1.000000000000644e-04, 6.299999999996569e-03, 4.508989337224785e-04, -3.049027042058283e-05, 3.307636573914473e+01, -1.417192932104811e+03, 3.601241005781175e+01, 1.452056683115879e+03
551, 1.500000000000364e-04, 6.299999999994618e-03, 4.506110702020027e-04, -3.607648827480512e-05, 1.548147429209484e+01, -2.121991330280753e+03, -9.062433609870132e+01, 2.145143601594503e+03
552, 2.000000000000111e-04, 6.299999999992672e-03, 4.503331339699148e-04, -4.166660860307097e-05, -6.899486237693338e+00, -2.821215803087325e+03, -2.355564118128583e+02, 2.853475709353537e+03
553, -1.999999999999633e-04, 6.200000000008235e-03, 4.416674520512865e-04, 3.516754313435021e-06, 5.423983947936981e+01, 3.051637074894789e+03, 4.262566437977675e+02, 3.116274874333607e+03
554, -1.499999999999277e-04, 6.200000000006244e-03, 4.413187676910123e-04, -2.039561704091560e-06, 5.991772231081080e+01, 2.285875435800807e+03, 4.084252479320113e+02, 2.371103640678516e+03
555, -9.999999999987445e-05, 6.200000000004252e-03, 4.409811342232456e-04, -7.594252049944690e-06, 6.224539604723304e+01, 1.522726212505529e+03, 3.714752568554147e+02, 1.638590760704416e+03
556, -4.999999999984441e-05, 6.200000000002263e-03, 4.406544827749190e-04, -1.314826080893940e-05, 6.097588975563093e+01, 7.626919887321676e+02, 3.154570906249749e+02, 9.436409209361063e+02
557, 1.538618408028491e-16, 6.200000000000271e-03, 4.403387328792507e-04, -1.870253167612139e-05, 5.585908817845518e+01, 6.276326131935178e+00, 2.404216368266121e+02, 4.833929086258003e+02
558, 5.000000000008886e-05, 6.199999999998280e-03, 4.400337924443845e-04, -2.425800794626485e-05, 4.664321509700918e+01, -7.460152374250544e+02, 1.464202956264380e+02, 8.450225051677655e+02
559, 1.000000000000568e-04, 6.199999999996288e-03, 4.397395577242504e-04, -2.981563250475468e-05, 3.307506735242288e+01, -1.493674968277710e+03, 3.350501963317214e+01, 1.528219884918099e+03
560, 1.500000000000321e-04, 6.199999999994299e-03, 4.394559132887059e-04, -3.537634781718938e-05, 1.489998249021647e+01, -2.236192906287354e+03, -9.827163448997067e+01, 2.259656710760789e+03
561, 2.000000000000091e-04, 6.199999999992307e-03, 4.391827319920271e-04, -4.094109591952507e-05, -8.137852583734002e+00, -2.973056530269434e+03, -2.488564857788683e+02, 3.006403327457304e+03
562, -1.999999999999653e-04, 6.100000000008216e-03, 4.305456331472740e-04, 4.025830499084861e-06, 5.612378597893371e+01, 3.207151062156601e+03, 4.441846980851337e+02, 3.273862104497925e+03
563, -1.499999999999321e-04, 6.100000000006179e-03, 4.301980055352394e-04, -1.503382591955267e-06, 6.165632901480765e+01, 2.402207129058755e+03, 4.241827756614399e+02, 2.489558626796672e+03
564, -9.999999999988203e-05, 6.100000000004146e-03, 4.298619880144943e-04, -7.030951903514622e-06, 6.377106705637127e+01, 1.599947288020772e+03, 3.845657640426146e+02, 1.717964111776258e+03
565, -4.999999999985460e-05, 6.100000000002112e-03, 4.295375103170323e-04, -1.255784621003327e-05, 6.221856781344337e+01, 8.008736752613918e+02, 3.253807563329937e+02, 9.844297405738330e+02
566, 1.410275975860520e-16, 6.100000000000079e-03, 4.292244905680729e-04, -1.808503397238519e-05, 5.674809039794323e+01, 5.490581304482987e+00, 2.466757582409154e+02, 4.960071078657929e+02
567, 5.000000000007866e-05, 6.099999999998046e-03, 4.289228352572252e-04, -2.361348332396828e-05, 4.710739841094315e+01, -7.856954330293024e+02, 1.484992871920232e+02, 8.841768540518610e+02
568, 1.000000000000492e-04, 6.099999999996011e-03, 4.286324392076248e-04, -2.914416206207990e-05, 3.304272445168058e+01, -1.572175477922593e+03, 3.090037335027158e+01, 1.606407423266725e+03
569, 1.500000000000277e-04, 6.099999999993980e-03, 4.283531855437726e-04, -3.467803764010546e-05, 1.429879364882174e+01, -2.353438258184856e+03, -1.060713886250673e+02, 2.377221761755819e+03
570, 2.000000000000072e-04, 6.099999999991945e-03, 4.280849456589003e-04, -4.021607715872401e-05, -9.381193738737750e+00, -3.128970092690866e+03, -2.623657255351365e+02, 3.163412397112913e+03
571, -1.999999999999672e-04, 6.000000000008407e-03, 4.194780517694622e-04, 4.523284782759066e-06, 5.799697653885420e+01, 3.366750150237893e+03, 4.623025383243619e+02, 3.435511914144391e+03
572, -1.499999999999365e-04, 6.000000000006308e-03, 4.191315679689886e-04, -9.774487786041035e-07, 6.337059509759419e+01, 2.521613733908594e+03, 4.400865209859353e+02, 2.611065666222391e+03
573, -9.999999999988962e-05, 6.000000000004209e-03, 4.187972675602523e-04, -6.476521035184061e-06, 6.526278743383418e+01, 1.679230586408153e+03, 3.977572965236270e+02, 1.799370868908671e+03
574, -4.999999999986476e-05, 6.000000000002106e-03, 4.184750789924929e-04, -1.197492548422571e-05, 6.342186763666339e+01, 8.401018871502672e+02, 3.353597033048479e+02, 1.026204840718711e+03
575, 1.282204594235670e-16, 6.000000000000007e-03, 4.181649190985169e-04, -1.747365537252436e-05, 5.759632386756823e+01, 4.732381995051298e+00, 2.529387592797476e+02, 5.086321461864295e+02
576, 5.000000000006848e-05, 5.999999999997906e-03, 4.178666930666614e-04, -2.297370369301532e-05, 4.753332548855357e+01, -8.263705320977197e+02, 1.505398781759532e+02, 9.243143253185535e+02
577, 1.000000000000416e-04, 5.999999999995806e-03, 4.175802944075615e-04, -2.847606318090917e-05, 3.297843122047846e+01, -1.652696950208349e+03, 2.820894877003934e+01, 1.686619242958548e+03
578, 1.500000000000234e-04, 5.999999999993707e-03, 4.173056049195290e-04, -3.398172630792641e-05, 1.367550392890624e+01, -2.473734500815483e+03, -1.140075863779668e+02, 2.497838956119750e+03
579, 2.000000000000053e-04, 5.999999999991606e-03, 4.170424946531490e-04, -3.949168527474928e-05, -1.063345571464623e+01, -3.288968439208083e+03, -2.760626799171898e+02, 3.324503372982068e+03
580, -1.999999999999690e-04, 5.900000000008779e-03, 4.084674855850938e-04, 5.008698234314478e-06, 5.986026955715784e+01, 3.530446076282981e+03, 4.805839603339434e+02, 3.601223349581051e+03
581, -1.499999999999408e-04, 5.900000000006594e-03, 4.081222342030623e-04, -4.621441252391631e-07, 6.506321385762755e+01, 2.644107890303157e+03, 4.561154058274272e+02, 2.735623602916618e+03
582, -9.999999999989724e-05, 5.900000000004408e-03, 4.077897535828670e-04, -5.931308178142154e-06, 6.672175782327258e+01, 1.760586397744851e+03, 4.110353839734360e+02, 1.882811133887150e+03
583, -4.999999999987495e-05, 5.900000000002220e-03, 4.074699710129043e-04, -1.139981215584307e-05, 6.458582140007047e+01, 8.803842410448026e+02, 3.453859076109349e+02, 1.068968082872337e+03
584, 1.153862162067698e-16, 5.900000000000033e-03, 4.071628021648506e-04, -1.686867410521625e-05, 5.840349468551125e+01, 4.006798187124389e+00, 2.592088135867195e+02, 5.212636921502171e+02
585, 5.000000000005830e-05, 5.899999999997847e-03, 4.068681510566601e-04, -2.233891189985453e-05, 4.792117702577923e+01, -8.680378094637182e+02, 1.525462215307295e+02, 9.654337179444672e+02
586, 1.000000000000340e-04, 5.899999999995659e-03, 4.065859100158032e-04, -2.781154323911082e-05, 3.288353260342285e+01, -1.735238802593177e+03, 2.544071350548892e+01, 1.768854293557203e+03
587, 1.500000000000191e-04, 5.899999999993472e-03, 4.063159596426294e-04, -3.328758564368547e-05, 1.303347934360505e+01, -2.597082766817326e+03, -1.220645887713266e+02, 2.621508320376054e+03
588, 2.000000000000034e-04, 5.899999999991286e-03, 4.060581687735512e-04, -3.876805645052828e-05, -1.188776819047149e+01, -3.453053607639635e+03, -2.899259831391284e+02, 3.489677726866570e+03
589, -1.999999999999710e-04, 5.800000000009150e-03, 3.975167848031333e-04, 5.481648615252626e-06, 6.168970501489866e+01, 3.698237659209511e+03, 4.990044574383114e+02, 3.771008196401890e+03
590, -1.499999999999452e-04, 5.800000000006880e-03, 3.971728555136138e-04, 4.214427607607056e-08, 6.671198548509318e+01, 2.769688325817653e+03, 4.722502728940122e+02, 2.863243331851394e+03
591, -9.999999999990477e-05, 5.800000000004606e-03, 3.968422984605989e-04, -5.395665236862182e-06, 6.813102903274796e+01, 1.844014831897734e+03, 4.243870179186587e+02, 1.968293841170513e+03
592, -4.999999999988512e-05, 5.800000000002332e-03, 3.965250399016677e-04, -1.083282286069936e-05, 6.569807919775462e+01, 9.217213276542202e+02, 3.554526191352517e+02, 1.112727306979747e+03
593, 1.025655255171287e-16, 5.800000000000059e-03, 3.962209944768539e-04, -1.627037145155465e-05, 5.916101326197338e+01, 3.314082554911863e+00, 2.654853021298213e+02, 5.338994870359489e+02
594, 5.000000000004811e-05, 5.799999999997786e-03, 3.959300651629231e-04, -2.170935378422369e-05, 4.826548274113816e+01, -9.106980114097953e+02, 1.545237116202272e+02, 1.007532278850525e+03
595, 1.000000000000264e-04, 5.799999999995513e-03, 3.956521432333143e-04, -2.715081254882085e-05, 3.275525656926439e+01, -1.819803289758054e+03, 2.260698844003068e+01, 1.853110215630926e+03
596, 1.500000000000147e-04, 5.799999999993240e-03, 3.953871082197238e-04, -3.259579034553454e-05, 1.237232599629675e+01, -2.723487288045081e+03, -1.302251682525815e+02, 2.748228921601745e+03
597, 2.000000000000015e-04, 5.799999999990969e-03, 3.951348278746357e-04, -3.804532967853385e-05, -1.314302020729417e+01, -3.621232729912389e+03, -3.039324609636737e+02, 3.658935790170352e+03
598, -1.999999999999729e-04, 5.700000000009518e-03, 3.866288712348280e-04, 5.941710714208852e-06, 6.346722872504660e+01, 3.870125930510472e+03, 5.175434788456281e+02, 3.944877118727686e+03
599, -1.499999999999495e-04, 5.700000000007160e-03, 3.862863545988417e-04, 5.350263854330425e-07, 6.829919350740062e+01, 2.898355061355332e+03, 4.884768104579057e+02, 2.993936304025358e+03
600, -9.999999999991239e-05, 5.700000000004800e-03, 3.859578258052071e-04, -4.869946972025717e-06, 6.947627626691923e+01, 1.929516217372646e+03, 4.378032150465932e+02, 2.055829565632601e+03
601, -4.999999999989533e-05, 5.700000000002444e-03, 3.856432102219306e-04, -1.027427700023154e-05, 6.674807926889906e+01, 9.641137262080147e+02, 3.655561699420620e+02, 1.157493135114544e+03
602, 8.974483482748763e-17, 5.700000000000083e-03, 3.853424215868636e-04, -1.567903137575728e-05, 5.986168548892198e+01, 2.654501542461730e+00, 2.717700505638243e+02, 5.465423162289803e+02
603, 5.000000000003792e-05, 5.699999999997726e-03, 3.850553619644141e-04, -2.108527779404587e-05, 4.856208309875143e+01, -9.543516893233927e+02, 1.564798242966356e+02, 1.050609240660694e+03
604, 1.000000000000188e-04, 5.699999999995369e-03, 3.847819217042709e-04, -2.649408396085049e-05, 3.259229694830930e+01, -1.906392181419481e+03, 1.972101557736016e+01, 1.939385593731381e+03
605, 1.500000000000104e-04, 5.699999999993010e-03, 3.845219794012546e-04, -3.190651758491857e-05, 1.169346630385695e+01, -2.852951394053709e+03, -1.384702578384441e+02, 2.878000386587256e+03
606, 1.999999999999996e-04, 5.699999999990651e-03, 3.842754018559759e-04, -3.732364637018595e-05, -1.439507559283447e+01, -3.793510820914789e+03, -3.180572167808412e+02, 3.832278354859653e+03
607, -1.999999999999748e-04, 5.600000000009672e-03, 3.758067375926624e-04, 6.388457104825076e-06, 6.519410969998239e+01, 4.046119646631226e+03, 5.361789396141254e+02, 4.122829071370074e+03
608, -1.499999999999538e-04, 5.600000000007281e-03, 3.754657250803143e-04, 1.016109933527369e-06, 6.982679922084350e+01, 3.030116477771095e+03, 5.047799326366675e+02, 3.127703007400458e+03
609, -9.999999999991998e-05, 5.600000000004890e-03, 3.751393301271738e-04, -4.354510360058792e-06, 7.075839108432098e+01, 2.017097448573984e+03, 4.512746418775716e+02, 2.145420922876598e+03
610, -4.999999999990553e-05, 5.600000000002499e-03, 3.748274773556970e-04, -9.724496162243207e-06, 6.773588432821276e+01, 1.007566492600484e+03, 3.756928860505091e+02, 1.203271436859228e+03
611, 7.692414413784654e-17, 5.600000000000110e-03, 3.745300797421067e-04, -1.509493999125835e-05, 6.050541928717695e+01, 2.031198057907716e+00, 2.780651863804044e+02, 5.591960533260636e+02
612, 5.000000000002774e-05, 5.599999999997718e-03, 3.742470385781469e-04, -2.046693448356985e-05, 4.881130221336622e+01, -9.989977341778879e+02, 1.584226508325254e+02, 1.094666488904445e+03
613, 1.000000000000112e-04, 5.599999999995330e-03, 3.739782434297536e-04, -2.584157238468197e-05, 3.239583623640760e+01, -1.995006570048984e+03, 1.679696898765769e+01, 2.027680711966380e+03
614, 1.500000000000060e-04, 5.599999999992939e-03, 3.737235720950501e-04, -3.121994654111006e-05, 1.099929820974830e+01, -2.985478555160607e+03, -1.467795459284004e+02, 3.010823220674174e+03
615, 1.999999999999977e-04, 5.599999999990549e-03, 3.734828905623492e-04, -3.660314989170188e-05, -1.564007082603067e+01, -3.969893933701707e+03, -3.322738850271728e+02, 4.009706641482818e+03
616, -1.999999999999767e-04, 5.500000000009695e-03, 3.650534480292112e-04, 6.821458879353997e-06, 6.688667041154895e+01, 4.226239213079422e+03, 5.548819014981943e+02, 4.304856475265895e+03
617, -1.499999999999582e-04, 5.500000000007305e-03, 3.647140319204909e-04, 1.485001146600232e-06, 7.130859706147561e+01, 3.164989770070794e+03, 5.211378518635054e+02, 3.264537002824742e+03
618, -9.999999999992762e-05, 5.500000000004914e-03, 3.643898771451718e-04, -3.849713929399388e-06, 7.198656633026201e+01, 2.106771295150069e+03, 4.647869465895997e+02, 2.237064262715452e+03
619, -4.999999999991570e-05, 5.500000000002524e-03, 3.640809077328745e-04, -9.183803518124555e-06, 6.866727222319219e+01, 1.052088585715779e+03, 3.858556693899506e+02, 1.250062346538344e+03
620, 6.410345344820545e-17, 5.500000000000133e-03, 3.637870360554846e-04, -1.451838500607116e-05, 6.109595872501524e+01, 1.449877439994623e+00, 2.843706794387156e+02, 5.718604622724029e+02
621, 5.000000000001756e-05, 5.499999999997745e-03, 3.635081627882318e-04, -1.985457599513552e-05, 4.901601587668853e+01, -1.044633330586881e+03, 1.603590969010246e+02, 1.139705686945468e+03
622, 1.000000000000036e-04, 5.499999999995354e-03, 3.632441768675718e-04, -2.519349429736376e-05, 3.216880440161674e+01, -2.085646338991503e+03, 1.384859379550025e+01, 2.117996250182156e+03
623, 1.500000000000017e-04, 5.499999999992964e-03, 3.629949554477182e-04, -3.053625792847734e-05, 1.029357615259551e+01, -3.121071274744311e+03, -1.551325399441792e+02, 3.146698309217255e+03
624, 1.999999999999958e-04, 5.499999999990576e-03, 3.627603638563122e-04, -3.588398510049131e-05, -1.687257294325570e+01, -4.150387094951855e+03, -3.465553277005120e+02, 4.191222337729940e+03
625, -1.999999999999786e-04, 5.400000000009719e-03, 3.543721394848630e-04, 7.240285864822785e-06, 6.853019795766943e+01, 4.410486245936607e+03, 5.736212203312899e+02, 4.490962874511245e+03
626, -1.499999999999625e-04, 5.400000000007331e-03, 3.540344123830710e-04, 1.941305042526747e-06, 7.273313582938982e+01, 3.302977313713257e+03, 5.375261050682551e+02, 3.404440439084229e+03
627, -9.999999999993521e-05, 5.400000000004939e-03, 3.537126044625064e-04, -3.355917397669811e-06, 7.315280931521573e+01, 2.198540730691020e+03, 4.783234654566589e+02, 2.330761070284990e+03
628, -4.999999999992589e-05, 5.400000000002551e-03, 3.534066393090196e-04, -8.652523417416004e-06, 6.953676980552189e+01, 1.097682706297985e+03, 3.960356824745703e+02, 1.297867910805394e+03
629, 5.128276275856436e-17, 5.400000000000158e-03, 3.531164288468894e-04, -1.394965529202650e-05, 6.162978657855280e+01, 9.122982408716780e-01, 2.906853539272648e+02, 5.845327307698974e+02
630, 5.000000000000737e-05, 5.399999999997771e-03, 3.528418732937784e-04, -1.924845561372700e-05, 4.917442461374333e+01, -1.091258159644543e+03, 1.622954719794684e+02, 1.185725836835052e+03
631, 9.999999999999598e-05, 5.399999999995381e-03, 3.525828611159781e-04, -2.455006728952704e-05, 3.191109713330746e+01, -2.178312994426212e+03, 1.088954152505633e+01, 2.210331392205388e+03
632, 1.499999999999973e-04, 5.399999999992991e-03, 3.523392689830580e-04, -2.985563353684290e-05, 9.578045919027261e+00, -3.259733183287514e+03, -1.635083430238571e+02, 3.285625636978385e+03
633, 1.999999999999938e-04, 5.399999999990601e-03, 3.521109617218981e-04, -3.516629787832234e-05, -1.808873074904471e+01, -4.334996385236918e+03, -3.608734388052405e+02, 4.376826504753926e+03
634, -1.999999999999805e-04, 5.300000000009745e-03, 3.437660213973106e-04, 7.644506879968689e-06, 7.011081705411834e+01, 4.598865136692833e+03, 5.923676664847004e+02, 4.681155145563159e+03
635, -1.499999999999669e-04, 5.300000000007331e-03, 3.434300759138159e-04, 2.384625699247442e-06, 7.408647066251393e+01, 3.444081825907606e+03, 5.539225525138430e+02, 3.547420114830959e+03
636, -9.999999999994280e-05, 5.300000000004915e-03, 3.431107215477651e-04, -2.873481350133853e-06, 7.424592902316078e+01, 2.292408283459729e+03, 4.918691227699551e+02, 2.426517085531755e+03
637, -4.999999999993605e-05, 5.300000000002501e-03, 3.428078815989776e-04, -8.130981015912443e-06, 7.033607438314624e+01, 1.144350976394933e+03, 4.062251458830928e+02, 1.346693538387390e+03
638, 3.846207206892327e-17, 5.300000000000087e-03, 3.425214677022986e-04, -1.338904047439348e-05, 6.210119715154417e+01, 4.197047316972089e-01, 2.970088324775447e+02, 5.972115142776775e+02
639, 4.999999999999720e-05, 5.299999999997673e-03, 3.422513797784405e-04, -1.864882732897292e-05, 4.928317966366927e+01, -1.138872311148759e+03, 1.642388266369829e+02, 1.232725046005026e+03
640, 9.999999999998842e-05, 5.299999999995259e-03, 3.419975059859191e-04, -2.391150960828934e-05, 3.162158840737209e+01, -2.273008375154639e+03, 7.934277496465256e+00, 2.304684594469577e+03
641, 1.499999999999930e-04, 5.299999999992844e-03, 3.417597226732175e-04, -2.917825576276974e-05, 8.853705395819532e+00, -3.401468296621832e+03, -1.718850854102699e+02, 3.427604715802518e+03
642, 1.999999999999920e-04, 5.299999999990430e-03, 3.415378943310664e-04, -3.445023465998836e-05, -1.928540936335031e+01, -4.523728340203519e+03, -3.751989052744200e+02, 4.566519789869793e+03
643, -1.999999999999824e-04, 5.200000000009989e-03, 3.332383752912377e-04, 8.033690372906219e-06, 7.162338477871953e+01, 4.791384552323978e+03, 6.110914154697357e+02, 4.875436016492412e+03
644, -1.499999999999712e-04, 5.200000000007502e-03, 3.329043038688518e-04, 2.814566822257116e-06, 7.536364042134977e+01, 3.588311286543495e+03, 5.703052532299087e+02, 3.693479862113998e+03
645, -9.999999999995044e-05, 5.200000000005017e-03, 3.325875095736464e-04, -2.402766708632931e-06, 7.526088918027574e+01, 2.388380314160760e+03, 5.054093690016572e+02, 2.524336743645874e+03
646, -4.999999999994625e-05, 5.200000000002529e-03, 3.322879155912619e-04, -7.619501760194625e-06, 7.106084619629934e+01, 1.192098128213615e+03, 4.164169200465092e+02, 1.396544590364681e+03
647, 2.564138137928218e-17, 5.200000000000042e-03, 3.320054334364464e-04, -1.283683042028619e-05, 6.250712805500297e+01, -2.483895218324506e-02, 3.033414907748834e+02, 6.098971118146916e+02
648, 4.999999999998700e-05, 5.199999999997556e-03, 3.317399629024343e-04, -1.805594532171554e-05, 4.934093260367013e+01, -1.187474475375742e+03, 1.661971292608170e+02, 1.280702266927574e+03
649, 9.999999999998081e-05, 5.199999999995069e-03, 3.314913920102394e-04, -2.327803963946734e-05, 3.130100753463518e+01, -2.369733048027062e+03, 4.998407355017179e+00, 2.401054866568316e+03
650, 1.499999999999887e-04, 5.199999999992581e-03, 3.312595969584303e-04, -2.850430708691484e-05, 8.123692504135875e+00, -3.546279186695933e+03, -1.802395126690514e+02, 3.572635575506471e+03
651, 1.999999999999900e-04, 5.199999999990096e-03, 3.310444420732872e-04, -3.373594191105703e-05, -2.045700663381604e+01, -4.716587849439877e+03, -3.895007931202532e+02, 4.760303389923753e+03
652, -1.999999999999843e-04, 5.100000000010360e-03, 3.227925549481509e-04, 8.407405076979910e-06, 7.306515866302215e+01, 4.988054130918224e+03, 6.297601416097078e+02, 5.073806060664061e+03
653, -1.499999999999755e-04, 5.100000000007788e-03, 3.224604496238447e-04, 3.230732393351519e-06, 7.656239897067957e+01, 3.735674855643922e+03, 5.866501199128774e+02, 3.842621165735241e+03
654, -9.999999999995803e-05, 5.100000000005215e-03, 3.221463214891062e-04, -1.944134117524443e-06, 7.619499558429698e+01, 2.486464264222046e+03, 5.189283624113858e+02, 2.624222652253311e+03
655, -4.999999999995644e-05, 5.100000000002642e-03, 3.218500937974819e-04, -7.118410800208808e-06, 7.170837073529486e+01, 1.240929630306043e+03, 4.266033019782062e+02, 1.447425252946432e+03
656, 1.282069068964109e-17, 5.100000000000066e-03, 3.215716781250115e-04, -1.229331466859863e-05, 6.284548304714798e+01, -4.178500981387288e-01, 3.096837134688729e+02, 6.225899604652611e+02
657, 4.999999999997683e-05, 5.099999999997495e-03, 3.213109743172248e-04, -1.747006340437092e-05, 4.934671377881983e+01, -1.237063229583863e+03, 1.681788478215993e+02, 1.329656738335419e+03
658, 9.999999999997324e-05, 5.099999999994921e-03, 3.210678704369616e-04, -2.264987535341585e-05, 3.094992134479156e+01, -2.468487776574154e+03, 2.098495009872451e+00, 2.499441221654069e+03
659, 1.499999999999843e-04, 5.099999999992348e-03, 3.208422427122781e-04, -2.783396952197894e-05, 7.390451548372823e+00, -3.694168967364298e+03, -1.885469538443375e+02, 3.720717934345067e+03
660, 1.999999999999881e-04, 5.099999999989774e-03, 3.206339554843250e-04, -3.302356557161201e-05, -2.159889405628957e+01, -4.913580507944549e+03, -4.037464326659693e+02, 4.958177975646171e+03
661, -1.999999999999862e-04, 5.000000000010596e-03, 3.124319867641438e-04, 8.765220536167881e-06, 7.442939110422998e+01, 5.188882057772002e+03, 6.483396768847296e+02, 5.276267944871362e+03
662, -1.499999999999799e-04, 5.000000000007969e-03, 3.121019388337142e-04, 3.632727220053256e-06, 7.767587957829744e+01, 3.886179026662183e+03, 6.029315642750880e+02, 3.994846944019843e+03
663, -9.999999999996564e-05, 5.000000000005344e-03, 3.117905822042430e-04, -1.497943378674328e-06, 7.704226982130103e+01, 2.586665349103383e+03, 5.324092216634591e+02, 2.726177968753037e+03
664, -4.999999999996662e-05, 5.000000000002718e-03, 3.114978403859374e-04, -6.628032420244863e-06, 7.227386945187465e+01, 1.290849445363461e+03, 4.367759989153843e+02, 1.499339697040794e+03
665, 0.000000000000000e+00, 5.000000000000093e-03, 3.112236252020224e-04, -1.175878186324810e-05, 6.311273667694337e+01, -7.569026250304205e-01, 3.160357071403060e+02, 6.352901727362523e+02
666, 4.999999999996663e-05, 4.999999999997467e-03, 3.109678367359274e-04, -1.689143445934508e-05, 4.929834502362087e+01, -1.287637996371442e+03, 1.701926465390482e+02, 1.379587231271251e+03
667, 9.999999999996559e-05, 4.999999999994841e-03, 3.107303632780225e-04, -2.202723375044129e-05, 3.056760351446337e+01, -2.569274160995913e+03, -7.483588725759205e-01, 2.599842195337332e+03
668, 1.499999999999799e-04, 4.999999999992216e-03, 3.105110812717464e-04, -2.716742406555400e-05, 6.654827202606725e+00, -3.845141743925074e+03, -1.967819005695973e+02, 3.871850886968414e+03
669, 1.999999999999863e-04, 4.999999999989590e-03, 3.103098552592122e-04, -3.231325051735078e-05, -2.270832652570311e+01, -5.114713146337937e+03, -4.179019181975240e+02, 5.160143519120734e+03
670, -1.999999999999881e-04, 4.900000000010410e-03, 3.021601698160570e-04, 9.106707609861270e-06, 7.570117852913023e+01, 5.393868879002657e+03, 6.667963342234979e+02, 5.482825648850732e+03
671, -1.499999999999843e-04, 4.900000000007836e-03, 3.018322695024147e-04, 4.020157472484776e-06, 7.869191427002767e+01, 4.039824821074493e+03, 6.191244454799776e+02, 4.150160746444980e+03
672, -9.999999999997321e-05, 4.900000000005265e-03, 3.015237886670093e-04, -1.064552884712588e-06, 7.779408626849954e+01, 2.688985776091693e+03, 5.458351894296238e+02, 2.830206044986900e+03
673, -4.999999999997681e-05, 4.900000000002690e-03, 3.012346512592396e-04, -6.148689458268926e-06, 7.275132323274869e+01, 1.341859957211678e+03, 4.469267318138320e+02, 1.552292092126684e+03
674, -1.282069068964109e-17, 4.900000000000120e-03, 3.009647695360379e-04, -1.123351916715755e-05, 6.330501419396842e+01, -1.040219726565397e+00, 3.223977927297222e+02, 6.479981914760842e+02
675, 4.999999999995644e-05, 4.899999999997547e-03, 3.007140440087503e-04, -1.632030985205127e-05, 4.919397676434409e+01, -1.339198165392389e+03, 1.722475141397841e+02, 1.430492769961422e+03
676, 9.999999999995801e-05, 4.899999999994974e-03, 3.004823633875491e-04, -2.141033027461127e-05, 3.015432921065417e+01, -2.672093160206235e+03, -3.524469747610823e+00, 2.702256683146123e+03
677, 1.499999999999756e-04, 4.899999999992402e-03, 3.002696045249707e-04, -2.650485011586487e-05, 5.919475596130667e+00, -3.999200336324062e+03, -2.049179552806804e+02, 4.026034051199928e+03
678, 1.999999999999843e-04, 4.899999999989829e-03, 3.000756323592299e-04, -3.160513997335319e-05, -2.377985406038323e+01, -5.319990629697253e+03, -4.319321120652238e+02, 5.366200702331642e+03
679, -1.999999999999901e-04, 4.800000000010084e-03, 2.919806755474699e-04, 9.431439246792564e-06, 7.688621069561179e+01, 5.603028900417634e+03, 6.850934243493252e+02, 5.693475654423656e+03
680, -1.499999999999886e-04, 4.800000000007600e-03, 2.916550118467432e-04, 4.392631424840152e-06, 7.961497634303242e+01, 4.196624994044792e+03, 6.352012169798321e+02, 4.308560528769126e+03
681, -9.999999999998080e-05, 4.800000000005114e-03, 2.913495098229288e-04, -6.443189238012042e-07, 7.845232966731464e+01, 2.793435446304597e+03, 5.591876474186322e+02, 2.936306629718331e+03
682, -4.999999999998701e-05, 4.800000000002629e-03, 2.910640940620291e-04, -5.680702640108178e-06, 7.314110028211252e+01, 1.393968373337000e+03, 4.570460183242133e+02, 1.606284201724489e+03
683, -2.564138137928218e-17, 4.800000000000143e-03, 2.907986774577330e-04, -1.071781161451575e-05, 6.342226212487674e+01, -1.263055848135252e+00, 3.287696986230966e+02, 6.607134396182333e+02
684, 4.999999999994627e-05, 4.799999999997659e-03, 2.905531611535955e-04, -1.575693879338362e-05, 4.903397548044154e+01, -1.391741374673539e+03, 1.743524131860832e+02, 1.482372647328117e+03
685, 9.999999999995042e-05, 4.799999999995174e-03, 2.903274344842245e-04, -2.079937818083440e-05, 2.971153704514984e+01, -2.776944836751645e+03, -6.211641239138828e+00, 2.806683868646719e+03
686, 1.499999999999713e-04, 4.799999999992687e-03, 2.901213749161446e-04, -2.584642483848047e-05, 5.187353122558022e+00, -4.156347425008596e+03, -2.129277077718476e+02, 4.183267209316541e+03
687, 1.999999999999824e-04, 4.799999999990203e-03, 2.899348479883272e-04, -3.089937488341920e-05, -2.480897718358386e+01, -5.529418767205513e+03, -4.458003675876232e+02, 5.576350133498640e+03
688, -1.999999999999919e-04, 4.700000000009747e-03, 2.818971485773868e-04, 9.738991189383314e-06, 7.798563392859182e+01, 5.816376573331339e+03, 7.031895829067885e+02, 5.908217407260336e+03
689, -1.499999999999929e-04, 4.700000000007334e-03, 2.815738088603841e-04, 4.749760109635723e-06, 8.044429601796224e+01, 4.356591841174370e+03, 6.511300769589383e+02, 4.470046905394773e+03
690, -9.999999999998839e-05, 4.700000000004922e-03, 2.812713870049336e-04, -2.375950435662967e-07, 7.901444138080672e+01, 2.900023461269169e+03, 5.724452588346396e+02, 3.044481267431372e+03
691, -4.999999999999717e-05, 4.700000000002511e-03, 2.809898084521392e-04, -5.224389950551290e-06, 7.344028863187361e+01, 1.447181245604391e+03, 4.671227966237677e+02, 1.661318465967981e+03
692, -3.846207206892327e-17, 4.700000000000096e-03, 2.807289869495858e-04, -1.021194148317634e-05, 6.346211466024431e+01, -1.421114764534934e+00, 3.351504336014492e+02, 6.734338022653347e+02
693, 4.999999999993608e-05, 4.699999999997685e-03, 2.804888244884857e-04, -1.520156771135087e-05, 4.881717394090577e+01, -1.445265472453338e+03, 1.765162719582544e+02, 1.535224716880427e+03
694, 9.999999999994281e-05, 4.699999999995272e-03, 2.802692112422678e-04, -2.019458790543268e-05, 2.923977284198736e+01, -2.883829192630961e+03, -8.791121602866255e+00, 2.913122025057958e+03
695, 1.499999999999669e-04, 4.699999999992859e-03, 2.800700255054331e-04, -2.519232253656918e-05, 4.461300576660619e+00, -4.316585122327681e+03, -2.207826384303166e+02, 4.343549479702448e+03
696, 1.999999999999805e-04, 4.699999999990447e-03, 2.798911336324256e-04, -3.019609327650254e-05, -2.578999044939036e+01, -5.743001768242604e+03, -4.594685470215298e+02, 5.790592015929436e+03
697, -1.999999999999939e-04, 4.600000000009572e-03, 2.719133071973520e-04, 1.002894228737931e-05, 7.896773316132118e+01, 6.033903121668911e+03, 7.210458021011451e+02, 6.127061585802020e+03
698, -1.499999999999973e-04, 4.600000000007185e-03, 2.715923766273577e-04, 5.091157724328369e-06, 8.115318292904652e+01, 4.519718857531209e+03, 6.668817642695783e+02, 4.634629477942954e+03
699, -9.999999999999598e-05, 4.600000000004799e-03, 2.712931341386190e-04, 1.552684383654066e-07, 7.946119582713283e+01, 3.008746889967400e+03, 5.855885399197192e+02, 3.154737775194012e+03
700, -5.000000000000737e-05, 4.600000000002412e-03, 2.710155062384319e-04, -4.780066084815170e-06, 7.363525116079637e+01, 1.501497415716080e+03, 4.771473806479011e+02, 1.717401773728300e+03
701, -5.126921023140829e-17, 4.600000000000025e-03, 2.707594077389306e-04, -9.716187707382672e-06, 6.341511186628964e+01, -1.515179435229015e+00, 3.415401416360428e+02, 6.861593226966844e+02
702, 4.999999999992590e-05, 4.599999999997638e-03, 2.705247416915114e-04, -1.465443963950998e-05, 4.853732431509246e+01, -1.499771951992210e+03, 1.787490890203929e+02, 1.589045802487054e+03
703, 9.999999999993524e-05, 4.599999999995251e-03, 2.703113993229007e-04, -1.959616644047035e-05, 2.873533228852114e+01, -2.992749324119979e+03, -1.124305133672055e+01, 3.021568326833837e+03
704, 1.499999999999625e-04, 4.599999999992864e-03, 2.701192599714638e-04, -2.454271401948809e-05, 3.739491354359984e+00, -4.479919069321282e+03, -2.284530183543330e+02, 4.506878877349690e+03
705, 1.999999999999786e-04, 4.599999999990477e-03, 2.699481910234845e-04, -2.949542963475787e-05, -2.672272894885214e+01, -5.960748113411091e+03, -4.728969981925298e+02, 6.008925323802939e+03
706, -1.999999999999958e-04, 4.500000000009600e-03, 2.620329421493325e-04, 1.030087530017852e-05, 7.983188653558403e+01, 6.255619548248449e+03, 7.386237932519531e+02, 6.350008950733572e+03
707, -1.500000000000016e-04, 4.500000000007212e-03, 2.617145035574060e-04, 5.416442399694416e-06, 8.173972889429376e+01, 4.686015098593112e+03, 6.824284993956762e+02, 4.802310517570155e+03
708, -1.000000000000036e-04, 4.500000000004825e-03, 2.614185372775871e-04, 5.339251786732822e-07, 7.978970220796788e+01, 3.119612846026121e+03, 5.985991306891116e+02, 3.267079494401616e+03
709, -5.000000000001756e-05, 4.500000000002437e-03, 2.611449711083418e-04, -4.348041720663661e-06, 7.372326611642688e+01, 1.556922419425169e+03, 4.871110043566450e+02, 1.774538883946229e+03
710, -6.409667718462742e-17, 4.500000000000053e-03, 2.608937211487665e-04, -9.230825160765032e-06, 6.327953440189498e+01, -1.541181874535710e+00, 3.479398697875072e+02, 6.988922214544812e+02
711, 4.999999999991571e-05, 4.499999999997665e-03, 2.606646917341090e-04, -1.411579350659416e-05, 4.819446136348733e+01, -1.555258153771343e+03, 1.810619004871934e+02, 1.643835130484461e+03
712, 9.999999999992765e-05, 4.499999999995279e-03, 2.604577753700399e-04, -1.900431662679999e-05, 2.820079255825345e+01, -3.103703885597290e+03, -1.354627635709944e+01, 3.132021858075890e+03
713, 1.499999999999582e-04, 4.499999999992891e-03, 2.602728526666185e-04, -2.389776589479604e-05, 3.028067084855593e+00, -4.646348932210535e+03, -2.359075221343726e+02, 4.673255387583193e+03
714, 1.999999999999767e-04, 4.499999999990504e-03, 2.601097922720480e-04, -2.879751419010854e-05, -2.759737042416640e+01, -6.182659017587302e+03, -4.860440300140475e+02, 6.231351304237932e+03
715, -1.999999999999977e-04, 4.400000000009622e-03, 2.522599170110436e-04, 1.055437793522563e-05, 8.058598099884023e+01, 6.481541215519572e+03, 7.558798895429375e+02, 6.577054473242572e+03
716, -1.500000000000059e-04, 4.400000000007235e-03, 2.519440506387591e-04, 5.725237166635864e-06, 8.221053628772245e+01, 4.855494501266698e+03, 6.977374048173494e+02, 4.973086542043121e+03
717, -1.000000000000112e-04, 4.400000000004850e-03, 2.516514547699350e-04, 8.980337017860625e-07, 8.000318570501759e+01, 3.232631854750100e+03, 6.114552378826853e+02, 3.381505220552181e+03
718, -5.000000000002772e-05, 4.400000000002464e-03, 2.513820587324843e-04, -3.928622681249145e-06, 7.370533470066255e+01, 1.613463743933446e+03, 4.970027854179399e+02, 1.832731031454380e+03
719, -7.691736787426851e-17, 4.400000000000076e-03, 2.511357801515680e-04, -8.756123858273170e-06, 6.305527393890071e+01, -1.494409777607814e+00, 3.543495839132714e+02, 7.116327508946842e+02
720, 4.999999999990552e-05, 4.399999999997690e-03, 2.509125248845531e-04, -1.358586336456192e-05, 4.778815599689290e+01, -1.611722124521476e+03, 1.834655072891034e+02, 1.699591933555095e+03
721, 9.999999999991999e-05, 4.399999999995304e-03, 2.507121869537743e-04, -1.841923639824203e-05, 2.763586925613924e+01, -3.216693894247511e+03, -1.567914802305334e+01, 3.244481307865182e+03
722, 1.499999999999539e-04, 4.399999999992917e-03, 2.505346484783640e-04, -2.325763982302559e-05, 2.327002057946629e+00, -4.815879180964825e+03, -2.431135803546913e+02, 4.842677737980338e+03
723, 1.999999999999748e-04, 4.399999999990530e-03, 2.503797796058054e-04, -2.810247216894000e-05, -2.841337508622655e+01, -6.408742546224204e+03, -4.988664588091282e+02, 6.457868944704071e+03
724, -1.999999999999997e-04, 4.300000000009517e-03, 2.425981691459841e-04, 1.078904343384021e-05, 8.121676077859382e+01, 6.711669817578565e+03, 7.727679725007249e+02, 6.808200136285625e+03
725, -1.500000000000103e-04, 4.300000000007164e-03, 2.422849521048274e-04, 6.017170622472993e-06, 8.255450415924685e+01, 5.028159243632457e+03, 7.127732511323433e+02, 5.146959206096252e+03
726, -1.000000000000188e-04, 4.300000000004808e-03, 2.419958177231780e-04, 1.247258102732024e-06, 8.009362755005810e+01, 3.347807124389082e+03, 6.241331058681592e+02, 3.498016585550512e+03
727, -5.000000000003792e-05, 4.300000000002456e-03, 2.417306970945895e-04, -3.522109214159015e-06, 7.357562028336383e+01, 1.671124552217621e+03, 5.068104640231762e+02, 1.891980437451147e+03
728, -8.973805856390960e-17, 4.300000000000101e-03, 2.414895096126306e-04, -8.292348228375827e-06, 6.273831453950777e+01, -1.372474033404444e+00, 3.607684227524899e+02, 7.243794672909480e+02
729, 4.999999999989533e-05, 4.299999999997747e-03, 2.412721629012953e-04, -1.306487766117260e-05, 4.731614882007449e+01, -1.669162779468316e+03, 1.859703458675665e+02, 1.756314262717942e+03
730, 9.999999999991241e-05, 4.299999999995395e-03, 2.410785527448347e-04, -1.784111806121192e-05, 2.704014953541423e+01, -3.331719990161175e+03, -1.762002456459500e+01, 3.358945003580333e+03
731, 1.499999999999495e-04, 4.299999999993039e-03, 2.409085630170722e-04, -2.262249180879083e-05, 1.637881286968252e+00, -4.988512542194563e+03, -2.500384831867505e+02, 5.015144885371730e+03
732, 1.999999999999729e-04, 4.299999999990687e-03, 2.407620656100679e-04, -2.741042311957029e-05, -2.916635811213615e+01, -6.639003486506777e+03, -5.113202741789987e+02, 6.688478194256916e+03
733, -2.000000000000014e-04, 4.200000000009198e-03, 2.330517094753319e-04, 1.100447123093171e-05, 8.171488121323421e+01, 6.946010565971537e+03, 7.892420161390297e+02, 7.043448522417712e+03
734, -1.500000000000147e-04, 4.200000000006931e-03, 2.327412153475360e-04, 6.291877592328942e-06, 8.276256724485569e+01, 5.204014052346668e+03, 7.275013334356628e+02, 5.323931774005015e+03
735, -1.000000000000264e-04, 4.200000000004664e-03, 2.324556299910643e-04, 1.581268740987567e-06, 8.005339506192593e+01, 3.465143110458237e+03, 6.366093107490283e+02, 3.616616932909993e+03
736, -5.000000000004811e-05, 4.200000000002396e-03, 2.321948865126320e-04, -3.128795269907274e-06, 7.332831795875711e+01, 1.729908808449866e+03, 5.165221045569371e+02, 1.952290772262030e+03
737, -1.025587492535507e-16, 4.200000000000129e-03, 2.319589063244013e-04, -7.839756369256943e-06, 6.232488955990789e+01, -1.172217549674940e+00, 3.671960375362706e+02, 7.371320116102942e+02
738, 4.999999999988515e-05, 4.199999999997860e-03, 2.317475990695067e-04, -1.255305847760243e-05, 4.677701666959155e+01, -1.727578009128213e+03, 1.885876917663768e+02, 1.814000283218558e+03
739, 9.999999999990481e-05, 4.199999999995591e-03, 2.315608625484455e-04, -1.727014751409852e-05, 2.641501426786374e+01, -3.448781245778369e+03, -1.934599361719269e+01, 3.475411646944211e+03
740, 1.499999999999452e-04, 4.199999999993324e-03, 2.313985826456791e-04, -2.199247140191044e-05, 9.656470734584559e-01, -5.164249198771118e+03, -2.566476353893805e+02, 5.190656648126232e+03
741, 1.999999999999710e-04, 4.199999999991056e-03, 2.312606332565383e-04, -2.672148007214196e-05, -2.984797206422877e+01, -6.873443817126261e+03, -5.233593095255235e+02, 6.923180191069595e+03
742, -2.000000000000034e-04, 4.100000000008875e-03, 2.236246223828789e-04, 1.120026785488988e-05, 8.207862688681791e+01, 7.184574126992303e+03, 8.052537390676738e+02, 7.282800056719155e+03
743, -1.500000000000190e-04, 4.100000000006694e-03, 2.233169208589481e-04, 6.548999971339420e-06, 8.283167405516724e+01, 5.383068316013582e+03, 7.418855004069549e+02, 5.504006253958559e+03
744, -1.000000000000340e-04, 4.100000000004513e-03, 2.230349681417126e-04, 1.899743052507178e-06, 7.987813348757038e+01, 3.584646975826337e+03, 6.488597603263249e+02, 3.737309271723650e+03
745, -5.000000000005830e-05, 4.100000000002334e-03, 2.227786996177410e-04, -2.748967700928680e-06, 7.295893390420531e+01, 1.789821733174285e+03, 5.261256338763482e+02, 2.013665960879473e+03
746, -1.153726636796137e-16, 4.100000000000152e-03, 2.225480389811326e-04, -7.398599251430859e-06, 6.181105484114403e+01, -8.903429141616357e-01, 3.736323820360777e+02, 7.498907206415366e+02
747, 4.999999999987496e-05, 4.099999999997971e-03, 2.223428981566370e-04, -1.205062073147869e-05, 4.616773496260743e+01, -1.786966639319826e+03, 1.913295492812322e+02, 1.872647756490389e+03
748, 9.999999999989721e-05, 4.099999999995790e-03, 2.221631772234946e-04, -1.670650345009857e-05, 2.575850509412567e+01, -3.567878980929483e+03, -2.083296654233868e+01, 3.593879022857322e+03
749, 1.499999999999408e-04, 4.099999999993610e-03, 2.220087643396370e-04, -2.136772089843791e-05, 3.091967490454977e-01, -5.343093618425976e+03, -2.629048350816196e+02, 5.369211250682684e+03
750, 1.999999999999691e-04, 4.099999999991429e-03, 2.218795356659560e-04, -2.603574875414534e-05, -3.045805096892218e+01, -7.112071199064063e+03, -5.349352366404767e+02, 7.161973722995106e+03
751, -2.000000000000054e-04, 4.000000000008551e-03, 2.143210660480413e-04, 1.137604771853142e-05, 8.229564400070080e+01, 7.427363119008315e+03, 8.207536096826728e+02, 7.526258178115023e+03
752, -1.500000000000234e-04, 4.000000000006458e-03, 2.140162224378698e-04, 6.788187537821117e-06, 8.275104310487222e+01, 5.565325095195343e+03, 7.558887070548757e+02, 5.687186403351669e+03
753, -1.000000000000416e-04, 4.000000000004365e-03, 2.137379815930689e-04, 2.202366370666012e-06, 7.955931873074849e+01, 3.706322299526662e+03, 6.608598955844946e+02, 3.860097527944011e+03
754, -5.000000000006849e-05, 4.000000000002271e-03, 2.134862814502220e-04, -2.382905439402090e-06, 7.246087373676858e+01, 1.850866697646455e+03, 5.356088668418280e+02, 2.076110475739246e+03
755, -1.282069068964109e-16, 4.000000000000177e-03, 2.132610482546580e-04, -6.969119896540258e-06, 6.119210591124840e+01, -5.242000451479498e-01, 3.800776218910064e+02, 7.626564738269747e+02
756, 4.999999999986478e-05, 3.999999999998083e-03, 2.130621964822781e-04, -1.155777135896180e-05, 4.548560902013196e+01, -1.847327131773033e+03, 1.942084361724149e+02, 1.932254573919046e+03
757, 9.999999999988963e-05, 3.999999999995989e-03, 2.128896287614237e-04, -1.615035654525131e-05, 2.507017369463136e+01, -3.689013064437710e+03, -2.205607613009457e+01, 3.714345188825703e+03
758, 1.499999999999365e-04, 3.999999999993896e-03, 2.127432357946982e-04, -2.074837454033990e-05, -3.292252764488239e-01, -5.525047187716378e+03, -2.687728898368942e+02, 5.550807511502404e+03
759, 1.999999999999672e-04, 3.999999999991804e-03, 2.126228962807771e-04, -2.535332680082815e-05, -3.099136613388163e+01, -7.354888850719043e+03, -5.459984772128048e+02, 7.404858655854794e+03
760, -2.000000000000072e-04, 3.900000000008219e-03, 2.051452722405990e-04, 1.153143396506971e-05, 8.235843260121635e+01, 7.674382241342295e+03, 8.356914457407636e+02, 7.773824430898126e+03
761, -1.500000000000277e-04, 3.900000000006203e-03, 2.048433470826001e-04, 7.009098827912437e-06, 8.251424549473711e+01, 5.750789262067539e+03, 7.694735884803260e+02, 5.873474276523101e+03
762, -1.000000000000492e-04, 3.900000000004186e-03, 2.045688925600886e-04, 2.488832807192312e-06, 7.909147201383962e+01, 3.830173848043818e+03, 6.725848350173967e+02, 3.984984370476780e+03
763, -5.000000000007867e-05, 3.900000000002170e-03, 2.043218494348065e-04, -2.030878616830401e-06, 7.182961325108761e+01, 1.913047873135997e+03, 5.449595187810226e+02, 2.139628049211776e+03
764, -1.410275975860520e-16, 3.900000000000153e-03, 2.041021467802223e-04, -6.551552499188847e-06, 6.046463609876923e+01, -7.064264176290180e-02, 3.865321566472484e+02, 7.754308173278167e+02
765, 4.999999999985460e-05, 3.899999999998138e-03, 2.039097019019978e-04, -1.107470843748218e-05, 4.472861481022164e+01, -1.908657730617180e+03, 1.972375057178912e+02, 1.992819296662264e+03
766, 9.999999999988204e-05, 3.899999999996121e-03, 2.037444202574411e-04, -1.560186857946037e-05, 2.434968943359434e+01, -3.812183459162478e+03, -2.298936535973476e+01, 3.836808653549857e+03
767, 1.499999999999321e-04, 3.899999999994104e-03, 2.036061953747115e-04, -2.013455762965272e-05, -9.479323310648624e-01, -5.710111906873560e+03, -2.742129945959799e+02, 5.735444564620517e+03
768, 1.999999999999652e-04, 3.899999999992088e-03, 2.034949087721951e-04, -2.467430285508786e-05, -3.144407475551634e+01, -7.601901239091037e+03, -5.564974441775953e+02, 7.651835028184010e+03
769, -2.000000000000091e-04, 3.800000000007874e-03, 1.961015463904371e-04, 1.166605949642687e-05, 8.227073484305777e+01, 7.925643967692462e+03, 8.500137313908323e+02, 8.025496685189670e+03
770, -1.500000000000321e-04, 3.800000000005924e-03, 1.958025950739169e-04, 7.211402120652232e-06, 8.212301784382657e+01, 5.939471556865818e+03, 7.825997800106637e+02, 6.062869087344210e+03
771, -1.000000000000568e-04, 3.800000000003971e-03, 1.955319961346892e-04, 2.758846208493584e-06, 7.847419654920043e+01, 3.956210055737623e+03, 6.840076035835771e+02, 4.111970452310712e+03
772, -5.000000000008884e-05, 3.800000000002021e-03, 1.952896934489160e-04, -1.693147629756537e-06, 7.106368043583689e+01, 1.976371684748027e+03, 5.541640031648460e+02, 2.204220851210434e+03
773, -1.538415120121150e-16, 3.800000000000070e-03, 1.950756192093516e-04, -6.146121508374203e-06, 5.962697141379579e+01, 4.748484855757624e-01, 3.929957891953986e+02, 7.882142696933189e+02
774, 4.999999999984441e-05, 3.799999999998119e-03, 1.948896938430726e-04, -1.060162027846107e-05, 4.389555709592923e+01, -1.970955882969606e+03, 2.004299420161941e+02, 2.054340520011378e+03
775, 9.999999999987444e-05, 3.799999999996168e-03, 1.947318259282656e-04, -1.506119153730125e-05, 2.359685225538726e+01, -3.937389774582444e+03, -2.360628308280965e+01, 3.961267989469040e+03
776, 1.499999999999278e-04, 3.799999999994218e-03, 1.946019121105976e-04, -1.952638563607890e-05, -1.545802509155578e+00, -5.898289888710653e+03, -2.791852579814604e+02, 5.923121512450089e+03
777, 1.999999999999633e-04, 3.799999999992265e-03, 1.944998370195853e-04, -2.399875568567056e-05, -3.181304883730138e+01, -7.853112984229145e+03, -5.663789050205075e+02, 7.902902817039405e+03
778, -2.000000000000110e-04, 3.700000000007529e-03, 1.871942681964400e-04, 1.177956782959169e-05, 8.202232060300855e+01, 8.181150850368881e+03, 8.636644826782228e+02, 8.281276972558449e+03
779, -1.500000000000364e-04, 3.700000000005644e-03, 1.868983403976914e-04, 7.394776318391035e-06, 8.156852233628933e+01, 6.131375404875453e+03, 7.952249109648782e+02, 6.255373206459758e+03
780, -1.000000000000644e-04, 3.700000000003758e-03, 1.866316605800285e-04, 3.012121047709976e-06, 7.770028020246150e+01, 4.084434832007688e+03, 6.950997542990707e+02, 4.241058410625387e+03
781, -5.000000000009902e-05, 3.700000000001873e-03, 1.863941760292154e-04, -1.369962238427319e-06, 7.015728617824630e+01, 2.040841851190233e+03, 5.632078339312056e+02, 2.269892048442482e+03
782, -1.666825314924902e-16, 3.699999999999988e-03, 1.861858223554785e-04, -5.753040720509308e-06, 5.867477616065537e+01, 1.115314571304225e+00, 3.994679750100842e+02, 8.010067064969462e+02
783, 4.999999999983423e-05, 3.699999999998102e-03, 1.860065234072070e-04, -1.013868451689115e-05, 4.298373183279853e+01, -2.034219628172423e+03, 2.037991265467282e+02, 2.116816037057028e+03
784, 9.999999999986681e-05, 3.699999999996217e-03, 1.858561911848169e-04, -1.452846669495525e-05, 2.281090079234139e+01, -4.064631467436667e+03, -2.387953940637684e+01, 4.087721375436761e+03
785, 1.499999999999234e-04, 3.699999999994331e-03, 1.857347257541343e-04, -1.892396328062622e-05, -2.121241709076116e+00, -6.089582309240648e+03, -2.836485261482684e+02, 6.113837436034504e+03
786, 1.999999999999614e-04, 3.699999999992445e-03, 1.856420151590353e-04, -2.332675326564899e-05, -3.209442021653410e+01, -8.108527755978921e+03, -5.755878657467986e+02, 8.158062330712715e+03
787, -2.000000000000130e-04, 3.600000000007325e-03, 1.784278915163463e-04, 1.187161398327072e-05, 8.160666260422386e+01, 8.440908646999829e+03, 8.765868710709057e+02, 8.541167826266843e+03
788, -1.500000000000407e-04, 3.600000000005489e-03, 1.781350307106550e-04, 7.558911834033954e-06, 8.084331945693350e+01, 6.326505668656313e+03, 8.073062241810550e+02, 6.450989965781422e+03
789, -1.000000000000720e-04, 3.600000000003653e-03, 1.778723273364879e-04, 3.248383329048322e-06, 7.676276619866996e+01, 4.214852625924746e+03, 7.058325786320411e+02, 4.372251845834273e+03
790, -5.000000000010923e-05, 3.600000000001818e-03, 1.776397323948905e-04, -1.061560649629088e-06, 6.910439785170445e+01, 2.106462288678603e+03, 5.720764346191502e+02, 2.336645664943845e+03
791, -1.794761171278192e-16, 3.599999999999982e-03, 1.774371852194536e-04, -5.372512353385540e-06, 5.760315872173624e+01, 1.853832875775652e+00, 4.059483573277753e+02, 8.138084925833323e+02
792, 4.999999999982404e-05, 3.599999999998146e-03, 1.772646133877271e-04, -9.686067179695463e-06, 4.198962952687396e+01, -2.098447044210911e+03, 2.073590028501788e+02, 2.180243146654464e+03
793, 9.999999999985923e-05, 3.599999999996311e-03, 1.771219326324294e-04, -1.400382368471783e-05, 2.199002704940301e+01, -4.193908066588341e+03, -2.378080593072744e+01, 4.216166368024539e+03
794, 1.499999999999191e-04, 3.599999999994474e-03, 1.770090467520896e-04, -1.832738359503361e-05, -2.673829508988433e+00, -6.283990335921486e+03, -2.875599965055549e+02, 6.307590669985744e+03
795, 1.999999999999595e-04, 3.599999999992638e-03, 1.769258475207636e-04, -2.265835181875497e-05, -3.228483513280617e+01, -8.368148501746484e+03, -5.840671454549661e+02, 8.417313157413693e+03
796, -2.000000000000149e-04, 3.500000000007369e-03, 1.698069443643509e-04, 1.194186549847585e-05, 8.101782126087267e+01, 8.704921922172372e+03, 8.887223528722367e+02, 8.805170732228718e+03
797, -1.500000000000451e-04, 3.500000000005565e-03, 1.695171873508380e-04, 7.703511600174140e-06, 7.994174903385294e+01, 6.524867239236771e+03, 8.187997826908058e+02, 6.649721566412038e+03
798, -1.000000000000796e-04, 3.500000000003764e-03, 1.692585110457112e-04, 3.467371584806642e-06, 7.565607332848163e+01, 4.347468059171386e+03, 7.161765394713567e+02, 4.505553571443555e+03
799, -5.000000000011939e-05, 3.500000000001962e-03, 1.690308704788213e-04, -7.681685282539378e-07, 6.789966867516443e+01, 2.173236929732427e+03, 5.807547155806507e+02, 2.404485213402808e+03
800, -1.923239128717724e-16, 3.500000000000160e-03, 1.688342090217980e-04, -5.004726065180210e-06, 5.640718468296245e+01, 2.693231443340778e+00, 4.124363762113978e+02, 8.266197713956441e+02
801, 4.999999999981385e-05, 3.499999999998358e-03, 1.686684582977704e-04, -9.243921712473194e-06, 4.090882904451018e+01, -2.163636890531681e+03, 2.111236136801995e+02, 2.244619021285183e+03
802, 9.999999999985163e-05, 3.499999999996555e-03, 1.685335380899359e-04, -1.348737953154285e-05, 2.113030709562338e+01, -4.325220500737201e+03, -2.328137621673903e+01, 4.346600215647079e+03
803, 1.499999999999148e-04, 3.499999999994753e-03, 1.684293562494332e-04, -1.773672697278368e-05, -3.207213810703024e+00, -6.481517834597638e+03, -2.908762148945559e+02, 6.504378862656013e+03
804, 1.999999999999576e-04, 3.499999999992950e-03, 1.683558086026036e-04, -2.199359488907131e-05, -3.238704692729129e+01, -8.631982159327596e+03, -5.917583390313041e+02, 8.680653651913060e+03
805, -2.000000000000167e-04, 3.400000000007423e-03, 1.613360290102741e-04, 1.199000351236974e-05, 8.025372659746552e+01, 8.973196777297308e+03, 9.000101559076436e+02, 9.073285470321001e+03
806, -1.500000000000494e-04, 3.400000000005649e-03, 1.610494054327231e-04, 7.828292140929166e-06, 7.886162115458069e+01, 6.726466575402146e+03, 8.296596178278706e+02, 6.851568576140352e+03
807, -1.000000000000872e-04, 3.400000000003875e-03, 1.607947996388808e-04, 3.668837934239234e-06, 7.437752798486781e+01, 4.482287200953517e+03, 7.261006383789091e+02, 4.640965010993686e+03
808, -5.000000000012958e-05, 3.400000000002102e-03, 1.605721710111668e-04, -4.899979494370090e-07, 6.654041646156816e+01, 2.241171226090426e+03, 5.892267180497904e+02, 2.473412957684578e+03
809, -2.051242747706794e-16, 3.400000000000329e-03, 1.603814672864194e-04, -4.649857913502423e-06, 5.508479445054479e+01, 3.638210091085170e+00, 4.189311615618910e+02, 8.394403037456779e+02
810, 4.999999999980369e-05, 3.399999999998554e-03, 1.602226244627290e-04, -8.812387942008156e-06, 3.974058187734272e+01, -2.229785313336804e+03, 2.151072135035275e+02, 2.309942043050557e+03
811, 9.999999999984403e-05, 3.399999999996781e-03, 1.600955667052613e-04, -1.297923761674218e-05, 2.023305909249996e+01, -4.458565805854128e+03, -2.235184543852733e+01, 4.479021957149266e+03
812, 1.499999999999104e-04, 3.399999999995008e-03, 1.600002062515279e-04, -1.715206013311867e-05, -3.717139111406254e+00, -6.682162667345270e+03, -2.935526150929899e+02, 6.704202206444748e+03
813, 1.999999999999557e-04, 3.399999999993234e-03, 1.599364433165360e-04, -2.133251231560495e-05, -3.239384651424996e+01, -8.900028069651544e+03, -5.986014503882877e+02, 8.948085353916980e+03
814, -2.000000000000187e-04, 3.300000000007353e-03, 1.530198222394193e-04, 1.201572382339885e-05, 7.931164747284083e+01, 9.245738530093700e+03, 9.103869481718835e+02, 9.345512258621313e+03
815, -1.500000000000538e-04, 3.300000000005614e-03, 1.527363540382173e-04, 7.932984633841581e-06, 7.759918364978375e+01, 6.931308882573913e+03, 8.398377382861638e+02, 7.056532175489965e+03
816, -1.000000000000948e-04, 3.300000000003875e-03, 1.524858544677231e-04, 3.852549145264578e-06, 7.292310340408301e+01, 4.619315088628157e+03, 7.355725340319456e+02, 4.778488034368027e+03
817, -5.000000000013977e-05, 3.300000000002137e-03, 1.522682875982835e-04, -2.272463359331522e-07, 6.502279012167162e+01, 2.310269800315363e+03, 5.974758388866127e+02, 2.543431471260187e+03
818, -2.179652942510546e-16, 3.300000000000398e-03, 1.520836058703468e-04, -4.308069290067892e-06, 5.363274194276664e+01, 4.692703320858527e+00, 4.254319060693854e+02, 8.522701180891157e+02
819, 4.999999999979350e-05, 3.299999999998659e-03, 1.519317499976314e-04, -8.391591005465278e-06, 3.848267986732787e+01, -2.296889352475977e+03, 2.193248581509298e+02, 2.376210450078654e+03
820, 9.999999999983644e-05, 3.299999999996922e-03, 1.518126488701273e-04, -1.247948659761623e-05, 1.929755150340736e+01, -4.593942286992045e+03, -2.096121289331487e+01, 4.613430317807497e+03
821, 1.499999999999061e-04, 3.299999999995182e-03, 1.517262194567163e-04, -1.657343502698695e-05, -4.202484863882546e+00, -6.885924745642536e+03, -2.955421439841528e+02, 6.907060294363982e+03
822, 1.999999999999538e-04, 3.299999999993444e-03, 1.516723667076272e-04, -2.067511911447433e-05, -3.230222475593746e+01, -9.172288185076672e+03, -6.045335928377933e+02, 9.219608821112617e+03
823, -2.000000000000206e-04, 3.200000000007042e-03, 1.448630754953383e-04, 1.201873793510379e-05, 7.818519512261878e+01, 9.522549535584776e+03, 9.197876127233123e+02, 9.621852981908953e+03
824, -1.500000000000580e-04, 3.200000000005365e-03, 1.445827763242655e-04, 8.017335953718039e-06, 7.614759202265350e+01, 7.139396991978796e+03, 8.492850402961684e+02, 7.264615089917997e+03
825, -1.000000000001024e-04, 3.200000000003689e-03, 1.443364103820640e-04, 4.018287685820442e-06, 7.128628649329471e+01, 4.758554988980705e+03, 7.445591656404722e+02, 4.918125790773856e+03
826, -5.000000000014997e-05, 3.200000000002012e-03, 1.441239467721770e-04, 1.990459808819847e-08, 6.334078786699411e+01, 2.380535932839812e+03, 6.054851472560918e+02, 2.614544395124421e+03
827, -2.307656561499616e-16, 3.200000000000335e-03, 1.439453429853417e-04, -3.979505863952108e-06, 5.204561478718495e+01, 5.859506032720674e+00, 4.319378926004708e+02, 8.651095473397704e+02
828, 4.999999999978330e-05, 3.199999999998658e-03, 1.438005447998403e-04, -7.981640297609532e-06, 3.713036692788842e+01, -2.364947212351402e+03, 2.237921222637445e+02, 2.443421443964487e+03
829, 9.999999999982882e-05, 3.199999999996980e-03, 1.436894861814393e-04, -1.198819936397157e-05, 1.831971191956575e+01, -4.731349692882986e+03, -1.907753833709370e+01, 4.749822656141326e+03
830, 1.499999999999017e-04, 3.199999999995303e-03, 1.436120891829718e-04, -1.600088780740269e-05, -4.666655461954747e+00, -7.092805924675528e+03, -2.967964648617554e+02, 7.112950925318217e+03
831, 1.999999999999519e-04, 3.199999999993626e-03, 1.435682638433431e-04, -2.002141447413274e-05, -3.211407342470147e+01, -9.448766384895749e+03, -6.094899491228693e+02, 9.495222627588055e+03
832, -2.000000000000225e-04, 3.100000000006703e-03, 1.368706148246632e-04, 1.199877417423966e-05, 7.686989392945816e+01, 9.803632349201373e+03, 9.281455811768176e+02, 9.902309061058411e+03
833, -1.500000000000624e-04, 3.100000000005093e-03, 1.365934895011567e-04, 8.081109786706447e-06, 7.450205556343394e+01, 7.350734367988060e+03, 8.579513925941677e+02, 7.475819622796506e+03
834, -1.000000000001100e-04, 3.100000000003483e-03, 1.363512757303026e-04, 4.165852834082205e-06, 6.946210265216212e+01, 4.900010817922400e+03, 7.530267834911360e+02, 5.059881247343556e+03
835, -5.000000000016015e-05, 3.100000000001875e-03, 1.361439480035803e-04, 2.512899534223643e-07, 6.148952720192358e+01, 2.451973596157150e+03, 6.132373667072125e+02, 2.686755358351914e+03
836, -2.436134518939148e-16, 3.100000000000265e-03, 1.359714692191128e-04, -3.664296479357104e-06, 5.031896315256802e+01, 7.142307464330429e+00, 4.384484202136668e+02, 8.779591632575293e+02
837, 4.999999999977311e-05, 3.099999999998656e-03, 1.358337905791377e-04, -7.582628373615270e-06, 3.567999398447012e+01, -2.433955801187044e+03, 2.285249609304368e+02, 2.511572334587532e+03
838, 9.999999999982122e-05, 3.099999999997047e-03, 1.357308514867904e-04, -1.150543194674470e-05, 1.729710237556060e+01, -4.870785811968821e+03, -1.666816005719812e+01, 4.888196588491938e+03
839, 1.499999999998973e-04, 3.099999999995438e-03, 1.356625794424593e-04, -1.543443774572674e-05, -5.110340428891618e+00, -7.302805073528369e+03, -2.972661607797670e+02, 7.321872513154460e+03
840, 1.999999999999499e-04, 3.099999999993829e-03, 1.356288899399244e-04, -1.937138066724409e-05, -3.182800982221102e+01, -9.729463081734339e+03, -6.134042467959705e+02, 9.774926345908161e+03
841, -2.000000000000244e-04, 3.000000000006373e-03, 1.290473409271849e-04, 1.195557889180672e-05, 7.536490360617597e+01, 1.008899083725036e+04, 9.353919433299274e+02, 1.018688061624055e+04
842, -1.500000000000668e-04, 3.000000000004845e-03, 1.287733848776717e-04, 8.124087822676612e-06, 7.266074431230868e+01, 7.565325717368029e+03, 8.657847560317113e+02, 7.690147031986035e+03
843, -1.000000000001176e-04, 3.000000000003318e-03, 1.285353323947439e-04, 4.295061856587610e-06, 6.744756760091821e+01, 5.043687362548897e+03, 7.609403444234107e+02, 5.203756655331683e+03
844, -5.000000000017031e-05, 3.000000000001789e-03, 1.283331637252866e-04, 4.667628138495850e-07, 5.946539740773699e+01, 2.524587408835148e+03, 6.207145407184521e+02, 2.760067516467886e+03
845, -2.564273663199779e-16, 3.000000000000262e-03, 1.281668475446216e-04, -3.362551993734198e-06, 4.844910685689831e+01, 8.545341628996880e+00, 4.449626955938352e+02, 8.908195734041162e+02
846, 4.999999999976296e-05, 2.999999999998735e-03, 1.280363408506718e-04, -7.194629789464296e-06, 3.412833283949556e+01, -2.503911518560096e+03, 2.335398201077507e+02, 2.580660705632630e+03
847, 9.999999999981362e-05, 2.999999999997206e-03, 1.279415888577855e-04, -1.103122235658777e-05, 1.622745813990377e+01, -5.012247952625712e+03, -1.369931782432738e+01, 5.028550053634728e+03
848, 1.499999999998930e-04, 2.999999999995678e-03, 1.278825248900873e-04, -1.487408606190491e-05, -5.534420413275143e+00, -7.515920788861311e+03, -2.969000972118525e+02, 7.533823868014682e+03
849, 1.999999999999481e-04, 2.999999999994151e-03, 1.278590702743237e-04, -1.872498187791789e-05, -3.144349543165549e+01, -1.001437883219062e+04, -6.162079174629712e+02, 1.005871993486682e+04
850, -2.000000000000263e-04, 2.900000000006043e-03, 1.213982293675604e-04, 1.188891766067869e-05, 7.366886643755151e+01, 1.037862809796679e+04, 9.414551970625263e+02, 1.047556854379675e+04
851, -1.500000000000711e-04, 2.900000000004594e-03, 1.211274280098360e-04, 8.146070946424968e-06, 7.062054096926715e+01, 7.783174474633123e+03, 8.727310771633605e+02, 7.907599276130568e+03
852, -1.000000000001252e-04, 2.900000000003146e-03, 1.208935358914240e-04, 4.405751198102322e-06, 6.523868637002181e+01, 5.189588433161240e+03, 7.682634599189544e+02, 5.349754695574909e+03
853, -5.000000000018052e-05, 2.900000000001698e-03, 1.206965393937411e-04, 6.661954336894619e-07, 5.726402400316545e+01, 2.598381386013823e+03, 6.278979860202086e+02, 2.834484251306566e+03
854, -2.692480570096190e-16, 2.900000000000249e-03, 1.205364133497463e-04, -3.074364092954828e-06, 4.643168620705080e+01, 1.007254805242860e+01, 4.514797990792787e+02, 9.036913316138483e+02
855, 4.999999999975274e-05, 2.899999999998802e-03, 1.204131209356355e-04, -6.817699919846549e-06, 3.247144801211039e+01, -2.574810796300798e+03, 2.388536238019632e+02, 2.650683858162394e+03
856, 9.999999999980604e-05, 2.899999999997354e-03, 1.203266135620544e-04, -1.056558940402602e-05, 1.510770169335865e+01, -5.155733221473948e+03, -1.013614776538441e+01, 5.170880661808760e+03
857, 1.499999999998886e-04, 2.899999999995905e-03, 1.202768307646362e-04, -1.431981474767282e-05, -5.940577603628299e+00, -7.732151091931340e+03, -2.956453626093287e+02, 7.748803367839301e+03
858, 1.999999999999462e-04, 2.899999999994458e-03, 1.202637000938775e-04, -1.808216302298848e-05, -3.095998836923559e+01, -1.030351258944762e+04, -6.178300129374966e+02, 1.034660295176478e+04
859, -2.000000000000283e-04, 2.800000000005697e-03, 1.139283306741892e-04, 1.179857645118723e-05, 7.177598503799823e+01, 1.067254276414857e+04, 9.462623259585447e+02, 1.076837526571248e+04
860, -1.500000000000755e-04, 2.800000000004316e-03, 1.136606587723132e-04, 8.146880429137954e-06, 6.837531099532248e+01, 8.004280785537509e+03, 8.787353189535939e+02, 8.128179300678262e+03
861, -1.000000000001328e-04, 2.800000000002934e-03, 1.134309154209388e-04, 4.497777684147636e-06, 6.282955857036029e+01, 5.337715718244061e+03, 7.749590005987806e+02, 5.497878664353498e+03
862, -5.000000000019071e-05, 2.800000000001552e-03, 1.132390935206470e-04, 8.494804451503394e-07, 5.487957966700287e+01, 2.673358101264567e+03, 6.347685852741500e+02, 2.910009346285944e+03
863, -2.820416426449479e-16, 2.800000000000171e-03, 1.130851744496982e-04, -2.799804083829108e-06, 4.426091255695644e+01, 1.172678070880886e+01, 4.579987444058095e+02, 9.165750756180885e+02
864, 4.999999999974258e-05, 2.799999999998790e-03, 1.129691279534274e-04, -6.451873754135825e-06, 3.070361248041866e+01, -2.646651092646907e+03, 2.444836276593484e+02, 2.721638696418268e+03
865, 9.999999999979847e-05, 2.799999999997408e-03, 1.128909120326057e-04, -1.010853150234583e-05, 1.393219068030169e+01, -5.301240005206680e+03, -5.943051018694916e+00, 5.315185486072115e+03
866, 1.499999999998843e-04, 2.799999999996027e-03, 1.128504728309706e-04, -1.377158537938310e-05, -6.334450602770517e+00, -7.951496028179055e+03, -2.934479218402180e+02, 7.966808597244185e+03
867, 1.999999999999443e-04, 2.799999999994645e-03, 1.128477445218040e-04, -1.744284857848912e-05, -3.038297941500332e+01, -1.059686666349580e+04, -6.181978857677777e+02, 1.063857377423388e+04
868, -2.000000000000301e-04, 2.700000000005420e-03, 1.066427702104724e-04, 1.168436293232440e-05, 6.968729325083120e+01, 1.097073629239673e+04, 9.497385306994699e+02, 1.106530082684428e+04
869, -1.500000000000799e-04, 2.700000000004097e-03, 1.063781912961950e-04, 8.126359223021005e-06, 6.592503765030472e+01, 8.228647796478806e+03, 8.837409280136454e+02, 8.351888106822458e+03
870, -1.000000000001404e-04, 2.700000000002773e-03, 1.061525738433088e-04, 4.571019804248902e-06, 6.021855536471605e+01, 5.488073078518937e+03, 7.809887090568192e+02, 5.648130503026881e+03
871, -5.000000000020087e-05, 2.700000000001450e-03, 1.059659176678241e-04, 1.016532132644501e-06, 5.230937508152681e+01, 2.749521925036628e+03, 6.413065586355566e+02, 2.986645601378111e+03
872, -2.948962146524792e-16, 2.700000000000125e-03, 1.058182110936229e-04, -2.538921626599226e-06, 4.193364501076064e+01, 1.351274128623163e+01, 4.645183793920457e+02, 9.294713803773461e+02
873, 4.999999999973239e-05, 2.699999999998801e-03, 1.057094308389469e-04, -6.097164634079034e-06, 2.882187405143816e+01, -2.719427539685587e+03, 2.504474353143570e+02, 2.793522957043321e+03
874, 9.999999999979085e-05, 2.699999999997478e-03, 1.056395419018388e-04, -9.660025409236320e-06, 1.269887951472356e+01, -5.448763383916490e+03, -1.083553512280304e+00, 5.461462693384991e+03
875, 1.499999999998800e-04, 2.699999999996155e-03, 1.056084974447957e-04, -1.322933786237147e-05, -6.716248474627946e+00, -8.173950577582189e+03, -2.902523237971823e+02, 8.187838678945238e+03
876, 1.999999999999424e-04, 2.699999999994831e-03, 1.056162386788635e-04, -1.680694132632873e-05, -2.971023310822011e+01, -1.089443620649427e+04, -6.172369564790177e+02, 1.093463288448878e+04
877, -2.000000000000321e-04, 2.600000000005380e-03, 9.954674837854358e-05, 1.154610784075690e-05, 6.740733953854829e+01, 1.127321159539543e+04, 9.518057674286508e+02, 1.136634443857048e+04
878, -1.500000000000841e-04, 2.600000000004088e-03, 9.928521410938020e-05, 8.084373304552737e-06, 6.327114855581181e+01, 8.456278958240877e+03, 8.876886173982416e+02, 8.578726270214482e+03
879, -1.000000000001480e-04, 2.600000000002797e-03, 9.906368776615765e-05, 4.625379038365147e-06, 5.740467190404513e+01, 5.640664339993427e+03, 7.863124786150782e+02, 5.800511854777707e+03
880, -5.000000000021105e-05, 2.600000000001504e-03, 9.888217649088861e-05, 1.167287747845659e-06, 4.955070203021353e+01, 2.826876989948328e+03, 6.474910702216300e+02, 3.064395544577759e+03
881, -3.077169053421203e-16, 2.600000000000212e-03, 9.874067596665160e-05, -2.291743426948185e-06, 3.944604077762847e+01, 1.543465272682579e+01, 4.710372272781960e+02, 9.423804033848803e+02
882, 4.999999999972220e-05, 2.599999999998920e-03, 9.863917030093739e-05, -5.753562949564542e-06, 2.682170588858617e+01, -2.793136147835418e+03, 2.567630260729276e+02, 2.866334122710086e+03
883, 9.999999999978321e-05, 2.599999999997628e-03, 9.857763190806918e-05, -9.220024923433380e-06, 1.140287480983920e+01, -5.598300042480405e+03, 4.479885709655775e+00, 5.609710072522335e+03
884, 1.499999999998756e-04, 2.599999999996335e-03, 9.855602139093295e-05, -1.269298912683031e-05, -7.091146309476017e+00, -8.399512735299913e+03, -2.860013297681905e+02, 8.411892008928164e+03
885, 1.999999999999405e-04, 2.599999999995043e-03, 9.857428742230508e-05, -1.617432104603650e-05, -2.894695642949887e+01, -1.119622092913694e+04, -6.148702492043033e+02, 1.123477946712508e+04
886, -2.000000000000340e-04, 2.500000000005436e-03, 9.264554088702425e-05, 1.138366625381172e-05, 6.493182144912851e+01, 1.157996388740187e+04, 9.523839332403902e+02, 1.167150821895344e+04
887, -1.500000000000885e-04, 2.500000000004174e-03, 9.238699031259861e-05, 8.020812964123215e-06, 6.040853821317410e+01, 8.687172013282598e+03, 8.905177689788977e+02, 8.808696591565658e+03
888, -1.000000000001556e-04, 2.500000000002911e-03, 9.216950765703039e-05, 4.660781158790287e-06, 5.438286410185981e+01, 5.795489863537571e+03, 7.908892618333936e+02, 5.955025850229635e+03
889, -5.000000000022121e-05, 2.500000000001650e-03, 9.199310780601308e-05, 1.301708818663949e-06, 4.659839536153311e+01, 2.905425499652327e+03, 6.533007874526515e+02, 3.143262650141204e+03
890, -3.205375960317614e-16, 2.500000000000388e-03, 9.185779422405684e-05, -2.058271924133716e-06, 3.679286551889913e+01, 1.749596851530634e+01, 4.775537975643890e+02, 9.553025115148839e+02
891, 4.999999999971200e-05, 2.499999999999127e-03, 9.176355883403532e-05, -5.421034827194362e-06, 2.469800661000761e+01, -2.867772708272214e+03, 2.634488671056769e+02, 2.940069396930680e+03
892, 9.999999999977564e-05, 2.499999999997865e-03, 9.171038189639640e-05, -8.788459576946817e-06, 1.003953169016040e+01, -5.749845435408385e+03, 1.078579640570300e+01, 5.759925361306710e+03
893, 1.499999999998713e-04, 2.499999999996604e-03, 9.169823188767729e-05, -1.216243182647564e-05, -7.462914940387122e+00, -8.628177967713636e+03, -2.806362894300182e+02, 8.638967237401210e+03
894, 1.999999999999386e-04, 2.499999999995341e-03, 9.172706537828299e-05, -1.554484323204601e-05, -2.809568719478068e+01, -1.150221674130013e+04, -6.110188061879949e+02, 1.153901338461505e+04
895, -2.000000000000358e-04, 2.400000000005491e-03, 8.594449852455749e-05, 1.119691896964905e-05, 6.226401699589508e+01, 1.189099238410472e+04, 9.513912483313576e+02, 1.198079279565634e+04
896, -1.500000000000929e-04, 2.400000000004260e-03, 8.568885744031365e-05, 7.935594177180808e-06, 5.733812687474324e+01, 8.921328122458734e+03, 8.921665914894938e+02, 9.041800901905159e+03
897, -1.000000000001632e-04, 2.400000000003029e-03, 8.547535775084085e-05, 4.677177596395343e-06, 5.115160588948504e+01, 5.952551965932347e+03, 7.946772363979312e+02, 6.111675208133220e+03
898, -5.000000000023145e-05, 2.400000000001797e-03, 8.530402251801785e-05, 1.419782512714586e-06, 4.344924648185236e+01, 2.985170879102386e+03, 6.587140457714665e+02, 3.223250368837964e+03
899, -3.333650629849805e-16, 2.400000000000566e-03, 8.517486342258086e-05, -1.838483929789320e-06, 3.396978146214224e+01, 1.970100275496873e+01, 4.840667620212698e+02, 9.682386681086543e+02
900, 4.999999999970184e-05, 2.399999999999334e-03, 8.508788064117681e-05, -5.099520770661030e-06, 2.244582373889205e+01, -2.943332282535236e+03, 2.705241410962458e+02, 3.014726027240021e+03
901, 9.999999999976805e-05, 2.399999999998102e-03, 8.504306272254743e-05, -8.365233275328010e-06, 8.603808487912602e+00, -5.903394278224973e+03, 1.787403699903473e+01, 5.912106164649904e+03
902, 1.499999999998670e-04, 2.399999999996872e-03, 8.504038646293652e-05, -1.163753297630557e-05, -7.836060418860257e+00, -8.859940881977560e+03, -2.740964994031923e+02, 8.869062821730553e+03
903, 1.999999999999366e-04, 2.399999999995640e-03, 8.507981678062748e-05, -1.491833771285111e-05, -2.716000156586631e+01, -1.181241860635543e+04, -6.056011128811239e+02, 1.184733435053885e+04
904, -2.000000000000378e-04, 2.300000000005451e-03, 7.944904729847082e-05, 1.098577396675979e-05, 5.940726142389599e+01, 1.220629431354997e+04, 9.487434280705315e+02, 1.229419868988363e+04
905, -1.500000000000972e-04, 2.300000000004251e-03, 7.919622753627795e-05, 7.828660044250488e-06, 5.406053113354017e+01, 9.158746628967292e+03, 8.925711447243135e+02, 9.278040845656213e+03
906, -1.000000000001708e-04, 2.300000000003051e-03, 7.898663608411772e-05, 4.674546866866395e-06, 4.770931647039390e+01, 6.111851894948081e+03, 7.976331405410587e+02, 6.270462480524350e+03
907, -5.000000000024163e-05, 2.300000000001851e-03, 7.882030462283498e-05, 1.521523050948742e-06, 4.009975969068330e+01, 3.066115858307346e+03, 6.637083554978337e+02, 3.304362049430686e+03
908, -3.461857536746216e-16, 2.300000000000652e-03, 7.869725349575405e-05, -1.632329225128325e-06, 3.097173393475100e+01, 2.205358683733880e+01, 4.905745475394942e+02, 9.811896249563429e+02
909, 4.999999999969163e-05, 2.299999999999453e-03, 7.861749158302358e-05, -4.788934268228240e-06, 2.005885681686857e+01, -3.019810365057245e+03, 2.780083416198481e+02, 3.090300865310432e+03
910, 9.999999999976044e-05, 2.299999999998253e-03, 7.858101617497389e-05, -7.950222915950522e-06, 7.088424505807211e+00, -6.058941871482521e+03, 2.578532594513899e+01, 6.066249507231351e+03
911, 1.499999999998626e-04, 2.299999999997052e-03, 7.858781284453490e-05, -1.111813258137984e-05, -8.218653388999883e+00, -9.094797147359197e+03, -2.663198595508534e+02, 9.102176322036748e+03
912, 1.999999999999347e-04, 2.299999999995853e-03, 7.863785531868979e-05, -1.429460729727335e-05, -2.614792893274148e+01, -1.212682265841740e+04, -5.985334549165914e+02, 1.215974087287250e+04
913, -2.000000000000396e-04, 2.200000000005174e-03, 7.316468850589828e-05, 1.075016783539496e-05, 5.636410275735432e+01, 1.252586439034971e+04, 9.443537828198017e+02, 1.261172683222921e+04
914, -1.500000000001016e-04, 2.200000000004032e-03, 7.291458720171500e-05, 7.699982240153175e-06, 5.057606647059265e+01, 9.399425120948097e+03, 8.916658428732229e+02, 9.517418270980435e+03
915, -1.000000000001784e-04, 2.200000000002889e-03, 7.270881452051517e-05, 4.652896018817436e-06, 4.405440240008966e+01, 6.273389858234544e+03, 7.997124606626155e+02, 6.431390230756680e+03
916, -5.000000000025179e-05, 2.200000000001748e-03, 7.254741121461689e-05, 1.606973152754809e-06, 3.654662281116339e+01, 3.148262779980331e+03, 6.682604737859612e+02, 3.386600904459544e+03
917, -3.590132206278407e-16, 2.200000000000606e-03, 7.243040674693194e-05, -1.439729120751131e-06, 2.779397289107021e+01, 2.455775301579956e+01, 4.970753349685721e+02, 9.941559372933172e+02
918, 4.999999999968146e-05, 2.199999999999464e-03, 7.235781916239286e-05, -4.489160358345350e-06, 1.753127271969151e+01, -3.097201646898413e+03, 2.859212219524449e+02, 3.166790953189654e+03
919, 9.999999999975283e-05, 2.199999999998322e-03, 7.232965495828589e-05, -7.543276960155829e-06, 5.486856806450419e+00, -6.216482032235473e+03, 3.456112465079786e+01, 6.222352830043801e+03
920, 1.499999999998582e-04, 2.199999999997180e-03, 7.234590895362196e-05, -1.060404221834278e-05, -8.617482946250334e+00, -9.332740104372020e+03, -2.572430605319730e+02, 9.338305982786769e+03
921, 1.999999999999328e-04, 2.199999999996038e-03, 7.240656415771648e-05, -1.367342636457125e-05, -2.506643318871079e+01, -1.244542246193195e+04, -5.897304413638924e+02, 1.247623227800058e+04
922, -2.000000000000416e-04, 2.100000000004828e-03, 6.709699870763910e-05, 1.049006730319881e-05, 5.314130452463144e+01, 1.284969835935337e+04, 9.381334613391173e+02, 1.293337736334264e+04
923, -1.500000000001059e-04, 2.100000000003754e-03, 6.684949757664701e-05, 7.549562517496996e-06, 4.688822349100781e+01, 9.643362103515919e+03, 8.893831827099409e+02, 9.759934462523272e+03
924, -1.000000000001860e-04, 2.100000000002678e-03, 6.664743872829900e-05, 4.612262132612701e-06, 4.018728830206442e+01, 6.437166604453046e+03, 8.008693845993752e+02, 6.594460664528814e+03
925, -5.000000000026199e-05, 2.100000000001603e-03, 6.649087245188019e-05, 1.676205529478340e-06, 3.278781635235418e+01, 3.231614480953562e+03, 6.723464480946212e+02, 3.469969886789437e+03
926, -3.718339113174818e-16, 2.100000000000528e-03, 6.637983779990402e-05, -1.260574966594137e-06, 2.443260347480498e+01, 2.721818928923904e+01, 5.035672207184156e+02, 1.007138293689902e+03
927, 4.999999999967128e-05, 2.099999999999452e-03, 6.631436245658493e-05, -4.200054141142856e-06, 1.485787563367921e+01, -3.175499851582274e+03, 2.942831064852639e+02, 3.244193677118709e+03
928, 9.999999999974523e-05, 2.099999999998377e-03, 6.629446260520141e-05, -7.144213943917859e-06, 3.793220517205668e+00, -6.376007158138002e+03, 4.424416555806994e+01, 6.380414019186595e+03
929, 1.499999999998539e-04, 2.099999999997302e-03, 6.632014279446838e-05, -1.009504354121879e-05, -9.038462706155201e+00, -9.573761067349293e+03, -2.468007911306494e+02, 9.577450653789985e+03
930, 1.999999999999309e-04, 2.099999999996226e-03, 6.639139580414462e-05, -1.305453936721022e-05, -2.392109261279279e+01, -1.276820870493117e+04, -5.791040768918003e+02, 1.279680869877261e+04
931, -2.000000000000435e-04, 2.000000000004496e-03, 6.125162983770110e-05, 1.020547076630626e-05, 4.974420420738488e+01, 1.317778866345989e+04, 9.299910350249996e+02, 1.325915097677894e+04
932, -1.500000000001103e-04, 2.000000000003499e-03, 6.100659439525749e-05, 7.377434241967402e-06, 4.299916921322756e+01, 9.890553422315083e+03, 8.856537986461038e+02, 1.000559120552152e+04
933, -1.000000000001936e-04, 2.000000000002501e-03, 6.080812819301244e-05, 4.552713847787018e-06, 3.610744455396514e+01, 6.603181131089522e+03, 8.010567794628391e+02, 6.759676372436865e+03
934, -5.000000000027220e-05, 2.000000000001505e-03, 6.065629153346386e-05, 1.729324406735031e-06, 2.882033837407209e+01, 3.316172617973960e+03, 6.759416013773908e+02, 3.554472282080859e+03
935, -3.846512138753339e-16, 2.000000000000507e-03, 6.055113353990207e-05, -1.094726635259318e-06, 2.088243624430606e+01, 3.003875547589985e+01, 5.100481800334371e+02, 1.020137452505081e+03
936, 4.999999999966107e-05, 1.999999999999510e-03, 6.049269202182661e-05, -3.921439267669003e-06, 1.203158245040686e+01, -3.254699392020140e+03, 3.031148256559330e+02, 3.322505929218938e+03
937, 9.999999999973761e-05, 1.999999999998513e-03, 6.048099333925677e-05, -6.752820973153812e-06, 1.998817188121734e+00, -6.537510447481132e+03, 5.487833385159416e+01, 6.540430257162009e+03
938, 1.499999999998495e-04, 1.999999999997515e-03, 6.051605226591533e-05, -9.590886784179516e-06, -9.491697970695554e+00, -9.817852612110568e+03, -2.349259112674119e+02, 9.819608167191096e+03
939, 1.999999999999290e-04, 1.999999999996517e-03, 6.059787185131693e-05, -1.243765933776170e-05, -2.272273852147782e+01, -1.309517353274572e+04, -5.665638599988156e+02, 1.312146898015772e+04
940, -2.000000000000454e-04, 1.900000000004165e-03, 5.563430916649364e-05, 9.896409873010086e-06, 4.618112926274557e+01, 1.351012781836265e+04, 9.198327785754125e+02, 1.358904815684643e+04
941, -1.500000000001146e-04, 1.900000000003247e-03, 5.539158795222720e-05, 7.183663960445300e-06, 3.891309360755531e+01, 1.014099485621741e+04, 8.804065149139727e+02, 1.025439020441812e+04
942, -1.000000000002012e-04, 1.900000000002328e-03, 5.519657617888305e-05, 4.474352927041433e-06, 3.181554770650837e+01, 6.771432324530650e+03, 8.002262454725119e+02, 6.927039950384405e+03
943, -5.000000000028235e-05, 1.900000000001409e-03, 5.504934465062775e-05, 1.766467081415169e-06, 2.464182528489800e+01, 3.401938916017559e+03, 6.790205020323912e+02, 3.640111400464631e+03
944, -3.974685164331859e-16, 1.900000000000491e-03, 5.494995305472505e-05, -9.420109725263037e-07, 1.713848699721427e+01, 3.302367275844483e+01, 5.165159625124494e+02, 1.033154053008222e+03
945, 4.999999999965091e-05, 1.899999999999572e-03, 5.489844982412553e-05, -3.653106399196045e-06, 9.045206857248104e+00, -3.334793917857519e+03, 3.124375135878074e+02, 3.401724399706853e+03
946, 9.999999999973007e-05, 1.899999999998654e-03, 5.489487199874978e-05, -6.368852193558243e-06, 9.468563872894720e-02, -6.700983811230774e+03, 6.650834506299077e+01, 6.702398560296077e+03
947, 1.499999999998452e-04, 1.899999999997735e-03, 5.493924508549768e-05, -9.091289242406037e-06, -9.987437733598426e+00, -1.006500528905793e+04, -2.215499592515255e+02, 1.006477627810119e+04
948, 1.999999999999271e-04, 1.899999999996817e-03, 5.503158291684209e-05, -1.182246638494461e-05, -2.148263230711245e+01, -1.342630680408467e+04, -5.520172972736315e+02, 1.345021202294704e+04
949, -2.000000000000473e-04, 1.800000000003828e-03, 5.025083932715020e-05, 9.562951141261361e-06, 4.245987425126827e+01, 1.384670519339408e+04, 9.075625985480265e+02, 1.392306964401922e+04
950, -1.500000000001189e-04, 1.800000000002982e-03, 5.001026309890952e-05, 6.968353020626525e-06, 3.463442086511350e+01, 1.039468032036108e+04, 8.735683791394131e+02, 1.050633322771519e+04
951, -1.000000000002088e-04, 1.800000000002135e-03, 4.981854970060325e-05, 4.377315867727930e-06, 2.731259069325120e+01, 6.941917980186521e+03, 7.983281084864419e+02, 7.096554006530743e+03
952, -5.000000000029254e-05, 1.800000000001289e-03, 4.967578093752170e-05, 1.787805527041620e-06, 2.025012204986479e+01, 3.488914604224015e+03, 6.815569956182044e+02, 3.726890532736495e+03
953, -4.102858189910380e-16, 1.800000000000442e-03, 4.958202756585745e-05, -8.022201981703517e-07, 1.319583631209252e+01, 3.617722633044718e+01, 5.229681585785368e+02, 1.046188761092031e+03
954, 4.999999999964072e-05, 1.799999999999596e-03, 4.953734915240838e-05, -3.394811613628197e-06, 5.891507089287757e+00, -3.415776443834381e+03, 3.222727365970170e+02, 3.481845837108975e+03
955, 9.999999999972246e-05, 1.799999999998750e-03, 4.954179393302098e-05, -5.992027201270218e-06, -1.928222739347802e+00, -6.866417894934906e+03, 7.917997401053424e+01, 6.866316067063671e+03
956, 1.499999999998409e-04, 1.799999999997903e-03, 4.959539866968195e-05, -8.595933685725259e-06, -1.053591613580375e+01, -1.031520767374264e+04, -2.066026901848160e+02, 1.031295295821649e+04
957, 1.999999999999252e-04, 1.799999999997057e-03, 4.969818850632001e-05, -1.120860609967550e-05, -2.021151285961105e+01, -1.376159531710228e+04, -5.353695475488153e+02, 1.378303707697521e+04
958, -2.000000000000492e-04, 1.700000000003484e-03, 4.510709826572820e-05, 9.205197638348366e-06, 3.859194184490661e+01, 1.418751017066268e+04, 8.930821706056631e+02, 1.426121558982918e+04
959, -1.500000000001233e-04, 1.700000000002704e-03, 4.486847918855546e-05, 6.731639235701465e-06, 3.016981099359396e+01, 1.065160335124436e+04, 8.650645429521778e+02, 1.076142170458236e+04
960, -1.000000000002164e-04, 1.700000000001925e-03, 4.467988945674882e-05, 4.261775559682237e-06, 2.260087270893951e+01, 7.114635466467421e+03, 7.953113749236365e+02, 7.268220924779236e+03
961, -5.000000000030273e-05, 1.700000000001145e-03, 4.454142238890295e-05, 1.793548043653600e-06, 1.564362732678796e+01, 3.577100578493027e+03, 6.835241627821679e+02, 3.814812805294458e+03
962, -4.231031215488901e-16, 1.700000000000365e-03, 4.445316032735701e-05, -6.751102636850865e-07, 9.049384012653718e+00, 3.950347672061559e+01, 5.294021554670144e+02, 1.059242191670606e+03
963, 4.999999999963053e-05, 1.699999999999585e-03, 4.441517449520951e-05, -3.146274771192991e-06, 2.562255363681288e+00, -3.497640143857172e+03, 3.326424250104137e+02, 3.562866930882860e+03
964, 9.999999999971485e-05, 1.699999999998805e-03, 4.442752485216948e-05, -5.622029417391782e-06, -4.080936717510667e+00, -7.033803566981758e+03, 9.293994468122494e+01, 7.032179718388793e+03
965, 1.499999999998365e-04, 1.699999999998025e-03, 4.449025994912088e-05, -8.104466742267459e-06, -1.115076423155779e+01, -1.056844893115113e+04, -1.900123354133897e+02, 1.056413571172201e+04
966, 1.999999999999232e-04, 1.699999999997246e-03, 4.460341678108862e-05, -1.059568795863441e-05, -1.892519629499827e+01, -1.410102700200067e+04, -5.165234127445400e+02, 1.411994252856264e+04
967, -2.000000000000511e-04, 1.600000000003144e-03, 4.020903925551742e-05, 8.823290689468585e-06, 3.458941142565436e+01, 1.453252965965276e+04, 8.762904920203024e+02, 1.460348628056959e+04
968, -1.500000000001277e-04, 1.600000000002436e-03, 3.997217005512875e-05, 6.473698590131563e-06, 2.552638637085170e+01, 1.091175559891483e+04, 8.548182966515553e+02, 1.101965715207179e+04
969, -1.000000000002240e-04, 1.600000000001727e-03, 3.978650978058627e-05, 4.127942983749773e-06, 1.768324944221695e+01, 7.289581056216134e+03, 7.911237588344387e+02, 7.442043060835689e+03
970, -5.000000000031292e-05, 1.600000000001018e-03, 3.965216378816559e-05, 1.783940950622351e-06, 1.082127105947484e+01, 3.666497309328016e+03, 6.848943702166106e+02, 3.903881208513959e+03
971, -4.359339766338982e-16, 1.600000000000309e-03, 3.956922653580281e-05, -5.603991657137221e-07, 4.694533088823164e+00, 4.300672851188972e+01, 5.358151933551538e+02, 1.072315023693606e+03
972, 4.999999999962034e-05, 1.599999999999600e-03, 3.953778143749891e-05, -2.907177834972019e-06, -9.501984864061797e-01, -3.580377167224866e+03, 3.435689283569500e+02, 3.644784747918809e+03
973, 9.999999999970728e-05, 1.599999999998891e-03, 3.955790071711952e-05, -5.258504416897290e-06, -6.373590419645552e+00, -7.203129641947790e+03, 1.078359736536438e+02, 7.199986948186940e+03
974, 1.499999999998322e-04, 1.599999999998182e-03, 3.962964526116807e-05, -7.616497238398507e-06, -1.184386476992290e+01, -1.082471465117386e+04, -1.717055218480480e+02, 1.081832268830988e+04
975, 1.999999999999214e-04, 1.599999999997473e-03, 3.975306447026416e-05, -9.983283671094021e-06, -1.763693955320923e+01, -1.444458472067339e+04, -4.953795894593969e+02, 1.446092756464054e+04
976, -2.000000000000531e-04, 1.500000000002802e-03, 3.556269082727881e-05, 8.417411631132581e-06, 3.046609870542079e+01, 1.488174881356248e+04, 8.570842741359120e+02, 1.494988200918309e+04
977, -1.500000000001320e-04, 1.500000000002160e-03, 3.532734393165783e-05, 6.194746983167495e-06, 2.071299767246364e+01, 1.117512778596605e+04, 8.427511344932325e+02, 1.128104104983495e+04
978, -1.000000000002316e-04, 1.500000000001518e-03, 3.514439854114323e-05, 3.976068950834440e-06, 1.256365305423924e+01, 7.466750342281146e+03, 7.857117794821542e+02, 7.618022788067495e+03
979, -5.000000000032311e-05, 1.500000000000877e-03, 3.501397258742759e-05, 1.759270321140206e-06, 5.782423479706495e+00, 3.757104791877350e+03, 6.856393814530608e+02, 3.994098766585254e+03
980, -4.487512791917503e-16, 1.500000000000236e-03, 3.493617318633986e-05, -4.577652156191066e-07, 1.264296943268164e-01, 4.669093240334416e+01, 5.422044918819967e+02, 1.085408262812014e+03
981, 4.999999999961016e-05, 1.499999999999595e-03, 3.491109648923479e-05, -2.677163145638525e-06, -4.654576671557606e+00, -3.663979954357308e+03, 3.550751448784254e+02, 3.727596498256845e+03
982, 9.999999999969963e-05, 1.499999999998952e-03, 3.493882753472196e-05, -4.901058210860783e-06, -8.818390962883541e+00, -7.374385206201230e+03, 1.239169092826965e+02, 7.369735145265742e+03
983, 1.499999999998278e-04, 1.499999999998311e-03, 3.501944010144849e-05, -7.131594489936848e-06, -1.263055553802133e+01, -1.108399085818045e+04, -1.516071061884810e+02, 1.107551162743799e+04
984, 1.999999999999195e-04, 1.499999999997670e-03, 3.515299655997147e-05, -9.370925482070960e-06, -1.636455566214954e+01, -1.479225156816045e+04, -4.718362890489444e+02, 1.480599050860056e+04
985, -2.000000000000549e-04, 1.400000000002461e-03, 3.117415672575561e-05, 7.987783605388901e-06, 2.623802262661934e+01, 1.523515130805106e+04, 8.353576964397854e+02, 1.530040304199745e+04
986, -1.500000000001364e-04, 1.400000000001890e-03, 3.094008338221960e-05, 5.895042015744423e-06, 1.573985720075143e+01, 1.144170940798241e+04, 8.287825674789538e+02, 1.154557501175310e+04
987, -1.000000000002392e-04, 1.400000000001320e-03, 3.075961705057597e-05, 3.806445878710777e-06, 7.246925017894910e+00, 7.646138222581685e+03, 7.790206184695628e+02, 7.796162694043693e+03
988, -5.000000000033329e-05, 1.400000000000748e-03, 3.063288879031455e-05, 1.719863753212650e-06, 5.269891145403562e-01, 3.848922823214773e+03, 6.857302863842885e+02, 4.085468712226143e+03
989, -4.615719698813914e-16, 1.400000000000178e-03, 3.056001893279747e-05, -3.668452723671149e-07, -4.659536979166205e+00, 5.056032972294850e+01, 5.485672175526812e+02, 1.098523191549710e+03
990, 4.999999999959998e-05, 1.399999999999606e-03, 3.054111692570435e-05, -2.455831659578724e-06, -8.559639921860935e+00, -3.748440163799321e+03, 3.671844678789184e+02, 3.811299524661378e+03
991, 9.999999999969204e-05, 1.399999999999035e-03, 3.057628118296001e-05, -4.549255495102099e-06, -1.142789464190491e+01, -7.547558001473430e+03, 1.412325866446697e+02, 7.541421852755215e+03
992, 1.499999999998235e-04, 1.399999999998463e-03, 3.066559893912169e-05, -6.649286569173583e-06, -1.352672355590380e+01, -1.134626138773921e+04, -1.296404825524451e+02, 1.133570031306613e+04
993, 1.999999999999176e-04, 1.399999999997893e-03, 3.080914610759835e-05, -8.758104464526674e-06, -1.512659980729609e+01, -1.514400743823286e+04, -4.457895860476671e+02, 1.515512945650397e+04
994, -2.000000000000568e-04, 1.300000000002126e-03, 2.704961586598908e-05, 7.534673394916621e-06, 2.192217757513913e+01, 1.559271800217824e+04, 8.110023869810648e+02, 1.565504973157969e+04
995, -1.500000000001407e-04, 1.300000000001629e-03, 2.681654523343750e-05, 5.574884810644357e-06, 1.061720583256215e+01, 1.171148722971512e+04, 8.128300626173320e+02, 1.181326077586419e+04
996, -1.000000000002468e-04, 1.300000000001133e-03, 2.663829997015707e-05, 3.619409601622596e-06, 1.737346798298404e+00, 7.827737385309818e+03, 7.709939447074320e+02, 7.976465586579336e+03
997, -5.000000000034346e-05, 1.300000000000637e-03, 2.651502483091888e-05, 1.666092171118183e-06, -4.945732605684725e+00, 3.941950215704424e+03, 6.851372826174647e+02, 4.177994735625755e+03
998, -4.743892724392434e-16, 1.300000000000140e-03, 2.644685393380588e-05, -2.872329452674892e-07, -9.668191244043328e+00, 5.461987210971029e+01, 5.549003612601953e+02, 1.111661188850523e+03
999, 4.999999999958981e-05, 1.299999999999644e-03, 2.643391059730252e-05, -2.242741153379432e-06, -1.267406417410848e+01, -3.833747351570020e+03, 3.799209023905641e+02, 3.895890223805548e+03
1000, 9.999999999968445e-05, 1.299999999999148e-03, 2.647630718275629e-05, -4.202617857257164e-06, -1.421491340616626e+01, -7.722633237810521e+03, 1.598341917300059e+02, 7.715043806706270e+03
1001, 1.499999999998191e-04, 1.299999999998652e-03, 2.657414495504212e-05, -6.169058519988218e-06, -1.454956386714684e+01, -1.161150796932247e+04, -1.057270469242978e+02, 1.159888602804882e+04
1002, 1.999999999999157e-04, 1.299999999998155e-03, 2.672751394845646e-05, -8.144268749449981e-06, -1.394449035382399e+01, -1.549983070575491e+04, -4.171330980760155e+02, 1.550834201203956e+04
1003, -2.000000000000587e-04, 1.200000000001781e-03, 2.319532222266802e-05, 7.058393316936229e-06, 1.753856431966665e+01, 1.595442768147667e+04, 7.839077897123030e+02, 1.601382154339319e+04
1004, -1.500000000001450e-04, 1.200000000001350e-03, 2.296296047056664e-05, 5.234621905950097e-06, 5.354827488417413e+00, 1.198444216758291e+04, 7.948090042928086e+02, 1.208409776999639e+04
1005, -1.000000000002543e-04, 1.200000000000919e-03, 2.278665522384555e-05, 3.415341248699363e-06, -3.963702485695421e+00, 8.011533274602943e+03, 7.615730104020902e+02, 8.158931645160947e+03
1006, -5.000000000035367e-05, 1.200000000000488e-03, 2.266656548797554e-05, 1.598371668265427e-06, -1.063912157565551e+01, 4.036181957541738e+03, 6.838280162548340e+02, 4.271679279820638e+03
1007, -4.872353741173022e-16, 1.200000000000057e-03, 2.260283973528826e-05, -2.184767980260290e-07, -1.490502822023313e+01, 5.887709013731592e+01, 5.611991410608681e+02, 1.124820743362760e+03
1008, 4.999999999957962e-05, 1.199999999999626e-03, 2.259561573670280e-05, -2.037404460598288e-06, -1.700516268313231e+01, -3.919882910027638e+03, 3.933083867965547e+02, 3.981359147227860e+03
1009, 9.999999999967686e-05, 1.199999999999196e-03, 2.264502041410090e-05, -3.860622013922077e-06, -1.719069839619078e+01, -7.899586758041003e+03, 1.797749296862600e+02, 7.890592103415235e+03
1010, 1.499999999998148e-04, 1.199999999998765e-03, 2.275116967706039e-05, -5.690350570644028e-06, -1.571754381182745e+01, -1.187970728665016e+04, -7.978474912199135e+01, 1.186506279136115e+04
1011, 1.999999999999137e-04, 1.199999999998334e-03, 2.291416828757833e-05, -7.528821723703614e-06, -1.284499986042283e+01, -1.585970072529810e+04, -3.857566726870816e+02, 1.586562539659018e+04
1012, -2.000000000000607e-04, 1.100000000001707e-03, 1.961760466977639e-05, 6.559303196320423e-06, 1.311434573446695e+01, 1.632025982531055e+04, 7.539631695958191e+02, 1.637671626231848e+04
1013, -1.500000000001494e-04, 1.100000000001301e-03, 1.938563413643462e-05, 4.874647341819988e-06, -4.065443255808532e-02, 1.226053796895096e+04, 7.746335014016325e+02, 1.235807494823300e+04
1014, -1.000000000002619e-04, 1.100000000000895e-03, 1.921096401818943e-05, 3.194669353170883e-06, -9.862965937813215e+00, 8.197488236688207e+03, 7.506939014196552e+02, 8.343547153205369e+03
1015, -5.000000000036384e-05, 1.100000000000489e-03, 1.909376801207136e-05, 1.517165476007422e-06, -1.656428695950603e+01, 4.131599071683589e+03, 6.817616679653661e+02, 4.366515216693609e+03
1016, -5.000628410705213e-16, 1.100000000000083e-03, 1.903420936814739e-05, -1.600786166703817e-07, -2.037788985953716e+01, 6.334575059831479e+01, 5.674504538256595e+02, 1.137984937580152e+03
1017, 4.999999999956943e-05, 1.099999999999677e-03, 1.903244089249119e-05, -1.839287934621001e-06, -2.155672965114582e+01, -4.006803621097471e+03, 4.073672625105359e+02, 4.067675642433146e+03
1018, 9.999999999966927e-05, 1.099999999999272e-03, 1.908860478741796e-05, -3.522698301085871e-06, -2.036171098940099e+01, -8.078365836704010e+03, 2.011111879836893e+02, 8.068036522584816e+03
1019, 1.499999999998105e-04, 1.099999999998866e-03, 1.920283244181936e-05, -5.212556462581783e-06, -1.704902122894896e+01, -1.215082070592303e+04, -5.172329174935822e+01, 1.213421264408703e+04
1020, 1.999999999999118e-04, 1.099999999998460e-03, 1.937524408441031e-05, -6.911120136739236e-06, -1.186680185181604e+01, -1.622360691871256e+04, -3.515421024104566e+02, 1.622697892448562e+04
1021, -2.000000000000626e-04, 1.000000000002109e-03, 1.632286677059557e-05, 6.037812363358843e-06, 8.690095422447257e+00, 1.669020160191235e+04, 7.210640793693699e+02, 1.674373195459669e+04
1022, -1.500000000001537e-04, 1.000000000001674e-03, 1.609094526346197e-05, 4.495405255688667e-06, -5.562302567090228e+00, 1.253970503440147e+04, 7.522197563774462e+02, 1.263515218758953e+04
1023, -1.000000000002696e-04, 1.000000000001239e-03, 1.591758117178187e-05, 2.957872623290980e-06, -1.597648624717999e+01, 8.385514139124847e+03, 7.382819899367962e+02, 8.530257083750419e+03
1024, -5.000000000037402e-05, 1.000000000000804e-03, 1.580296275461221e-05, 1.422986330677829e-06, -2.274160706717566e+01, 4.228152967902332e+03, 6.788742705023617e+02, 4.462464093760939e+03
1025, -5.128852258260569e-16, 1.000000000000369e-03, 1.574726803410961e-05, -1.114918492869067e-07, -2.610077613645399e+01, 6.805153981017042e+01, 5.736163358042925e+02, 1.151089684344484e+03
1026, 4.999999999955924e-05, 9.999999999999337e-04, 1.575066523049433e-05, -1.647810600234331e-06, -2.633444837986463e+01, -4.094416338324218e+03, 4.221037443494859e+02, 4.154753488146878e+03
1027, 9.999999999966167e-05, 9.999999999994987e-04, 1.581331299160290e-05, -3.188229975576205e-06, -2.373332798044771e+01, -8.258856953901783e+03, 2.239040153131910e+02, 8.247290049858877e+03
1028, 1.499999999998061e-04, 9.999999999990637e-04, 1.593535961902315e-05, -4.735022228207332e-06, -1.856900297363632e+01, -1.242478102645392e+04, -2.143333928781766e+01, 1.240628608100260e+04
1029, 1.999999999999099e-04, 9.999999999986283e-04, 1.611694215896625e-05, -6.290471968167703e-06, -1.107012570858569e+01, -1.659156810258235e+04, -3.143520381970855e+02, 1.659241338614699e+04
1030, -2.000000000000644e-04, 9.000000000025380e-04, 1.331758711926241e-05, 5.494381508968622e-06, 4.321583872999554e+00, 1.706426224580168e+04, 6.851205930605918e+02, 1.711488055163314e+04
1031, -1.500000000001581e-04, 9.000000000020734e-04, 1.308534740442101e-05, 4.097393326576344e-06, -1.118054374296457e+01, 1.282184830141177e+04, 7.274902117459098e+02, 1.291524670199211e+04
1032, -1.000000000002772e-04, 9.000000000016087e-04, 1.291293599785522e-05, 2.705483979777307e-06, -2.227519560065753e+01, 8.575508125030745e+03, 7.242435483628426e+02, 8.718944483015610e+03
1033, -5.000000000038420e-05, 9.000000000011442e-04, 1.280055453127160e-05, 1.316399588823485e-06, -2.916415613030404e+01, 4.325794295133900e+03, 6.750619162662475e+02, 4.559440478327329e+03
1034, -5.256991402521199e-16, 9.000000000006796e-04, 1.274839435650595e-05, -7.212031653224572e-08, -3.209824231292873e+01, 7.303839859948880e+01, 5.796130341679113e+02, 1.163984016544762e+03
1035, 4.999999999954906e-05, 9.000000000002148e-04, 1.275663947943804e-05, -1.462344540569185e-06, -3.139067687946158e+01, -4.182596372774120e+03, 4.374971240762070e+02, 4.242419553029623e+03
1036, 9.999999999965402e-05, 8.999999999997502e-04, 1.282546664253885e-05, -2.856554071875901e-06, -2.737197382154795e+01, -8.440917706982355e+03, 2.482182028045197e+02, 8.428178979400143e+03
1037, 1.499999999998018e-04, 8.999999999992857e-04, 1.295504428757014e-05, -4.257045802024101e-06, -2.033614127738656e+01, -1.270150578784765e+04, 1.122682119209691e+01, 1.268118952508602e+04
1038, 1.999999999999080e-04, 8.999999999988212e-04, 1.314552879769752e-05, -5.666133738296561e-06, -1.054123228596222e+01, -1.696366559980612e+04, -2.740150386435502e+02, 1.696197991940260e+04
1039, -2.000000000000664e-04, 8.000000000027327e-04, 1.060832374932742e-05, 4.929523703981424e-06, -5.894096592919595e-02, 1.744237055676544e+04, 6.460260888826383e+02, 1.749021856962907e+04
1040, -1.500000000001624e-04, 8.000000000022627e-04, 1.037537185752262e-05, 3.681166074518050e-06, -1.670914968495663e+01, 1.310710696140046e+04, 7.003391346087844e+02, 1.319835023521666e+04
1041, -1.000000000002848e-04, 8.000000000017928e-04, 1.020353409540582e-05, 2.438094024094713e-06, -2.843591011627018e+01, 8.767789110919579e+03, 7.084712825095849e+02, 8.909618445997574e+03
1042, -5.000000000039436e-05, 8.000000000013229e-04, 1.009302200834523e-05, 1.198025860765098e-06, -3.557596782792598e+01, 4.424834909605039e+03, 6.702261429604478e+02, 4.657475445598492e+03
1043, -5.385198309417610e-16, 8.000000000008525e-04, 1.004403934324813e-05, -4.131711264947456e-08, -3.839799980746284e+01, 7.837117014081559e+01, 5.853810413262227e+02, 1.176570819469488e+03
1044, 4.999999999953886e-05, 8.000000000003829e-04, 1.005678515626870e-05, -1.282215131273809e-06, -3.704055818099982e+01, -4.271550033015908e+03, 4.535398966592277e+02, 4.330573200387365e+03
1045, 9.999999999964645e-05, 7.999999999999128e-04, 1.013145782046076e-05, -2.526961947122705e-06, -3.165921281134911e+01, -8.624821170849775e+03, 2.741221598669703e+02, 8.610633209654172e+03
1046, 1.499999999997974e-04, 7.999999999994429e-04, 1.026824922026508e-05, -3.777876457328654e-06, -2.258563991034907e+01, -1.298116833681877e+04, 4.639665808349474e+01, 1.295891492803853e+04
1047, 1.999999999999061e-04, 7.999999999989728e-04, 1.046734019237428e-05, -5.037306456960616e-06, -1.024981631364085e+01, -1.733995546372779e+04, -2.303505831831342e+02, 1.733582831567933e+04
1048, -2.000000000000683e-04, 7.000000000024487e-04, 8.201733461674568e-06, 4.343805426382854e-06, -5.101309325669718e+00, 1.782395401371003e+04, 6.033990706203841e+02, 1.786985101968032e+04
1049, -1.500000000001667e-04, 7.000000000020254e-04, 7.967642178185433e-06, 3.247327899639090e-06, -2.165985926349344e+01, 1.339676063741946e+04, 6.704136219475033e+02, 1.348524476321332e+04
1050, -1.000000000002923e-04, 7.000000000016023e-04, 7.795956220958039e-06, 2.156338978359537e-06, -3.302001943709183e+01, 8.965111318637810e+03, 6.908963305618887e+02, 9.103610192422628e+03
1051, -5.000000000040459e-05, 7.000000000011791e-04, 7.686903413125459e-06, 1.068531652813893e-06, -4.075746537996656e+01, 4.527537388516705e+03, 6.646985578845731e+02, 4.757795136778604e+03
1052, -5.513337453678241e-16, 7.000000000007558e-04, 7.640704179998156e-06, -1.838300953229064e-08, -4.498172340051701e+01, 8.412241999287539e+01, 5.914286296640165e+02, 1.189882000782585e+03
1053, 4.999999999952868e-05, 7.000000000003326e-04, 7.657581472770785e-06, -1.106688483036646e-06, -4.450217409990751e+01, -4.363439944581425e+03, 4.706251820863449e+02, 4.420313983570295e+03
1054, 9.999999999963887e-05, 6.999999999999092e-04, 7.737750075583749e-06, -2.198683681699262e-06, -3.810912515509904e+01, -8.813324703309756e+03, 3.016853255060682e+02, 8.795934548732783e+03
1055, 1.499999999997930e-04, 6.999999999994860e-04, 7.881424089305776e-06, -3.296703746438584e-06, -2.589605068327069e+01, -1.326513611843052e+04, 8.395228408079214e+01, 1.324030473650262e+04
1056, 1.999999999999042e-04, 6.999999999990628e-04, 8.088804613456941e-06, -4.403131066576209e-06, -9.583040171856510e+00, -1.772003722104743e+04, -1.834349417362886e+02, 1.771425360562201e+04
1057, -2.000000000000702e-04, 6.000000000020976e-04, 6.104629914645217e-06, 3.737851439230127e-06, -1.400858824416287e+01, 1.820568394953135e+04, 5.555710382618111e+02, 1.825354302280229e+04
1058, -1.500000000001711e-04, 6.000000000017323e-04, 5.868908411110960e-06, 2.796482404533349e-06, -2.458540579947976e+01, 1.369654768786725e+04, 6.361771363401105e+02, 1.377999922965615e+04
1059, -1.000000000003000e-04, 6.000000000013669e-04, 5.696845306721715e-06, 1.860810974329239e-06, -3.205372530448244e+01, 9.178336282561326e+03, 6.717706993271323e+02, 9.307866972990761e+03
1060, -5.000000000041474e-05, 6.000000000010013e-04, 5.588718456719867e-06, 9.285614638492857e-07, -4.133758480426286e+01, 4.642401622124504e+03, 6.607879896770459e+02, 4.866618541423546e+03
1061, -5.641662945187267e-16, 6.000000000006360e-04, 5.544845765377106e-06, -2.562814224455672e-09, -5.163880148270141e+01, 9.031802636000339e+01, 6.010415934665750e+02, 1.210436173153513e+03
1062, 4.999999999951849e-05, 6.000000000002706e-04, 5.565492221978159e-06, -9.348960530199283e-07, -5.687724484779324e+01, -4.466802636135167e+03, 4.909995234482267e+02, 4.517938034637775e+03
1063, 9.999999999963128e-05, 5.999999999999052e-04, 5.650874293773931e-06, -1.870791562389037e-06, -5.069257213354626e+01, -9.017461956955061e+03, 3.311070028913223e+02, 8.991189053180182e+03
1064, 1.499999999997888e-04, 5.999999999995398e-04, 5.801150259795597e-06, -2.812600641170090e-06, -3.190100275572877e+01, -1.355938521891783e+04, 1.224251511698711e+02, 1.352969995561877e+04
1065, 1.999999999999023e-04, 5.999999999991742e-04, 6.016510919780583e-06, -3.762687216043123e-06, -5.379919280718696e+00, -1.810074609120472e+04, -1.346716934413985e+02, 1.809737060337962e+04
1066, -2.000000000000721e-04, 5.000000000017480e-04, 4.324077933542713e-06, 3.112394438897633e-06, -3.213982829748511e+01, 1.858101324813432e+04, 4.968726656847250e+02, 1.863966193980732e+04
1067, -1.500000000001754e-04, 5.000000000014432e-04, 4.086113969700308e-06, 2.329035242505955e-06, -2.303435656961506e+01, 1.402344153650154e+04, 5.930913894162386e+02, 1.409647170746737e+04
1068, -1.000000000003076e-04, 5.000000000011384e-04, 3.912807620739689e-06, 1.551732914161694e-06, -2.176174645254378e+01, 9.432908356719865e+03, 6.524415383341916e+02, 9.544291833530537e+03
1069, -5.000000000042491e-05, 5.000000000008338e-04, 3.804756066798879e-06, 7.784948476731264e-07, -3.428545141594509e+01, 4.787955914135715e+03, 6.669692692037112e+02, 5.003339266118785e+03
1070, -5.769852911424733e-16, 5.000000000005289e-04, 3.762583488520635e-06, 6.963288757520589e-09, -5.789848693922909e+01, 9.661779886313911e+01, 6.253658086097007e+02, 1.260240001305473e+03
1071, 4.999999999950832e-05, 5.000000000002242e-04, 3.786765994331339e-06, -7.655749547592262e-07, -7.622181561420871e+01, -4.600609129201612e+03, 5.228438866392054e+02, 4.643656262314707e+03
1072, 9.999999999962365e-05, 4.999999999999196e-04, 3.877351794176144e-06, -1.541857993351040e-06, -7.267416987274487e+01, -9.263051299180628e+03, 3.632791055614895e+02, 9.219051936780463e+03
1073, 1.499999999997844e-04, 4.999999999996149e-04, 4.034234661613497e-06, -2.324313139702732e-06, -4.314993770001252e+01, -1.388135207813188e+04, 1.568863106229605e+02, 1.384175898277732e+04
1074, 1.999999999999003e-04, 4.999999999993100e-04, 4.257328469619299e-06, -3.115032977328604e-06, 7.582458287991358e+00, -1.847572347455816e+04, -8.973472324142375e+01, 1.848417721970352e+04
1075, -2.000000000000740e-04, 4.000000000013997e-04, 2.867364685908757e-06, 2.468344794692212e-06, -6.778806361292686e+01, 1.893751622895187e+04, 4.134363675192287e+02, 1.902328335942384e+04
1076, -1.500000000001797e-04, 4.000000000011572e-04, 2.626150007663359e-06, 1.844683066870464e-06, -7.041382843094880e+00, 1.442270166896578e+04, 5.322773775364853e+02, 1.446895854468369e+04
1077, -1.000000000003152e-04, 4.000000000009148e-04, 2.450121194740428e-06, 1.228263600025924e-06, -1.219769895348850e+01, 9.759725756449507e+03, 6.402288269897979e+02, 9.855458377056348e+03
1078, -5.000000000043512e-05, 4.000000000006724e-04, 2.340611293358066e-06, 6.179662324109181e-07, -6.008946133843278e+01, 4.943111273090857e+03, 7.013835457067896e+02, 5.196130589366158e+03
1079, -5.898025937003254e-16, 4.000000000004300e-04, 2.299327964511347e-06, 1.109813296075552e-08, -6.343785801876766e+01, 1.014325939131074e+02, 6.869365633718622e+02, 1.383730332943814e+03
1080, 4.999999999949812e-05, 4.000000000001875e-04, 2.326996518117498e-06, -5.965527543572845e-07, -6.085343880523305e+01, -4.745940960198966e+03, 5.839911328251435e+02, 4.828480884915341e+03
1081, 9.999999999961606e-05, 3.999999999999452e-04, 2.423441157590976e-06, -1.209228981274391e-06, -9.152054831444434e+01, -9.580961664619375e+03, 4.046779391851850e+02, 9.523893617511236e+03
1082, 1.499999999997800e-04, 3.999999999997027e-04, 2.587513078184580e-06, -1.829712877004632e-06, -6.844412895345431e+01, -1.427644694902997e+04, 1.772631006100809e+02, 1.421242530191994e+04
1083, 1.999999999998984e-04, 3.999999999994603e-04, 2.818432403588212e-06, -2.459250086787450e-06, 3.727241412394596e+01, -1.883311221890386e+04, -6.337205053095215e+01, 1.887081027050947e+04
1084, -2.000000000000760e-04, 3.000000000010516e-04, 1.740436404535445e-06, 1.807002241416977e-06, -2.599874288144292e+01, 1.937405860898459e+04, 2.917149658582448e+02, 1.940882829386962e+04
1085, -1.500000000001842e-04, 3.000000000008717e-04, 1.494739480490477e-06, 1.341402997369463e-06, -8.201866047878866e+00, 1.489710549300281e+04, 4.692243783316869e+02, 1.493482084046052e+04
1086, -1.000000000003227e-04, 3.000000000006917e-04, 1.313448558389335e-06, 8.880292921656698e-07, -2.340854180110291e+02, 9.893056308178255e+03, 6.584345595011207e+02, 1.021240147168656e+04
1087, -5.000000000044532e-05, 3.000000000005118e-04, 1.201481934158544e-06, 4.466123744486352e-07, -1.887825246077336e+02, 4.991182326410605e+03, 7.754858359901682e+02, 5.407175693934028e+03
1088, -6.026207432911247e-16, 3.000000000003319e-04, 1.160588612735444e-06, 1.087070171824991e-08, -6.893180084064147e+01, 1.011251478192671e+02, 7.834407591786418e+02, 1.576082820906676e+03
1089, 4.999999999948792e-05, 3.000000000001520e-04, 1.191437001352203e-06, -4.254195973100050e-07, 5.822247312360696e+01, -4.793631798139015e+03, 6.859880686863586e+02, 5.042103568064575e+03
1090, 9.999999999960845e-05, 2.999999999999720e-04, 1.293912827532322e-06, -8.685041769357912e-07, 1.252529849144507e+02, -9.709593803629545e+03, 4.783286602355254e+02, 9.881265333090951e+03
1091, 1.499999999997756e-04, 2.999999999997920e-04, 1.466816500578231e-06, -1.324744470639308e-06, -6.816357858075298e+01, -1.474328763242230e+04, 1.969718864848039e+02, 1.468041067858459e+04
1092, 1.999999999998966e-04, 2.999999999996122e-04, 1.705822237408357e-06, -1.794581666438378e-06, -9.667365438162278e+00, -1.927161769650916e+04, -7.258310560380318e+01, 1.926249734031189e+04
1093, -2.000000000000778e-04, 2.000000000007014e-04, 9.403306745694804e-07, 1.128001140028931e-06, 2.348349444050052e+02, 1.997418677266416e+04, 2.285642685669712e+02, 1.974464426367972e+04
1094, -1.500000000001885e-04, 2.000000000005817e-04, 6.875692237218187e-07, 8.170503157423475e-07, -9.904755579653215e+02, 1.403486715455731e+04, 5.078235346509613e+02, 1.505963022780235e+04
1095, -1.000000000003304e-04, 2.000000000004620e-04, 5.063718791809132e-07, 5.356369139777803e-07, -7.260382174772465e+02, 9.301580966536512e+03, 7.016895871548613e+02, 1.012534540677438e+04
1096, -5.000000000045550e-05, 2.000000000003424e-04, 3.967509307261175e-07, 2.683050630161194e-07, -3.952933153409606e+02, 4.682136895110122e+03, 7.463118191504742e+02, 5.292279553048581e+03
1097, -6.154388928819240e-16, 2.000000000002227e-04, 3.579030646848264e-07, 7.545793962167160e-09, -7.588237414060177e+01, 8.813456068692517e+01, 7.365369250673696e+02, 1.482176819027002e+03
1098, 4.999999999947777e-05, 2.000000000001030e-04, 3.896357676538701e-07, -2.535384578261139e-07, 2.519771707594039e+02, -4.509428303564040e+03, 6.850145698401084e+02, 4.954589986516561e+03
1099, 9.999999999960084e-05, 1.999999999999833e-04, 4.926468594647313e-07, -5.218659068368522e-07, 6.085850274129821e+02, -9.139027755198425e+03, 5.776799037070613e+02, 9.815844907307639e+03
1100, 1.499999999997714e-04, 1.999999999998636e-04, 6.682641037172223e-07, -8.049758264788036e-07, 9.187528344809216e+02, -1.388422535225883e+04, 3.181130201970493e+02, 1.481664424799247e+04
1101, 1.999999999998946e-04, 1.999999999997439e-04, 9.169711117904106e-07, -1.118356267230362e-06, -2.601886967558569e+02, -1.986203769233113e+04, -2.965533951483837e+01, 1.960193872559503e+04
1102, -2.000000000000798e-04, 1.000000000003506e-04, 4.136762141595785e-07, 4.350810569240761e-07, -6.249469985360762e+03, 1.112848808942278e+04, 1.123040605029682e+03, 1.752250860040068e+04
1103, -1.500000000001928e-04, 1.000000000002906e-04, 1.936737608286934e-07, 3.129700110378844e-07, -2.904126443934685e+03, 9.389809286353786e+03, 9.078587671128971e+02, 1.242729600132541e+04
1104, -1.000000000003380e-04, 1.000000000002307e-04, 4.643812112806211e-08, 2.035586129496586e-07, -1.196916557408250e+03, 6.738448933067398e+03, 3.420869478310487e+02, 7.964805043875038e+03
1105, -5.000000000046567e-05, 1.000000000001708e-04, -3.924890271799423e-08, 1.017630435560350e-07, -4.443301485659129e+02, 3.504743763281964e+03, -1.401955257153566e+01, 3.949173451832005e+03
1106, -6.282434899455673e-16, 1.000000000001108e-04, -6.871579132783213e-08, 2.919353299045915e-09, -7.300486714591193e+01, 5.023983717590022e+01, -1.496519275502590e+02, 3.236851167746252e+02
1107, 4.999999999946757e-05, 1.000000000000509e-04, -4.354804473043280e-08, -9.607141978616870e-08, 3.016911691844678e+02, -3.409626506262750e+03, -5.468053090228545e+01, 3.712928592085493e+03
1108, 9.999999999959325e-05, 9.999999999999091e-05, 3.815543859884543e-08, -1.983282300907338e-07, 1.067592994906818e+03, -6.657517526394337e+03, 2.593220529583521e+02, 7.742501164024447e+03
1109, 1.499999999997670e-04, 9.999999999993101e-05, 1.820882056279879e-07, -3.085857464800258e-07, 2.811930692163606e+03, -9.322452684075191e+03, 7.805279887102572e+02, 1.223438415639221e+04
1110, 1.999999999998927e-04, 9.999999999987105e-05, 3.999809804636902e-07, -4.318953787518123e-07, 6.232623269610298e+03, -1.105087347140746e+04, 9.415077686567350e+02, 1.738577024783589e+04
