"PointID","x","y","Displacement_x","Displacement_y","Sxx","Syy","Sxy","Von_Mises_Stress"
0, -2.500000000000000e-04, 0.000000000000000e+00, 0.000000000000000e+00, 0.000000000000000e+00, 6.568660168957198e+04, 8.026474739671657e+04, 8.320642972595393e+03, 2.212362380281184e+04
1, 2.500000000000000e-04, 0.000000000000000e+00, 0.000000000000000e+00, 0.000000000000000e+00, -6.691915582129289e+04, -8.180398955812327e+04, 8.114428387818369e+03, 2.202121857702739e+04
2, 2.500000000000000e-04, 1.000000000000000e-02, 1.252487657859947e-03, -1.321048569483717e-04, 2.971519829985117e+01, 2.707651534705538e+01, 3.343246684221508e+00, 7.188312826498824e+00
3, -2.500000000000000e-04, 1.000000000000000e-02, 1.259539609548177e-03, -4.845163477794948e-05, 2.268839261260609e+01, 6.145935705935176e+01, 5.347006035270386e+00, 4.021877146676273e+01
4, -2.000000000000817e-04, 0.000000000000000e+00, 0.000000000000000e+00, 0.000000000000000e+00, 4.445035468401217e+04, 5.431927459272597e+04, 4.755566229460490e+03, 1.370610159074225e+04
5, -1.500000000001972e-04, 0.000000000000000e+00, 0.000000000000000e+00, 0.000000000000000e+00, 3.204414124708129e+04, 3.917217271018789e+04, 2.242486395804733e+03, 8.421627721558049e+03
6, -1.000000000003456e-04, 0.000000000000000e+00, 0.000000000000000e+00, 0.000000000000000e+00, 2.090983334614812e+04, 2.556152803136880e+04, 5.568443957359472e+02, 4.783154416152644e+03
7, -5.000000000047588e-05, 0.000000000000000e+00, 0.000000000000000e+00, 0.000000000000000e+00, 1.051688602052810e+04, 1.285368881717599e+04, -4.282365248071125e+02, 2.488813652151742e+03
8, -6.410887445906788e-16, 0.000000000000000e+00, 0.000000000000000e+00, 0.000000000000000e+00, 3.867216786517009e+02, 4.698139170449536e+02, -7.726903553042066e+02, 1.547612955748873e+03
9, 4.999999999945738e-05, 0.000000000000000e+00, 0.000000000000000e+00, 0.000000000000000e+00, -9.800316380197690e+03, -1.197875150559220e+04, -4.937668085994578e+02, 2.391819859573577e+03
10, 9.999999999958566e-05, 0.000000000000000e+00, 0.000000000000000e+00, 0.000000000000000e+00, -2.036681996692033e+04, -2.488786761817665e+04, 4.311755812985498e+02, 4.602555963001739e+03
11, 1.499999999997626e-04, 0.000000000000000e+00, 0.000000000000000e+00, 0.000000000000000e+00, -3.180431454010704e+04, -3.886403808547233e+04, 2.068321381420779e+03, 8.182390230510527e+03
12, 1.999999999998909e-04, 0.000000000000000e+00, 0.000000000000000e+00, 0.000000000000000e+00, -4.462933954952995e+04, -5.455350721056879e+04, 4.553393089279934e+03, 1.346932285849658e+04
13, 2.500000000000000e-04, 9.999999999981111e-05, 1.023143861352728e-06, -9.280314035948580e-07, 3.553098196513181e+03, -2.735637430867095e+04, 1.986589767333672e+03, 3.116378741686308e+04
14, 2.500000000000000e-04, 1.999999999996242e-04, 1.755624845688012e-06, -2.093070445235811e-06, -7.205191155350096e+03, -3.975997483456491e+04, -4.461242781688741e+02, 3.256700858056751e+04
15, 2.500000000000000e-04, 2.999999999994322e-04, 2.886945685033425e-06, -3.273139913551552e-06, -7.673535016698865e+03, -4.036244805262299e+04, -4.039516787851780e+02, 3.269889513890927e+04
16, 2.500000000000000e-04, 3.999999999992179e-04, 4.474412100460931e-06, -4.462963432949218e-06, -8.363457364596239e+03, -4.072552510852287e+04, -4.944849269526613e+02, 3.237717544867727e+04
17, 2.500000000000000e-04, 4.999999999990053e-04, 6.527239253880975e-06, -5.644253822848619e-06, -8.383671707399353e+03, -4.015600555976830e+04, -6.055297436648877e+02, 3.179540632714483e+04
18, 2.500000000000000e-04, 5.999999999988090e-04, 9.037695424061585e-06, -6.813487391731260e-06, -8.262804061405939e+03, -3.936574131961046e+04, -7.282622723024389e+02, 3.113702249472231e+04
19, 2.500000000000000e-04, 6.999999999986395e-04, 1.199602840841734e-05, -7.970992413742112e-06, -8.093782509063163e+03, -3.851277487376526e+04, -8.465583470073209e+02, 3.046607524154293e+04
20, 2.500000000000000e-04, 7.999999999985029e-04, 1.539242718735425e-05, -9.118472377400227e-06, -7.919841190304692e+03, -3.765914416506210e+04, -9.571919523671431e+02, 2.980085581252861e+04
21, 2.500000000000000e-04, 8.999999999983563e-04, 1.921737889385065e-05, -1.025779050595418e-05, -7.748512177860284e+03, -3.681566055844630e+04, -1.059426387657914e+03, 2.914427305771183e+04
22, 2.500000000000000e-04, 9.999999999981935e-04, 2.346157478393998e-05, -1.139071072621375e-05, -7.580812121091140e+03, -3.598320304184480e+04, -1.153525987081756e+03, 2.849593477720642e+04
23, 2.500000000000000e-04, 1.099999999998054e-03, 2.811583992956813e-05, -1.251885667037400e-05, -7.416108020784287e+03, -3.516080132202328e+04, -1.239851227860509e+03, 2.785528550650172e+04
24, 2.500000000000000e-04, 1.199999999997903e-03, 3.317110155748250e-05, -1.364372694123271e-05, -7.253943140914703e+03, -3.434793801943765e+04, -1.318743836486029e+03, 2.722206641132350e+04
25, 2.500000000000000e-04, 1.299999999997659e-03, 3.861838101754355e-05, -1.476670926041351e-05, -7.094075296938932e+03, -3.354447708214261e+04, -1.390513628380648e+03, 2.659620023991312e+04
26, 2.500000000000000e-04, 1.399999999997322e-03, 4.444879345985449e-05, -1.588908911949095e-05, -6.936379419504117e+03, -3.275045174729450e+04, -1.455453704046578e+03, 2.597767718797978e+04
27, 2.500000000000000e-04, 1.499999999997028e-03, 5.065354916318712e-05, -1.701205510765868e-05, -6.780770624532275e+03, -3.196593656902429e+04, -1.513847589060995e+03, 2.536650393221785e+04
28, 2.500000000000000e-04, 1.599999999996764e-03, 5.722395480065032e-05, -1.813670304272050e-05, -6.627178086057523e+03, -3.119100642702360e+04, -1.565971908666530e+03, 2.476268836050277e+04
29, 2.500000000000000e-04, 1.699999999996466e-03, 6.415141444070244e-05, -1.926403976466077e-05, -6.475538482606160e+03, -3.042572753294116e+04, -1.612097167765899e+03, 2.416623646040197e+04
30, 2.500000000000000e-04, 1.799999999996210e-03, 7.142743040243314e-05, -2.039498679876670e-05, -6.325791801503219e+03, -2.967015455264200e+04, -1.652487865865942e+03, 2.357715285703709e+04
31, 2.500000000000000e-04, 1.899999999995898e-03, 7.904360386803805e-05, -2.153038395641011e-05, -6.177888280274648e+03, -2.892433821539513e+04, -1.687402099773206e+03, 2.299544059234827e+04
32, 2.500000000000000e-04, 1.999999999995521e-03, 8.699163566586331e-05, -2.267099291073800e-05, -6.031778210258488e+03, -2.818831739980458e+04, -1.717092156598262e+03, 2.242110279970405e+04
33, 2.500000000000000e-04, 2.099999999995151e-03, 9.526332670111335e-05, -2.381750061898283e-05, -5.887421223164118e+03, -2.746212785077170e+04, -1.741803882508848e+03, 2.185414123519444e+04
34, 2.500000000000000e-04, 2.199999999994897e-03, 1.038505785677973e-04, -2.497052274546605e-05, -5.744780112619095e+03, -2.674579809653579e+04, -1.761776978987724e+03, 2.129455772857368e+04
35, 2.500000000000000e-04, 2.299999999994653e-03, 1.127453940039389e-04, -2.613060695597368e-05, -5.603820752586622e+03, -2.603934947028035e+04, -1.777245264931903e+03, 2.074235369717179e+04
36, 2.500000000000000e-04, 2.399999999994409e-03, 1.219398772022031e-04, -2.729823612783506e-05, -5.464519441036074e+03, -2.534280337232005e+04, -1.788436072660016e+03, 2.019752921514681e+04
37, 2.500000000000000e-04, 2.499999999994080e-03, 1.314262343811203e-04, -2.847383153002584e-05, -5.326853395564414e+03, -2.465617448184156e+04, -1.795570348123569e+03, 1.966008507501025e+04
38, 2.500000000000000e-04, 2.599999999993751e-03, 1.411967741470476e-04, -2.965775591321060e-05, -5.190800318250676e+03, -2.397946987935601e+04, -1.798863671023136e+03, 1.913002210934722e+04
39, 2.500000000000000e-04, 2.699999999993507e-03, 1.512439076530610e-04, -3.085031644897108e-05, -5.056345630826747e+03, -2.331269588456517e+04, -1.798525424255643e+03, 1.860733993331531e+04
40, 2.500000000000000e-04, 2.799999999993264e-03, 1.615601489429332e-04, -3.205176767202809e-05, -4.923479672068210e+03, -2.265585674521617e+04, -1.794758671721844e+03, 1.809203779078483e+04
41, 2.500000000000000e-04, 2.899999999993009e-03, 1.721381153492571e-04, -3.326231432042581e-05, -4.792189919371211e+03, -2.200894821207332e+04, -1.787760871766582e+03, 1.758411561176181e+04
42, 2.500000000000000e-04, 2.999999999992623e-03, 1.829705274916399e-04, -3.448211407272399e-05, -4.662476701762136e+03, -2.137197147739987e+04, -1.777723281441626e+03, 1.708357152115983e+04
43, 2.500000000000000e-04, 3.099999999992220e-03, 1.940502098116375e-04, -3.571128028269446e-05, -4.534330528832546e+03, -2.074491474473013e+04, -1.764831732928566e+03, 1.659040580585401e+04
44, 2.500000000000000e-04, 3.199999999991949e-03, 2.053700904402277e-04, -3.694988455027659e-05, -4.407751599421764e+03, -2.012776918435103e+04, -1.749266729800303e+03, 1.610461701619850e+04
45, 2.500000000000000e-04, 3.299999999991705e-03, 2.169232014347227e-04, -3.819795925445830e-05, -4.282741973650531e+03, -1.952052340221875e+04, -1.731202770085783e+03, 1.562620347331460e+04
46, 2.500000000000000e-04, 3.399999999991461e-03, 2.287026789561080e-04, -3.945550002532221e-05, -4.159305887205615e+03, -1.892316451417877e+04, -1.710808523364172e+03, 1.515516363394707e+04
47, 2.500000000000000e-04, 3.499999999991149e-03, 2.407017634588980e-04, -4.072246816333232e-05, -4.037443334591908e+03, -1.833567210319410e+04, -1.688247954019471e+03, 1.469149653834786e+04
48, 2.500000000000000e-04, 3.599999999990803e-03, 2.529137995374425e-04, -4.199879288406900e-05, -3.917162999396950e+03, -1.775802939344680e+04, -1.663679595677693e+03, 1.423519939186787e+04
49, 2.500000000000000e-04, 3.699999999990560e-03, 2.653322360721658e-04, -4.328437359006378e-05, -3.798481677460485e+03, -1.719022411202899e+04, -1.637255670825902e+03, 1.378626816656448e+04
50, 2.500000000000000e-04, 3.799999999990315e-03, 2.779506267195020e-04, -4.457908209724927e-05, -3.681400045310665e+03, -1.663222803235356e+04, -1.609123741373263e+03, 1.334470166059092e+04
51, 2.500000000000000e-04, 3.899999999990071e-03, 2.907626295019667e-04, -4.588276468317378e-05, -3.565928417545286e+03, -1.608401815509495e+04, -1.579426912940066e+03, 1.291049682121582e+04
52, 2.500000000000000e-04, 3.999999999989709e-03, 3.037620068835145e-04, -4.719524412664910e-05, -3.452079140887255e+03, -1.554557129679072e+04, -1.548302847111110e+03, 1.248365008122176e+04
53, 2.500000000000000e-04, 4.099999999989249e-03, 3.169426258569905e-04, -4.851632168769466e-05, -3.339863635984465e+03, -1.501686182173573e+04, -1.515884385462083e+03, 1.206415801083480e+04
54, 2.500000000000000e-04, 4.199999999988788e-03, 3.302984578632241e-04, -4.984577900734421e-05, -3.229294997150088e+03, -1.449786452940904e+04, -1.482299734250282e+03, 1.165201739236552e+04
55, 2.500000000000000e-04, 4.299999999988333e-03, 3.438235787818222e-04, -5.118337998658500e-05, -3.120389352272728e+03, -1.398855641544807e+04, -1.447672146239222e+03, 1.124722516379382e+04
56, 2.500000000000000e-04, 4.399999999988144e-03, 3.575121690839928e-04, -5.252887260782486e-05, -3.013154900396541e+03, -1.348890639256154e+04, -1.412121043607377e+03, 1.084977938452171e+04
57, 2.500000000000000e-04, 4.499999999988117e-03, 3.713585134906814e-04, -5.388199057429401e-05, -2.907612793131527e+03, -1.299889315160590e+04, -1.375760623352836e+03, 1.045967535081293e+04
58, 2.500000000000000e-04, 4.599999999988090e-03, 3.853570013182233e-04, -5.524245503259146e-05, -2.803777776934857e+03, -1.251848940502044e+04, -1.338700094160921e+03, 1.007690894001167e+04
59, 2.500000000000000e-04, 4.699999999988035e-03, 3.995021264521689e-04, -5.660997612785492e-05, -2.701657856778706e+03, -1.204766190460520e+04, -1.301045253634521e+03, 9.701477550868669e+03
60, 2.500000000000000e-04, 4.799999999987717e-03, 4.137884868288389e-04, -5.798425454743823e-05, -2.601277705305030e+03, -1.158639099157783e+04, -1.262897964733284e+03, 9.333375908237374e+03
61, 2.500000000000000e-04, 4.899999999987257e-03, 4.282107849047645e-04, -5.936498303457759e-05, -2.502645065471559e+03, -1.113464293092080e+04, -1.224355355442136e+03, 8.972601144301441e+03
62, 2.500000000000000e-04, 4.999999999986965e-03, 4.427638273325415e-04, -6.075184777965322e-05, -2.405776729847295e+03, -1.069239123452960e+04, -1.185510493243181e+03, 8.619148476941904e+03
63, 2.500000000000000e-04, 5.099999999987202e-03, 4.574425250072146e-04, -6.214452978859768e-05, -2.310687504894261e+03, -1.025960731992591e+04, -1.146452563880574e+03, 8.273012761425922e+03
64, 2.500000000000000e-04, 5.199999999987608e-03, 4.722418929343557e-04, -6.354270616178215e-05, -2.217393191936269e+03, -9.836263482520164e+03, -1.107266768794022e+03, 7.934188256768561e+03
65, 2.500000000000000e-04, 5.299999999988015e-03, 4.871570502356057e-04, -6.494605137173362e-05, -2.125904898990596e+03, -9.422328444137573e+03, -1.068034831640059e+03, 7.602669936052782e+03
66, 2.500000000000000e-04, 5.399999999988211e-03, 5.021832199158488e-04, -6.635423844114338e-05, -2.036236683657407e+03, -9.017773566304997e+03, -1.028835030444044e+03, 7.278451986737553e+03
67, 2.500000000000000e-04, 5.499999999988184e-03, 5.173157287745806e-04, -6.776694009545890e-05, -1.948404894213164e+03, -8.622572735123715e+03, -9.897416288443414e+02, 6.961527873686525e+03
68, 2.500000000000000e-04, 5.599999999988157e-03, 5.325500074808107e-04, -6.918382988411389e-05, -1.862421112930472e+03, -8.236696374123854e+03, -9.508251207239775e+02, 6.651891366089877e+03
69, 2.500000000000000e-04, 5.699999999988293e-03, 5.478815904468126e-04, -7.060458321178231e-05, -1.778296764901182e+03, -7.860114372901764e+03, -9.121527672925198e+02, 6.349535109006290e+03
70, 2.500000000000000e-04, 5.799999999988694e-03, 5.633061156570704e-04, -7.202887828351442e-05, -1.696044882958675e+03, -7.492797959194551e+03, -8.737886757620186e+02, 6.054450662645610e+03
71, 2.500000000000000e-04, 5.899999999989099e-03, 5.788193244758389e-04, -7.345639705601720e-05, -1.615676558641563e+03, -7.134718320612457e+03, -8.357943228492618e+02, 5.766630781557548e+03
72, 2.500000000000000e-04, 5.999999999989505e-03, 5.944170614468090e-04, -7.488682619916665e-05, -1.537205033776427e+03, -6.785850855356641e+03, -7.982279256338581e+02, 5.486069106877743e+03
73, 2.500000000000000e-04, 6.099999999989911e-03, 6.100952744034848e-04, -7.631985803617625e-05, -1.460638165072753e+03, -6.446167456928126e+03, -7.611443753215437e+02, 5.212759860216316e+03
74, 2.500000000000000e-04, 6.199999999990317e-03, 6.258500143540178e-04, -7.775519131446808e-05, -1.385990646553809e+03, -6.115645503816538e+03, -7.245944687484318e+02, 4.946694213855573e+03
75, 2.500000000000000e-04, 6.299999999990723e-03, 6.416774356341734e-04, -7.919253197022313e-05, -1.313258743142404e+03, -5.794245776130290e+03, -6.886279168170560e+02, 4.687865017370357e+03
76, 2.500000000000000e-04, 6.399999999990975e-03, 6.575737949478631e-04, -8.063159368649846e-05, -1.242467023697165e+03, -5.481951823451573e+03, -6.532906119233085e+02, 4.436258092340569e+03
77, 2.500000000000000e-04, 6.499999999990961e-03, 6.735354521459666e-04, -8.207209866423573e-05, -1.173618669187542e+03, -5.178729802099955e+03, -6.186238678350262e+02, 4.191860821449066e+03
78, 2.500000000000000e-04, 6.599999999990934e-03, 6.895588699305983e-04, -8.351377817852002e-05, -1.106706544906293e+03, -4.884537620038458e+03, -5.846681932836310e+02, 3.954662465645384e+03
79, 2.500000000000000e-04, 6.699999999991035e-03, 7.056406128071376e-04, -8.495637313629774e-05, -1.041754633178267e+03, -4.599358540582229e+03, -5.514622843849334e+02, 3.724646045783697e+03
80, 2.500000000000000e-04, 6.799999999991401e-03, 7.217773476742461e-04, -8.639963466025122e-05, -9.787594867465743e+02, -4.323155001661104e+03, -5.190411386279286e+02, 3.501798991166273e+03
81, 2.500000000000000e-04, 6.899999999991809e-03, 7.379658433184748e-04, -8.784332466389902e-05, -9.177312198198068e+02, -4.055903363580678e+03, -4.874365126985869e+02, 3.286107396224861e+03
82, 2.500000000000000e-04, 6.999999999992214e-03, 7.542029707087835e-04, -8.928721643695003e-05, -8.586533457510147e+02, -3.797558645593530e+03, -4.566801442309763e+02, 3.077562570928775e+03
83, 2.500000000000000e-04, 7.099999999992620e-03, 7.704857016076257e-04, -9.073109495108117e-05, -8.015443085281254e+02, -3.548103731031532e+03, -4.268024958025101e+02, 2.876148491131022e+03
84, 2.500000000000000e-04, 7.199999999993026e-03, 7.868111091037330e-04, -9.217475732463190e-05, -7.464279542447082e+02, -3.307527128650200e+03, -3.978269152965668e+02, 2.681845260129305e+03
85, 2.500000000000000e-04, 7.299999999993359e-03, 8.031763686321091e-04, -9.361801333172059e-05, -6.932629717707904e+02, -3.075763729546894e+03, -3.697775051969865e+02, 2.494644558690183e+03
86, 2.500000000000000e-04, 7.399999999993427e-03, 8.195787555644065e-04, -9.506068549678090e-05, -6.420813318995399e+02, -2.852805829058063e+03, -3.426767809320689e+02, 2.314522047226309e+03
87, 2.500000000000000e-04, 7.499999999993399e-03, 8.360156465586801e-04, -9.650260943388340e-05, -5.928723840156194e+02, -2.638606431543988e+03, -3.165429991356378e+02, 2.141454102805834e+03
88, 2.500000000000000e-04, 7.599999999993372e-03, 8.524845187711492e-04, -9.794363384640222e-05, -5.456442449253120e+02, -2.433131689620033e+03, -2.913893168892932e+02, 1.975408765260761e+03
89, 2.500000000000000e-04, 7.699999999993440e-03, 8.689829503281208e-04, -9.938362081440519e-05, -5.003645684476458e+02, -2.236314736475381e+03, -2.672290808726784e+02, 1.816361338647062e+03
90, 2.500000000000000e-04, 7.799999999993771e-03, 8.855086181687324e-04, -1.008224458468576e-04, -4.570225230840722e+02, -2.048109169453233e+03, -2.440793637857135e+02, 1.664288334261350e+03
91, 2.500000000000000e-04, 7.899999999994177e-03, 9.020592971307509e-04, -1.022599982552027e-04, -4.156545297041919e+02, -1.868508566078637e+03, -2.219536047705787e+02, 1.519157155034375e+03
92, 2.500000000000000e-04, 7.999999999994584e-03, 9.186328616820963e-04, -1.036961814145737e-04, -3.762360580631727e+02, -1.697457459811906e+03, -2.008608134317684e+02, 1.380943973493775e+03
93, 2.500000000000000e-04, 8.099999999994990e-03, 9.352272845420511e-04, -1.051309128795836e-04, -3.387577550182633e+02, -1.534913444846557e+03, -1.808094761886541e+02, 1.249622623445599e+03
94, 2.500000000000000e-04, 8.199999999995398e-03, 9.518406365850769e-04, -1.065641244926578e-04, -3.032179691188774e+02, -1.380836011170565e+03, -1.618054596133019e+02, 1.125159842688140e+03
95, 2.500000000000000e-04, 8.299999999995804e-03, 9.684710864862596e-04, -1.079957622003884e-04, -2.696118083310416e+02, -1.235175486583322e+03, -1.438518271890222e+02, 1.007515066637990e+03
96, 2.500000000000000e-04, 8.399999999996209e-03, 9.851169003985971e-04, -1.094257859287227e-04, -2.379261922119968e+02, -1.097869898806283e+03, -1.269480633635962e+02, 8.966417465622437e+02
97, 2.500000000000000e-04, 8.499999999996616e-03, 1.001776441586952e-03, -1.108541693846810e-04, -2.081260747029181e+02, -9.688345520327243e+02, -1.110924145175829e+02, 7.924919467949300e+02
98, 2.500000000000000e-04, 8.599999999997021e-03, 1.018448168631619e-03, -1.122808997930791e-04, -1.801917138346391e+02, -8.479949173336042e+02, -9.628430693085458e+01, 6.950135176009890e+02
99, 2.500000000000000e-04, 8.699999999997429e-03, 1.035130634271973e-03, -1.137059778163527e-04, -1.541323565090256e+02, -7.352962065210991e+02, -8.252126862453815e+01, 6.041444029886138e+02
100, 2.500000000000000e-04, 8.799999999997834e-03, 1.051822485657894e-03, -1.151294173775423e-04, -1.299295292261452e+02, -6.306613147710893e+02, -6.979581088731805e+01, 5.198251070549603e+02
101, 2.500000000000000e-04, 8.899999999997930e-03, 1.068522463545197e-03, -1.165512457333388e-04, -1.075404687355146e+02, -5.339974432621859e+02, -5.810177017823271e+01, 4.420054455703217e+02
102, 2.500000000000000e-04, 8.999999999997496e-03, 1.085229400454747e-03, -1.179715034399939e-04, -8.693475711886944e+01, -4.452177381411055e+02, -4.743532530817733e+01, 3.706307257076110e+02
103, 2.500000000000000e-04, 9.099999999997034e-03, 1.101942219697343e-03, -1.193902438829520e-04, -6.810972353017287e+01, -3.642465594793235e+02, -3.778488612487033e+01, 3.056269230350164e+02
104, 2.500000000000000e-04, 9.199999999996832e-03, 1.118659936086376e-03, -1.208075327477813e-04, -5.102356840818581e+01, -2.909530123940668e+02, -2.912846376269076e+01, 2.469008053775272e+02
105, 2.500000000000000e-04, 9.299999999997156e-03, 1.135381655311436e-03, -1.222234466499686e-04, -3.557562214204122e+01, -2.251231418405438e+02, -2.143656430076179e+01, 1.943357079384460e+02
106, 2.500000000000000e-04, 9.399999999997563e-03, 1.152106570129152e-03, -1.236380711517300e-04, -2.169608297754707e+01, -1.665345172955280e+02, -1.467234217851515e+01, 1.477811982482813e+02
107, 2.500000000000000e-04, 9.499999999997968e-03, 1.168833957161157e-03, -1.250514990802565e-04, -9.230962456771699e+00, -1.148524377203771e+02, -8.802342571364987e+00, 1.070785738410588e+02
108, 2.500000000000000e-04, 9.599999999998375e-03, 1.185563169515839e-03, -1.264638276576098e-04, 1.762660806246370e+00, -6.992450719142467e+01, -3.781517665829298e+00, 7.208501618890175e+01
109, 2.500000000000000e-04, 9.699999999998783e-03, 1.202293633349259e-03, -1.278751598645719e-04, 1.128391155547292e+01, -3.183974926452534e+01, 3.502266729819028e-01, 4.312934914194886e+01
110, 2.500000000000000e-04, 9.799999999999188e-03, 1.219024821496578e-03, -1.292856207820648e-04, 1.779124887972979e+01, -2.647960376861136e+00, 3.314729247311610e+00, 2.148746134299359e+01
111, 2.500000000000000e-04, 9.899999999999593e-03, 1.235756276810170e-03, -1.306953985581946e-04, 1.939504339438942e+01, 1.343434768581196e+01, 4.456665092935582e+00, 1.072274910331375e+01
112, 2.000000000000817e-04, 1.000000000000000e-02, 1.253192340315700e-03, -1.237393881391024e-04, 2.919255073537625e+01, 2.760609868232577e+01, 5.161349813227192e+00, 1.044389571446544e+01
113, 1.500000000001972e-04, 1.000000000000000e-02, 1.253897058367964e-03, -1.153741225902096e-04, 2.489232185280045e+01, 2.694399545110329e+01, 8.654933140043337e+00, 1.743103081256110e+01
114, 1.000000000003456e-04, 1.000000000000000e-02, 1.254601878831757e-03, -1.070090153759390e-04, 1.737085718894031e+01, 2.638346432905446e+01, 1.177893425626738e+01, 2.522301045307465e+01
115, 5.000000000047588e-05, 1.000000000000000e-02, 1.255306856961506e-03, -9.864399591607684e-05, 7.958082998906824e+00, 2.635005205229945e+01, 1.417348132015784e+01, 3.379075045914791e+01
116, 6.410887445906788e-16, 1.000000000000000e-02, 1.256012026450582e-03, -9.027897580228680e-05, -1.229019349227162e+00, 2.791933787699273e+01, 1.541127918381268e+01, 4.242236242022593e+01
117, -4.999999999945738e-05, 1.000000000000000e-02, 1.256717398158424e-03, -8.191384757662790e-05, -7.187586827137729e+00, 3.313210569975000e+01, 1.511765485481277e+01, 5.039693997357124e+01
118, -9.999999999958566e-05, 1.000000000000000e-02, 1.257422955200506e-03, -7.354850816225535e-05, -6.188295040876348e+00, 4.447410445984410e+01, 1.326102569779344e+01, 5.718477011758245e+01
119, -1.499999999997626e-04, 1.000000000000000e-02, 1.258128641341363e-03, -6.518290327428167e-05, 7.042255670155218e+00, 6.458775916131157e+01, 1.075510898989950e+01, 6.143431003591687e+01
120, -1.999999999998909e-04, 1.000000000000000e-02, 1.258834318250969e-03, -5.681714198966424e-05, 4.385354358106818e+01, 9.686842328566020e+01, 9.777645307641764e+00, 5.650652051879108e+01
121, -2.500000000000000e-04, 9.899999999999590e-03, 1.242808339390169e-03, -4.704357479378715e-05, -2.365413876595745e+01, 4.847261938339255e+01, 1.147801985389919e+00, 7.216328040440987e+01
122, -2.500000000000000e-04, 9.799999999999181e-03, 1.226076444201379e-03, -4.563686572179232e-05, 9.621287166612323e+00, 1.068367586191276e+02, 8.707416506710347e+00, 9.876297028046561e+01
123, -2.500000000000000e-04, 9.699999999999055e-03, 1.209344726479427e-03, -4.423114926353631e-05, 2.061460109971897e+01, 1.418894011053346e+02, 1.570544304049786e+01, 1.252765775426331e+02
124, -2.500000000000000e-04, 9.599999999999458e-03, 1.192613496998722e-03, -4.282659528233806e-05, 2.901072147523643e+01, 1.796594257216505e+02, 2.325562712462625e+01, 1.576652430403167e+02
125, -2.500000000000000e-04, 9.499999999999916e-03, 1.175883121364940e-03, -4.142349359563029e-05, 3.899229380064288e+01, 2.249389274861894e+02, 3.160510339194785e+01, 1.963967434064264e+02
126, -2.500000000000000e-04, 9.400000000000373e-03, 1.159154075688556e-03, -4.002214671886012e-05, 5.043319706124718e+01, 2.774727013927277e+02, 4.078882700618986e+01, 2.412505961883782e+02
127, -2.500000000000000e-04, 9.300000000000832e-03, 1.142426909117247e-03, -3.862286682599996e-05, 6.427386221074188e+01, 3.379366113001795e+02, 5.081486340807814e+01, 2.919244792954422e+02
128, -2.500000000000000e-04, 9.200000000001289e-03, 1.125702288376526e-03, -3.722598342053278e-05, 7.945141752196602e+01, 4.053797432576976e+02, 6.174590744508074e+01, 3.485390966043308e+02
129, -2.500000000000000e-04, 9.100000000001746e-03, 1.108980939559758e-03, -3.583183512299258e-05, 9.669582715252346e+01, 4.804243668836698e+02, 7.360208562014979e+01, 4.109947204463111e+02
130, -2.500000000000000e-04, 9.000000000002204e-03, 1.092263687918384e-03, -3.444078117727441e-05, 1.159106660875150e+02, 5.631276234000856e+02, 8.637373783735819e+01, 4.794212106904536e+02
131, -2.500000000000000e-04, 8.900000000002661e-03, 1.075551452065170e-03, -3.305320126035469e-05, 1.369555855189432e+02, 6.534881135195589e+02, 1.000941800900692e+02, 5.539686200808848e+02
132, -2.500000000000000e-04, 8.800000000003118e-03, 1.058845237307057e-03, -3.166949374945994e-05, 1.598777129638400e+02, 7.516306168626211e+02, 1.147947119989192e+02, 6.347304962614440e+02
133, -2.500000000000000e-04, 8.700000000003576e-03, 1.042146140548573e-03, -3.029007527438405e-05, 1.845883114808056e+02, 8.575513020970653e+02, 1.304973590402053e+02, 7.218015167655531e+02
134, -2.500000000000000e-04, 8.600000000004033e-03, 1.025455347324523e-03, -2.891537972722458e-05, 2.111181063316282e+02, 9.713442274909305e+02, 1.472171058754481e+02, 8.152516546087409e+02
135, -2.500000000000000e-04, 8.500000000004490e-03, 1.008774134379014e-03, -2.754585883522913e-05, 2.394771912277635e+02, 1.093081355812625e+03, 1.649672537530853e+02, 9.151485393311615e+02
136, -2.500000000000000e-04, 8.400000000004949e-03, 9.921038701674236e-04, -2.618198151054695e-05, 2.697802387642298e+02, 1.222936293009154e+03, 1.837412272621738e+02, 1.021542861620104e+03
137, -2.500000000000000e-04, 8.300000000005149e-03, 9.754460206505123e-04, -2.482423567897764e-05, 3.019494545420282e+02, 1.360909056164553e+03, 2.035492480441546e+02, 1.134515149033233e+03
138, -2.500000000000000e-04, 8.200000000005172e-03, 9.588021449466394e-04, -2.347312597898470e-05, 3.361174856259523e+02, 1.507186153298073e+03, 2.243785533619837e+02, 1.254107158594760e+03
139, -2.500000000000000e-04, 8.100000000005195e-03, 9.421739026957846e-04, -2.212917644768991e-05, 3.721767104163654e+02, 1.661747306750361e+03, 2.462379032126033e+02, 1.380407455370831e+03
140, -2.500000000000000e-04, 8.000000000005220e-03, 9.255630484431740e-04, -2.079292791093918e-05, 4.101302597218889e+02, 1.824624442402800e+03, 2.691388932586707e+02, 1.513451937887737e+03
141, -2.500000000000000e-04, 7.900000000005243e-03, 9.089714320730138e-04, -1.946493702351546e-05, 4.502032109163429e+02, 1.996076731879311e+03, 2.930467333759196e+02, 1.653248467286038e+03
142, -2.500000000000000e-04, 7.800000000005240e-03, 8.924010114693713e-04, -1.814578032958328e-05, 4.920867051477316e+02, 2.175892862726397e+03, 3.179732496977942e+02, 1.799897532192689e+03
143, -2.500000000000000e-04, 7.700000000005121e-03, 8.758538367962638e-04, -1.683604864792131e-05, 5.359101159232575e+02, 2.364211042765094e+03, 3.439115424656810e+02, 1.953403408222483e+03
144, -2.500000000000000e-04, 7.600000000005145e-03, 8.593320586518915e-04, -1.553634987516414e-05, 5.816679345392566e+02, 2.561066412634990e+03, 3.708517827141402e+02, 2.113798125189992e+03
145, -2.500000000000000e-04, 7.500000000005337e-03, 8.428379286501842e-04, -1.424730744730485e-05, 6.292289981555720e+02, 2.766365982010303e+03, 3.987919639312478e+02, 2.281116965379957e+03
146, -2.500000000000000e-04, 7.400000000005796e-03, 8.263737926539870e-04, -1.296955886926748e-05, 6.788447152054317e+02, 2.980373560493915e+03, 4.276979845370005e+02, 2.455348710387791e+03
147, -2.500000000000000e-04, 7.300000000006254e-03, 8.099421041548948e-04, -1.170375956084066e-05, 7.304000582502356e+02, 3.203058992186238e+03, 4.575515385537507e+02, 2.636561367634963e+03
148, -2.500000000000000e-04, 7.200000000006711e-03, 7.935454178680971e-04, -1.045058036450041e-05, 7.838612848998546e+02, 3.434422057509095e+03, 4.883461759669040e+02, 2.824783241174601e+03
149, -2.500000000000000e-04, 7.100000000007169e-03, 7.771863887791275e-04, -9.210706230879815e-06, 8.393182807000264e+02, 3.674575130922899e+03, 5.200511497442716e+02, 3.020015596008915e+03
150, -2.500000000000000e-04, 7.000000000007627e-03, 7.608677781073865e-04, -7.984837475563611e-06, 8.966527293737934e+02, 3.923461926422543e+03, 5.526457994263164e+02, 3.222304056701216e+03
151, -2.500000000000000e-04, 6.900000000008085e-03, 7.445924476775914e-04, -6.773688188297303e-06, 9.559142556421604e+02, 4.181154586423031e+03, 5.861079679110658e+02, 3.431656362675443e+03
152, -2.500000000000000e-04, 6.800000000008542e-03, 7.283633636462756e-04, -5.577986107771104e-06, 1.017050515518897e+03, 4.447637589412096e+03, 6.204116526434814e+02, 3.648091301832557e+03
153, -2.500000000000000e-04, 6.700000000009001e-03, 7.121835944605920e-04, -4.398471614074667e-06, 1.080115464701526e+03, 4.722996980824861e+03, 6.555207779458101e+02, 3.871616678054242e+03
154, -2.500000000000000e-04, 6.600000000009459e-03, 6.960563143935455e-04, -3.235898647191061e-06, 1.145087814650382e+03, 5.007256538287759e+03, 6.914012781194424e+02, 4.102254277757969e+03
155, -2.500000000000000e-04, 6.500000000009916e-03, 6.799848036358261e-04, -2.091033336704546e-06, 1.211846267234819e+03, 5.300341545545217e+03, 7.280269309284558e+02, 4.340033005565148e+03
156, -2.500000000000000e-04, 6.400000000010177e-03, 6.639724429166672e-04, -9.646525467139669e-07, 1.280493377093829e+03, 5.602368968942913e+03, 7.653603018390907e+02, 4.584944296057016e+03
157, -2.500000000000000e-04, 6.300000000010201e-03, 6.480227197172549e-04, 1.424554428895585e-07, 1.351025010420459e+03, 5.913379534879516e+03, 8.033543940702532e+02, 4.837002370966957e+03
158, -2.500000000000000e-04, 6.200000000010225e-03, 6.321392286206847e-04, 1.229491503335166e-06, 1.423406783632651e+03, 6.233385603896892e+03, 8.419646290972804e+02, 5.096225465773101e+03
159, -2.500000000000000e-04, 6.100000000010248e-03, 6.163256706605961e-04, 2.295646619312878e-06, 1.497576545354710e+03, 6.562367563164551e+03, 8.811513350274654e+02, 5.362631700477853e+03
160, -2.500000000000000e-04, 6.000000000010509e-03, 6.005858511950123e-04, 3.340103205579789e-06, 1.573576991959283e+03, 6.900395623436305e+03, 9.208654771268123e+02, 5.636219445737250e+03
161, -2.500000000000000e-04, 5.900000000010967e-03, 5.849236831444094e-04, 4.362035116996173e-06, 1.651417559192168e+03, 7.247521150275688e+03, 9.610491230532422e+02, 5.916995611779976e+03
162, -2.500000000000000e-04, 5.800000000011424e-03, 5.693431886000280e-04, 5.360608225121954e-06, 1.731031967577510e+03, 7.603730647106109e+03, 1.001646536201501e+03, 6.204979686870443e+03
163, -2.500000000000000e-04, 5.700000000011876e-03, 5.538484968801289e-04, 6.334981681653352e-06, 1.812365608270292e+03, 7.969013013074878e+03, 1.042606326164590e+03, 6.500186079838080e+03
164, -2.500000000000000e-04, 5.600000000012062e-03, 5.384438432473092e-04, 7.284309180485249e-06, 1.895417068181667e+03, 8.343398948814516e+03, 1.083872771046416e+03, 6.802616486928607e+03
165, -2.500000000000000e-04, 5.500000000012085e-03, 5.231335699799613e-04, 8.207739777730386e-06, 1.980225522619333e+03, 8.726960158796019e+03, 1.125377569424173e+03, 7.112265950176384e+03
166, -2.500000000000000e-04, 5.400000000012110e-03, 5.079221294622240e-04, 9.104418247193877e-06, 2.066755221987179e+03, 9.119710689399411e+03, 1.167049206906086e+03, 7.429145053817471e+03
167, -2.500000000000000e-04, 5.300000000012160e-03, 4.928140835228916e-04, 9.973486247868483e-06, 2.154962869361601e+03, 9.521654893397670e+03, 1.208817999305107e+03, 7.753264809019013e+03
168, -2.500000000000000e-04, 5.200000000012475e-03, 4.778141026883604e-04, 1.081408361412356e-05, 2.244829330526378e+03, 9.932816159956696e+03, 1.250611233401853e+03, 8.084630809006534e+03
169, -2.500000000000000e-04, 5.100000000012934e-03, 4.629269667031253e-04, 1.162534941242160e-05, 2.336343837325744e+03, 1.035322634574995e+04, 1.292350773249206e+03, 8.423246834703901e+03
170, -2.500000000000000e-04, 5.000000000013221e-03, 4.481575654303197e-04, 1.240642301616622e-05, 2.429482693605591e+03, 1.078290825448987e+04, 1.333954117015951e+03, 8.769119279976188e+03
171, -2.500000000000000e-04, 4.900000000012981e-03, 4.335108990952700e-04, 1.315644528122755e-05, 2.524205192250115e+03, 1.122186765055609e+04, 1.375339048447483e+03, 9.122256422144839e+03
172, -2.500000000000000e-04, 4.800000000012570e-03, 4.189920775183405e-04, 1.387456011130345e-05, 2.620519853179845e+03, 1.167015060733198e+04, 1.416416412151937e+03, 9.482655672170620e+03
173, -2.500000000000000e-04, 4.700000000012160e-03, 4.046063219879359e-04, 1.455991551069972e-05, 2.718423275655482e+03, 1.212779873243259e+04, 1.457087392274480e+03, 9.850317820329477e+03
174, -2.500000000000000e-04, 4.600000000011960e-03, 3.903589667614727e-04, 1.521166469926296e-05, 2.817829945771055e+03, 1.259478319047998e+04, 1.497256640188403e+03, 1.022525914271015e+04
175, -2.500000000000000e-04, 4.500000000011985e-03, 3.762554562265159e-04, 1.582896809516462e-05, 2.918728099936775e+03, 1.307113145630719e+04, 1.536827893790102e+03, 1.060748103043162e+04
176, -2.500000000000000e-04, 4.400000000012010e-03, 3.623013458409178e-04, 1.641099474032797e-05, 3.021133652589946e+03, 1.355689625631257e+04, 1.575694150457327e+03, 1.099697876078434e+04
177, -2.500000000000000e-04, 4.300000000011870e-03, 3.485023044211566e-04, 1.695692358216522e-05, 3.125009671452288e+03, 1.405208762513910e+04, 1.613743287404673e+03, 1.139375715892361e+04
178, -2.500000000000000e-04, 4.200000000011467e-03, 3.348641136462715e-04, 1.746594519893198e-05, 3.230323191818341e+03, 1.455671621018778e+04, 1.650861892446495e+03, 1.179782008501130e+04
179, -2.500000000000000e-04, 4.100000000011056e-03, 3.213926679179251e-04, 1.793726358653736e-05, 3.337061374036450e+03, 1.507080934241958e+04, 1.686930410126544e+03, 1.220916779391511e+04
180, -2.500000000000000e-04, 4.000000000010646e-03, 3.080939753584253e-04, 1.837009775450188e-05, 3.445187443715996e+03, 1.559437447508699e+04, 1.721825697991765e+03, 1.262780584505053e+04
181, -2.500000000000000e-04, 3.900000000010236e-03, 2.949741574071413e-04, 1.876368363113879e-05, 3.554676399974079e+03, 1.612742610509262e+04, 1.755422205963179e+03, 1.305373753498641e+04
182, -2.500000000000000e-04, 3.800000000009824e-03, 2.820394489061498e-04, 1.911727599657161e-05, 3.665531348909159e+03, 1.667000073417977e+04, 1.787586773767565e+03, 1.348695999428469e+04
183, -2.500000000000000e-04, 3.700000000009415e-03, 2.692961996840263e-04, 1.943015029874263e-05, 3.777721606863840e+03, 1.722210642741520e+04, 1.818180331534080e+03, 1.392747651496786e+04
184, -2.500000000000000e-04, 3.600000000009160e-03, 2.567508743288604e-04, 1.970160470826743e-05, 3.891221744542965e+03, 1.778375308441728e+04, 1.847060702186990e+03, 1.437528990941205e+04
185, -2.500000000000000e-04, 3.500000000009170e-03, 2.444100522686933e-04, 1.993096225533170e-05, 4.006012672856983e+03, 1.835495390744851e+04, 1.874080845243374e+03, 1.483040224039097e+04
186, -2.500000000000000e-04, 3.400000000009196e-03, 2.322804280501639e-04, 2.011757295598669e-05, 4.122084264729773e+03, 1.893572659542633e+04, 1.899088456700172e+03, 1.529281357263248e+04
187, -2.500000000000000e-04, 3.300000000009092e-03, 2.203688119610963e-04, 2.026081608141909e-05, 4.239422939868279e+03, 1.952608244868276e+04, 1.921924801111157e+03, 1.576252323401722e+04
188, -2.500000000000000e-04, 3.200000000008720e-03, 2.086821304718441e-04, 2.036010248337003e-05, 4.358006827078958e+03, 2.012602322011596e+04, 1.942425919035753e+03, 1.623953246786530e+04
189, -2.500000000000000e-04, 3.100000000008311e-03, 1.972274261925627e-04, 2.041487698014104e-05, 4.477819634338822e+03, 2.073555192040730e+04, 1.960423635587912e+03, 1.672384233390641e+04
190, -2.500000000000000e-04, 3.000000000007901e-03, 1.860118579837801e-04, 2.042462084829469e-05, 4.598855918767149e+03, 2.135467638973990e+04, 1.975743828854895e+03, 1.721545161662924e+04
191, -2.500000000000000e-04, 2.900000000007490e-03, 1.750427015274304e-04, 2.038885436474542e-05, 4.721107344660757e+03, 2.198339823178486e+04, 1.988205676633162e+03, 1.771435954027334e+04
192, -2.500000000000000e-04, 2.800000000007079e-03, 1.643273496571548e-04, 2.030713941908665e-05, 4.844556579414038e+03, 2.262170759426453e+04, 1.997623873752903e+03, 1.822056812420376e+04
193, -2.500000000000000e-04, 2.700000000006744e-03, 1.538733120152216e-04, 2.017908224340456e-05, 4.969204704064717e+03, 2.326960395469279e+04, 2.003808504761378e+03, 1.873407608683718e+04
194, -2.500000000000000e-04, 2.600000000006672e-03, 1.436882154924409e-04, 2.000433624976570e-05, 5.095060702062207e+03, 2.392708714741617e+04, 2.006561624535598e+03, 1.925487933617728e+04
195, -2.500000000000000e-04, 2.500000000006697e-03, 1.337798050005398e-04, 1.978260489752619e-05, 5.222112046060724e+03, 2.459413382009612e+04, 2.005679560486848e+03, 1.978297827959987e+04
196, -2.500000000000000e-04, 2.400000000006722e-03, 1.241559428988402e-04, 1.951364468475102e-05, 5.350366923292263e+03, 2.527073186393226e+04, 2.000953781705111e+03, 2.031837108417796e+04
197, -2.500000000000000e-04, 2.300000000006651e-03, 1.148246093394494e-04, 1.919726816318208e-05, 5.479834522285856e+03, 2.595686235656292e+04, 1.992169531675295e+03, 2.086105526327705e+04
198, -2.500000000000000e-04, 2.200000000006315e-03, 1.057939024537219e-04, 1.883334716387914e-05, 5.610523271091550e+03, 2.665249863974777e+04, 1.979105527602241e+03, 2.141102898444346e+04
199, -2.500000000000000e-04, 2.100000000005904e-03, 9.707203822533085e-05, 1.842181596576188e-05, 5.742453419214360e+03, 2.735761560729213e+04, 1.961535073057006e+03, 2.196828886800785e+04
200, -2.500000000000000e-04, 2.000000000005494e-03, 8.866735075526653e-05, 1.796267469051981e-05, 5.875642722762926e+03, 2.807217708031378e+04, 1.939224638903521e+03, 2.253283174140476e+04
201, -2.500000000000000e-04, 1.900000000005083e-03, 8.058829213641320e-05, 1.745599270902185e-05, 6.010117460610026e+03, 2.879614495626987e+04, 1.911934678510959e+03, 2.310465377131927e+04
202, -2.500000000000000e-04, 1.800000000004675e-03, 7.284343250849008e-05, 1.690191216171501e-05, 6.145904528982023e+03, 2.952947206503801e+04, 1.879419640029561e+03, 2.368375188703443e+04
203, -2.500000000000000e-04, 1.700000000004264e-03, 6.544145980354311e-05, 1.630065156258805e-05, 6.283041285733588e+03, 3.027210841693112e+04, 1.841428314443562e+03, 2.427012102924169e+04
204, -2.500000000000000e-04, 1.600000000003854e-03, 5.839117974200928e-05, 1.565250957915418e-05, 6.421568951983235e+03, 3.102399617207169e+04, 1.797702305312500e+03, 2.486375593979825e+04
205, -2.500000000000000e-04, 1.500000000003443e-03, 5.170151566584329e-05, 1.495786877445136e-05, 6.561533990064576e+03, 3.178507057655596e+04, 1.747977622545376e+03, 2.546465199066634e+04
206, -2.500000000000000e-04, 1.400000000003032e-03, 4.538150826874036e-05, 1.421719952875002e-05, 6.702991006131333e+03, 3.255526069440364e+04, 1.691984050260047e+03, 2.607280361105227e+04
207, -2.500000000000000e-04, 1.300000000002622e-03, 3.944031539482764e-05, 1.343106404883111e-05, 6.845999523983846e+03, 3.333448595650418e+04, 1.629445066869643e+03, 2.668820485513398e+04
208, -2.500000000000000e-04, 1.200000000002211e-03, 3.388721168149045e-05, 1.260012049344315e-05, 6.990630789836019e+03, 3.412266160511647e+04, 1.560078197647924e+03, 2.731084898153907e+04
209, -2.500000000000000e-04, 1.100000000002113e-03, 2.873158816068474e-05, 1.172512713586222e-05, 7.136984245899790e+03, 3.491971899973286e+04, 1.483596692926426e+03, 2.794073347267199e+04
210, -2.500000000000000e-04, 1.000000000002544e-03, 2.398295192926362e-05, 1.080694612836077e-05, 7.285240047210038e+03, 3.572568159998549e+04, 1.399714798702678e+03, 2.857788518746035e+04
211, -2.500000000000000e-04, 9.000000000030026e-04, 1.965092698215486e-05, 9.846545386615440e-06, 7.435712388549447e+03, 3.654077819548297e+04, 1.308159378365388e+03, 2.922242254609895e+04
212, -2.500000000000000e-04, 8.000000000032027e-04, 1.574526061737142e-05, 8.844997288026287e-06, 7.588755488246365e+03, 3.736538623072091e+04, 1.208645066450888e+03, 2.987458836470059e+04
213, -2.500000000000000e-04, 7.000000000028719e-04, 1.227584792977625e-05, 7.803478910959141e-06, 7.742955748917131e+03, 3.819770315438142e+04, 1.100725444413697e+03, 3.053421074052108e+04
214, -2.500000000000000e-04, 6.000000000024631e-04, 9.252784467055621e-06, 6.723330877290359e-06, 7.890536187675001e+03, 3.902615635117244e+04, 9.828450335844275e+02, 3.119760856869889e+04
215, -2.500000000000000e-04, 5.000000000020526e-04, 6.686421588472799e-06, 5.606333103142204e-06, 7.989833956679060e+03, 3.979028234923145e+04, 8.509454982038994e+02, 3.184595658684225e+04
216, -2.500000000000000e-04, 4.000000000016421e-04, 4.586953849343182e-06, 4.455945283204468e-06, 7.953515871620978e+03, 4.034025919770783e+04, 6.892765331529644e+02, 3.241606934571885e+04
217, -2.500000000000000e-04, 3.000000000012316e-04, 2.962312672012326e-06, 3.279806011639004e-06, 7.273163141875617e+03, 3.998668432627769e+04, 4.948032942536151e+02, 3.272848590268637e+04
218, -2.500000000000000e-04, 2.000000000008210e-04, 1.803166999894079e-06, 2.101032104032499e-06, 6.831126608054459e+03, 3.942860820385725e+04, 1.825260399089613e+02, 3.259952560099121e+04
219, -2.500000000000000e-04, 1.000000000004105e-04, 1.049144982777306e-06, 9.295329064493224e-07, -3.533479249772025e+03, 2.732373856426601e+04, 2.457521964480058e+03, 3.124620853874265e+04
220, -1.999999999998928e-04, 9.899999999999593e-03, 1.242102393504901e-03, -5.540967519849049e-05, -7.101638993424899e-01, 7.038672271260555e+01, 8.266794459925016e+00, 7.299401926516160e+01
221, -1.499999999997670e-04, 9.899999999999591e-03, 1.241396545208438e-03, -6.377534385460278e-05, 3.223358636271920e+00, 6.401397806388646e+01, 1.457862687371293e+01, 6.742139761592640e+01
222, -9.999999999959327e-05, 9.899999999999591e-03, 1.240690896816822e-03, -7.214069365134404e-05, 8.509701890220777e+00, 5.557470211247168e+01, 1.842465093745295e+01, 5.977445352814546e+01
223, -4.999999999946756e-05, 9.899999999999593e-03, 1.239985476535810e-03, -8.050574381167908e-05, 1.357073165695729e+01, 4.681950336215527e+01, 2.089753581526293e+01, 5.340701108005542e+01
224, 6.282680539010377e-16, 9.899999999999593e-03, 1.239280269788389e-03, -8.887057142793619e-05, 1.727653370336441e+01, 3.808400474515993e+01, 2.163958707831958e+01, 4.802122204646464e+01
225, 5.000000000046569e-05, 9.899999999999590e-03, 1.238575249477186e-03, -9.723529044386466e-05, 1.973543761748993e+01, 2.999197805470486e+01, 2.049751955228184e+01, 4.225860685026105e+01
226, 1.000000000003380e-04, 9.899999999999590e-03, 1.237870382981578e-03, -1.056000254415235e-04, 2.107905606526618e+01, 2.303549779521638e+01, 1.758131635893359e+01, 3.521701866845509e+01
227, 1.500000000001929e-04, 9.899999999999593e-03, 1.237165631351285e-03, -1.139648941757445e-04, 2.144538892206608e+01, 1.784692048593235e+01, 1.316824040246986e+01, 2.658118124302998e+01
228, 2.000000000000797e-04, 9.899999999999593e-03, 1.236460947616979e-03, -1.223299979072917e-04, 2.064917675229980e+01, 1.475885285627299e+01, 7.748202061897477e+00, 1.657813187207997e+01
229, -1.999999999998947e-04, 9.799999999999184e-03, 1.225370224756192e-03, -5.400274046866196e-05, 4.785680945254677e+00, 9.035282607624377e+01, 1.424691786996615e+01, 9.018666753485236e+01
230, -1.499999999997712e-04, 9.799999999999181e-03, 1.224664262364185e-03, -6.236808188067037e-05, 1.037201204780872e+01, 7.801938729650252e+01, 2.170375009300338e+01, 8.037647946032327e+01
231, -9.999999999960086e-05, 9.799999999999184e-03, 1.223958567436846e-03, -7.073299883290426e-05, 1.393280381125157e+01, 6.300178031638431e+01, 2.667588901976335e+01, 7.248569979823739e+01
232, -4.999999999947776e-05, 9.799999999999184e-03, 1.223253148466238e-03, -7.909760836466698e-05, 1.790221107104301e+01, 4.901011671558079e+01, 2.938032457960043e+01, 6.648695874530702e+01
233, 6.154473632113966e-16, 9.799999999999184e-03, 1.222547992094574e-03, -8.746202125021953e-05, 2.155535728686603e+01, 3.646484883414776e+01, 2.985401671364900e+01, 6.154138602561532e+01
234, 5.000000000045551e-05, 9.799999999999184e-03, 1.221843069206459e-03, -9.582636209218204e-05, 2.422164480296265e+01, 2.540702636893052e+01, 2.798172756883912e+01, 5.597600772120018e+01
235, 1.000000000003303e-04, 9.799999999999184e-03, 1.221138341574990e-03, -1.041907640935501e-04, 2.557235174516369e+01, 1.598393312960868e+01, 2.376797460913465e+01, 4.849334221961815e+01
236, 1.500000000001885e-04, 9.799999999999188e-03, 1.220433763640429e-03, -1.125553601140602e-04, 2.537902626846834e+01, 8.445437537728854e+00, 1.737891639535745e+01, 3.866333363290242e+01
237, 2.000000000000778e-04, 9.799999999999188e-03, 1.219729280935387e-03, -1.209202737379606e-04, 2.302740534437388e+01, 2.912049118632931e+00, 9.077255531612396e+00, 2.709638034928663e+01
238, -1.999999999998966e-04, 9.699999999999027e-03, 1.208638224281975e-03, -5.259654948644943e-05, 7.503328318880539e+00, 1.123028435597508e+02, 2.159818100414535e+01, 1.133528300726219e+02
239, -1.499999999997756e-04, 9.699999999998999e-03, 1.207932059578491e-03, -6.096135418058900e-05, 1.254637444994734e+01, 9.319277067995273e+01, 2.989466645092762e+01, 1.003922584352792e+02
240, -9.999999999960846e-05, 9.699999999998973e-03, 1.207226246824441e-03, -6.932569110336283e-05, 1.726167727348820e+01, 7.380030857578106e+01, 3.532375398980493e+01, 9.048583984947948e+01
241, -4.999999999948794e-05, 9.699999999998947e-03, 1.206520783391750e-03, -7.768969972001317e-05, 2.124101117206372e+01, 5.460943829596803e+01, 3.785876293017289e+01, 8.274415780667202e+01
242, 6.026266725217555e-16, 9.699999999998920e-03, 1.205815654542752e-03, -8.605352585004753e-05, 2.455826284817624e+01, 3.659193084681657e+01, 3.752307593560337e+01, 7.600482929510288e+01
243, 5.000000000044535e-05, 9.699999999998892e-03, 1.205110831979235e-03, -9.441731730630523e-05, 2.684226884439413e+01, 2.017714946203840e+01, 3.434601822003704e+01, 6.901463385880939e+01
244, 1.000000000003228e-04, 9.699999999998864e-03, 1.204406275478438e-03, -1.027812251455163e-04, 2.770283089519894e+01, 5.661771084330410e+00, 2.837224404934047e+01, 6.087483262537670e+01
245, 1.500000000001842e-04, 9.699999999998836e-03, 1.203701934102619e-03, -1.111454011077772e-04, 2.677961049238845e+01, -6.641296157947441e+00, 1.969830883643172e+01, 5.166285401903617e+01
246, 2.000000000000759e-04, 9.699999999998809e-03, 1.202997745153340e-03, -1.195099960621216e-04, 2.387260701997225e+01, -1.616678355237447e+01, 8.453931796795349e+00, 4.346295720155724e+01
247, -1.999999999998985e-04, 9.599999999999352e-03, 1.191906655984243e-03, -5.119134556515953e-05, 9.582042001938810e+00, 1.387369139897959e+02, 2.982613837203910e+01, 1.422651576421713e+02
248, -1.499999999997800e-04, 9.599999999999241e-03, 1.191200247948241e-03, -5.955541339602149e-05, 1.463986529654541e+01, 1.128376928439507e+02, 3.889171700522398e+01, 1.252720078129494e+02
249, -9.999999999961608e-05, 9.599999999999132e-03, 1.190494286814425e-03, -6.791896507447661e-05, 1.946038223092821e+01, 8.685857461198054e+01, 4.443497562106779e+01, 1.115364719274054e+02
250, -4.999999999949810e-05, 9.599999999999024e-03, 1.189788770397959e-03, -7.628216905162201e-05, 2.361337782477407e+01, 6.134247403498862e+01, 4.649706102202674e+01, 1.003563223498347e+02
251, 5.898059818321144e-16, 9.599999999998917e-03, 1.189083681762958e-03, -8.464519737309312e-05, 2.675003257077681e+01, 3.681852831081948e+01, 4.511995633522845e+01, 9.079987029307335e+01
252, 5.000000000043517e-05, 9.599999999998809e-03, 1.188378990905302e-03, -9.300822442592083e-05, 2.861828526533380e+01, 1.386180517989009e+01, 4.036525230607572e+01, 8.206806979236627e+01
253, 1.000000000003152e-04, 9.599999999998698e-03, 1.187674655121646e-03, -1.013714254021789e-04, 2.891049044169709e+01, -7.051275579839278e+00, 3.231110531650537e+01, 7.395457201880716e+01
254, 1.500000000001798e-04, 9.599999999998591e-03, 1.186970619416417e-03, -1.097349759684395e-04, 2.735560498131389e+01, -2.543612331533020e+01, 2.104926724718975e+01, 6.752224213635942e+01
255, 2.000000000000740e-04, 9.599999999998483e-03, 1.186266816978335e-03, -1.180990516130132e-04, 2.374121615798584e+01, -4.076595933415547e+01, 6.677075212734197e+00, 6.587494989417414e+01
256, -1.999999999999004e-04, 9.499999999999719e-03, 1.175175897086823e-03, -4.978736501897235e-05, 1.129126904495241e+01, 1.696106422003864e+02, 3.870283234314682e+01, 1.762290011373170e+02
257, -1.499999999997843e-04, 9.499999999999528e-03, 1.174469222620817e-03, -5.815046360995987e-05, 1.670873526894832e+01, 1.359995474595363e+02, 4.841698227908422e+01, 1.536460691496621e+02
258, -9.999999999962368e-05, 9.499999999999330e-03, 1.173763109694407e-03, -6.651298886962508e-05, 2.163324975061179e+01, 1.022484144728972e+02, 5.393903120381022e+01, 1.346717532819101e+02
259, -4.999999999950831e-05, 9.499999999999136e-03, 1.173057554470856e-03, -7.487514126712748e-05, 2.574529296583321e+01, 6.900446022486508e+01, 5.535722282105340e+01, 1.188656553668212e+02
260, 5.769988436696294e-16, 9.499999999998942e-03, 1.172352538406667e-03, -8.323712190438606e-05, 2.871100213863135e+01, 3.684134576388820e+01, 5.275675605564588e+01, 1.058262903324333e+02
261, 5.000000000042495e-05, 9.499999999998747e-03, 1.171648029029383e-03, -9.159913248206413e-05, 3.022064849024460e+01, 6.307548947820520e+00, 4.622671417429392e+01, 9.549593050561550e+01
262, 1.000000000003075e-04, 9.499999999998551e-03, 1.170943980650028e-03, -9.996137483502438e-05, 3.000138054424012e+01, -2.204785962209625e+01, 3.586584207239404e+01, 8.862594378702325e+01
263, 1.500000000001755e-04, 9.499999999998359e-03, 1.170240334853883e-03, -1.083240502804998e-04, 2.779491265739053e+01, -4.769554746410061e+01, 2.178322235843410e+01, 8.715987995988966e+01
264, 2.000000000000721e-04, 9.499999999998164e-03, 1.169537021016411e-03, -1.166873590728879e-04, 2.337906749873023e+01, -7.011248360520737e+01, 4.103184102223543e+00, 9.385102347298688e+01
265, -1.999999999999023e-04, 9.400000000000087e-03, 1.158446432936856e-03, -4.838486159248403e-05, 1.267573207971949e+01, 2.048661516208308e+02, 4.824932025933050e+01, 2.150561437981676e+02
266, -1.499999999997887e-04, 9.399999999999811e-03, 1.157739478786894e-03, -5.674671017720212e-05, 1.856614718175877e+01, 1.622687627395814e+02, 5.845432708805104e+01, 1.852513836370104e+02
267, -9.999999999963125e-05, 9.399999999999530e-03, 1.157033221360296e-03, -6.510792541899599e-05, 2.373733233108239e+01, 1.196036167355792e+02, 6.381428627698935e+01, 1.596226707510248e+02
268, -4.999999999951849e-05, 9.399999999999249e-03, 1.156327653700249e-03, -7.346873914745805e-05, 2.786929653155195e+01, 7.748813003263464e+01, 6.444914541488180e+01, 1.381187822739633e+02
269, 5.641646004528322e-16, 9.399999999998968e-03, 1.155622754343660e-03, -8.182938255860694e-05, 3.066471741001751e+01, 3.653327654467111e+01, 6.047192489734800e+01, 1.210861461500816e+02
270, 5.000000000041476e-05, 9.399999999998687e-03, 1.154918487750362e-03, -9.019008619400731e-05, 3.183043137164402e+01, -2.676131656661216e+00, 5.199656870537012e+01, 1.095685882018907e+02
271, 1.000000000003000e-04, 9.399999999998406e-03, 1.154214804747880e-03, -9.855107969405394e-05, 3.108478435282630e+01, -3.957420074864568e+01, 3.914307687323664e+01, 1.054581151167917e+02
272, 1.500000000001711e-04, 9.399999999998125e-03, 1.153511642975031e-03, -1.069125913491327e-04, 2.816155987704838e+01, -7.360925063126015e+01, 2.204218621540552e+01, 1.109086550461076e+02
273, 2.000000000000702e-04, 9.399999999997844e-03, 1.152808927312401e-03, -1.152748473807541e-04, 2.279266886810392e+01, -1.042589723571908e+02, 8.394475919208055e-01, 1.270627334314800e+02
274, -1.999999999999042e-04, 9.300000000000464e-03, 1.141718827571897e-03, -4.698409786629962e-05, 1.456092713926754e+01, 2.451203421006129e+02, 5.847524590917408e+01, 2.585247790132918e+02
275, -1.499999999997930e-04, 9.300000000000100e-03, 1.141011592453720e-03, -5.534436987171354e-05, 2.080225832741604e+01, 1.921262820332131e+02, 6.900487611283307e+01, 2.199968472686240e+02
276, -9.999999999963886e-05, 9.299999999999729e-03, 1.140305207751988e-03, -6.370394750392596e-05, 2.611415039285222e+01, 1.391841162759314e+02, 7.405871056529568e+01, 1.863426618549215e+02
277, -4.999999999952863e-05, 9.299999999999361e-03, 1.139599663045971e-03, -7.206309368038054e-05, 3.021328390388354e+01, 8.693031754220860e+01, 7.376972168923737e+01, 1.580655220380493e+02
278, 5.513303572360351e-16, 9.299999999998993e-03, 1.138894933390585e-03, -8.042207003032316e-05, 3.279875815314668e+01, 3.597478658507276e+01, 6.826746249263871e+01, 1.365718598296726e+02
279, 5.000000000040461e-05, 9.299999999998625e-03, 1.138190979578154e-03, -8.878113678681202e-05, 3.357524910395696e+01, -1.308584013699366e+01, 5.768397090589832e+01, 1.244468531022061e+02
280, 1.000000000002923e-04, 9.299999999998258e-03, 1.137487748430298e-03, -9.714055255419349e-05, 3.225389212945466e+01, -5.966890197105327e+01, 4.215699486490574e+01, 1.247343134001351e+02
281, 1.500000000001668e-04, 9.299999999997890e-03, 1.136785173087640e-03, -1.055005739218329e-04, 2.855098311661600e+01, -1.032060691850149e+02, 2.183339247147950e+01, 1.388045710287285e+02
282, 2.000000000000683e-04, 9.299999999997520e-03, 1.136083173241504e-03, -1.138614549653071e-04, 2.218988954705161e+01, -1.431380285120673e+02, -3.127628057260747e+00, 1.654462109533518e+02
283, -1.999999999999061e-04, 9.200000000000841e-03, 1.124993750197602e-03, -4.558535574574461e-05, 1.625071957070125e+01, 2.898434382334810e+02, 6.945511940710463e+01, 3.068371394611669e+02
284, -1.499999999997973e-04, 9.200000000000397e-03, 1.124286235719131e-03, -5.394367827879410e-05, 2.293342606555831e+01, 2.252389164522359e+02, 8.013127018490627e+01, 2.580922185699907e+02
285, -9.999999999964642e-05, 9.199999999999951e-03, 1.123579745049689e-03, -6.230124568106094e-05, 2.847968058236402e+01, 1.608253329991605e+02, 8.471750911679305e+01, 2.149967374576720e+02
286, -4.999999999953884e-05, 9.199999999999505e-03, 1.122874263587188e-03, -7.065835189715807e-05, 3.259855253245690e+01, 9.723852703336692e+01, 8.334499959350568e+01, 1.787844571892203e+02
287, 5.385367716007061e-16, 9.199999999999058e-03, 1.122169762185797e-03, -7.901528925469180e-05, 3.499627712914261e+01, 3.509995955282532e+01, 7.615356115426937e+01, 1.523071575992184e+02
288, 5.000000000039439e-05, 9.199999999998614e-03, 1.121466197289035e-03, -8.737234828056182e-05, 3.537903487469702e+01, -2.498028935351533e+01, 6.328697060671901e+01, 1.402291361151074e+02
289, 1.000000000002848e-04, 9.199999999998171e-03, 1.120763511097847e-03, -9.572981744819150e-05, 3.345505908369407e+01, -8.240219165466172e+01, 4.489465861085193e+01, 1.465777064760873e+02
290, 1.500000000001625e-04, 9.199999999997726e-03, 1.120061631723566e-03, -1.040879828693596e-04, 2.893524886974996e+01, -1.365739522308465e+02, 2.113370608674199e+01, 1.708210460710297e+02
291, 2.000000000000664e-04, 9.199999999997280e-03, 1.119360473307438e-03, -1.124471279111565e-04, 2.153317144660376e+01, -1.869095334664365e+02, -7.829054089568867e+00, 2.090299920662448e+02
292, -1.999999999999080e-04, 9.100000000001274e-03, 1.108271937487240e-03, -4.418893233270581e-05, 1.834457352478100e+01, 3.395451327076452e+02, 8.122691973578647e+01, 3.599458975713437e+02
293, -1.499999999998017e-04, 9.100000000000802e-03, 1.107564154748802e-03, -5.254488741017517e-05, 2.535833844863658e+01, 2.619679308037905e+02, 9.188719494508582e+01, 2.995949358283229e+02
294, -9.999999999965405e-05, 9.100000000000334e-03, 1.106857587489939e-03, -6.090002738744826e-05, 3.106986457390832e+01, 1.847737257385429e+02, 9.582883558240532e+01, 2.456777154184643e+02
295, -4.999999999954905e-05, 9.099999999999862e-03, 1.106152216823849e-03, -6.925467745506002e-05, 3.515985877536517e+01, 1.085811131405541e+02, 9.319561309396028e+01, 2.003306511555192e+02
296, 5.257025283839090e-16, 9.099999999999390e-03, 1.105448009109573e-03, -7.760916102474742e-05, 3.732694649165926e+01, 3.401507043734112e+01, 8.413356662530396e+01, 1.682997226836010e+02
297, 5.000000000038422e-05, 9.099999999998916e-03, 1.104744916094674e-03, -8.596379945301283e-05, 3.727300318116077e+01, -3.830504702720447e+01, 6.879360463947228e+01, 1.569786030975759e+02
298, 1.000000000002772e-04, 9.099999999998446e-03, 1.104042875020397e-03, -9.431891182344927e-05, 3.470179770955708e+01, -1.077653423872294e+02, 4.733181194574186e+01, 1.710499567250038e+02
299, 1.500000000001581e-04, 9.099999999997978e-03, 1.103341808703512e-03, -1.026748146978906e-04, 2.931816568512050e+01, -1.737565954011334e+02, 1.991050679764023e+01, 2.069421941364173e+02
300, 2.000000000000645e-04, 9.099999999997506e-03, 1.102641625580518e-03, -1.110318218398472e-04, 2.082649372263604e+01, -2.356732272781534e+02, -1.330044373169138e+01, 2.578753848030524e+02
301, -1.999999999999099e-04, 9.000000000001736e-03, 1.091554220298815e-03, -4.279514006533311e-05, 2.070029665786962e+01, 3.941877364178200e+02, 9.377786225130460e+01, 4.179354225860033e+02
302, -1.499999999998060e-04, 9.000000000001264e-03, 1.090846186660807e-03, -5.114826552338917e-05, 2.803974502248057e+01, 3.023636182275097e+02, 1.042550585819716e+02, 3.445722803272634e+02
303, -9.999999999966160e-05, 9.000000000000792e-03, 1.090139578583502e-03, -5.950051669266137e-05, 3.386943445077335e+01, 2.110947829104288e+02, 1.073815551793476e+02, 2.784457177038057e+02
304, -4.999999999955923e-05, 9.000000000000320e-03, 1.089434372645836e-03, -6.785225064795703e-05, 3.788261192220128e+01, 1.210183117947544e+02, 1.033084516671891e+02, 2.227152651633629e+02
305, 5.128818376942679e-16, 8.999999999999852e-03, 1.088730530501562e-03, -7.620382232508520e-05, 3.977117612239146e+01, 3.276286057740448e+01, 9.218856338596993e+01, 1.845102744116275e+02
306, 5.000000000037403e-05, 8.999999999999380e-03, 1.088027998985600e-03, -8.455558443235302e-05, 3.923156516768692e+01, -5.304436756010703e+01, 7.417778430879326e+01, 1.747118270199009e+02
307, 1.000000000002695e-04, 8.999999999998908e-03, 1.087326710185528e-03, -9.290788727853231e-05, 3.596225076992712e+01, -1.357787606031126e+02, 4.943627773923063e+01, 1.981685071202686e+02
308, 1.500000000001538e-04, 8.999999999998436e-03, 1.086626581486296e-03, -1.012610785877962e-04, 2.966268610471722e+01, -2.148177957990874e+02, 1.812903479207632e+01, 2.471545136991955e+02
309, 2.000000000000626e-04, 8.999999999997964e-03, 1.085927515585059e-03, -1.096155033056014e-04, 2.003159980708009e+01, -2.895404151142662e+02, -1.957398559890660e+01, 3.120374914515355e+02
310, -1.999999999999118e-04, 8.900000000002187e-03, 1.074841522375044e-03, -4.140431216420297e-05, 2.320230277382268e+01, 4.538013664346727e+02, 1.071335111370630e+02, 4.809635230033787e+02
311, -1.499999999998104e-04, 8.900000000001712e-03, 1.074133260364679e-03, -4.975409999820844e-05, 3.086027324065989e+01, 3.464380002582606e+02, 1.172467715511100e+02, 3.931622102214656e+02
312, -9.999999999966923e-05, 8.900000000001240e-03, 1.073426652824861e-03, -5.810295606319966e-05, 3.679831528758592e+01, 2.398183811030618e+02, 1.193759814126252e+02, 3.134001386033993e+02
313, -4.999999999956943e-05, 8.900000000000770e-03, 1.072721671492211e-03, -6.645126945796242e-05, 4.070836306467442e+01, 1.345816277234892e+02, 1.136759420637989e+02, 2.459696506361559e+02
314, 5.000475944774707e-16, 8.900000000000293e-03, 1.072018273093956e-03, -7.479942702746595e-05, 4.228402892461460e+01, 3.136607014238107e+01, 1.003032080136241e+02, 2.009033000606708e+02
315, 5.000000000036387e-05, 8.899999999999823e-03, 1.071316399377056e-03, -8.314781327214136e-05, 4.121897534919896e+01, -6.919268986842920e+01, 7.941704418364911e+01, 1.934399220523011e+02
316, 1.000000000002620e-04, 8.899999999999349e-03, 1.070615977142355e-03, -9.149681022757910e-05, 3.720801756118355e+01, -1.664604174521718e+02, 5.118014825134490e+01, 2.279439881218803e+02
317, 1.500000000001494e-04, 8.899999999998874e-03, 1.069916918267733e-03, -9.984679731963069e-05, 2.994689100223831e+01, -2.598037685521631e+02, 1.575903353197188e+01, 2.914598313038315e+02
318, 2.000000000000606e-04, 8.899999999998404e-03, 1.069219119717377e-03, -1.081981512219477e-04, 1.913285151657561e+01, -3.485888843389237e+02, -2.667605910016458e+01, 3.715719627973072e+02
319, -1.999999999999137e-04, 8.800000000002590e-03, 1.058134855537143e-03, -4.001680077293554e-05, 2.589043013072111e+01, 5.185113753412388e+02, 1.213197429637695e+02, 5.491350615206466e+02
320, -1.499999999998147e-04, 8.800000000002060e-03, 1.057426393994425e-03, -4.836269709242101e-05, 3.383260165741972e+01, 3.942951314071964e+02, 1.308798639900245e+02, 4.454788328818755e+02
321, -9.999999999967683e-05, 8.800000000001532e-03, 1.056719834589505e-03, -5.670760621404385e-05, 3.984466318754284e+01, 2.710173597700046e+02, 1.318209112937210e+02, 3.506391681806742e+02
322, -4.999999999957961e-05, 8.800000000001001e-03, 1.056015144138789e-03, -6.505194942526422e-05, 4.361932234296498e+01, 1.493233015494498e+02, 1.242986520405522e+02, 2.701369112440542e+02
323, 4.872540088421418e-16, 8.800000000000474e-03, 1.055312274329243e-03, -7.339614575354846e-05, 4.484772011297709e+01, 2.985704146117998e+01, 1.084711239014267e+02, 2.174595579141007e+02
324, 5.000000000035368e-05, 8.799999999999947e-03, 1.054611161720989e-03, -8.174061185875884e-05, 4.322108850168755e+01, -8.673814111586415e+01, 8.449933715684399e+01, 2.131899464856903e+02
325, 1.000000000002544e-04, 8.799999999999419e-03, 1.053911727756545e-03, -9.008576191234293e-05, 3.843101569132040e+01, -1.998198874029825e+02, 5.254755932358566e+01, 2.604006082725497e+02
326, 1.500000000001451e-04, 8.799999999998892e-03, 1.053213878773168e-03, -9.843200746733104e-05, 3.017008884338810e+01, -3.087461596279976e+02, 1.278351490661960e+01, 3.398792380999303e+02
327, 2.000000000000587e-04, 8.799999999998365e-03, 1.052517506015836e-03, -1.067797573219326e-04, 1.813261253158896e+01, -4.128746611589602e+02, -3.462151216737960e+01, 4.365339235307882e+02
328, -1.999999999999156e-04, 8.700000000002964e-03, 1.041435322720623e-03, -3.863297639588315e-05, 2.869965937114406e+01, 5.883411649263978e+02, 1.363577903149586e+02, 6.225531323979216e+02
329, -1.499999999998191e-04, 8.700000000002345e-03, 1.040726696574593e-03, -4.697438128871217e-05, 3.690300344017021e+01, 4.459639214575210e+02, 1.451722442835404e+02, 5.016281059614557e+02
330, -9.999999999968445e-05, 8.700000000001731e-03, 1.040020239200486e-03, -5.531474568585934e-05, 4.296653155986269e+01, 3.047209176582217e+02, 1.447294326956984e+02, 3.902586237297052e+02
331, -4.999999999958977e-05, 8.700000000001117e-03, 1.039315912446954e-03, -6.365452329274761e-05, 4.658046453536403e+01, 1.652641597995054e+02, 1.351839824023700e+02, 2.952704792460784e+02
332, 4.743926605710325e-16, 8.700000000000502e-03, 1.038613662894140e-03, -7.199416560016742e-05, 4.743361057262251e+01, 2.824472625228301e+01, 1.166944203402888e+02, 2.341763528533216e+02
333, 5.000000000034347e-05, 8.699999999999888e-03, 1.037913421843840e-03, -8.033412175019861e-05, 4.521438341584646e+01, -1.056870652212812e+02, 8.942267570511228e+01, 2.340019378591348e+02
334, 1.000000000002468e-04, 8.699999999999274e-03, 1.037215105323497e-03, -8.867483840067867e-05, 3.961155591360349e+01, -2.358813674245862e+02, 5.353406426025700e+01, 2.955671411952061e+02
335, 1.500000000001407e-04, 8.699999999998657e-03, 1.036518614093939e-03, -9.701675959154825e-05, 3.031440392044014e+01, -3.616888244859837e+02, 9.197328142441771e+00, 3.924345734780485e+02
336, 2.000000000000568e-04, 8.699999999998044e-03, 1.035823833658357e-03, -1.053603266068799e-04, 1.701277918351880e+01, -4.824605801986432e+02, -4.341512575348696e+01, 5.069646233311223e+02
337, -1.999999999999175e-04, 8.600000000003331e-03, 1.024744116135319e-03, -3.725322719641550e-05, 3.164867016665747e+01, 6.633684041185520e+02, 1.522639028272555e+02, 7.012895312786325e+02
338, -1.499999999998235e-04, 8.600000000002632e-03, 1.024035367089457e-03, -4.558949452886714e-05, 4.007828465658189e+01, 5.015028644312708e+02, 1.601408840516897e+02, 5.616876835036311e+02
339, -9.999999999969208e-05, 8.600000000001931e-03, 1.023329072516471e-03, -5.392467014196354e-05, 4.616249625714661e+01, 3.409710320059527e+02, 1.581150639736083e+02, 4.323350165923043e+02
340, -4.999999999959999e-05, 8.600000000001230e-03, 1.022625189299518e-03, -6.225924046837442e-05, 4.958551944718823e+01, 1.824307967241414e+02, 1.463412089607964e+02, 3.214200763101467e+02
341, 4.615584173542353e-16, 8.600000000000526e-03, 1.021923658874314e-03, -7.059368978227999e-05, 5.003166489157115e+01, 2.653935662133906e+01, 1.249781853722102e+02, 2.510579132861295e+02
342, 5.000000000033329e-05, 8.599999999999825e-03, 1.021224407239007e-03, -7.892850002794937e-05, 4.718590674108585e+01, -1.260463031651286e+02, 9.418862168593782e+01, 2.559206603019334e+02
343, 1.000000000002392e-04, 8.599999999999124e-03, 1.020527344961026e-03, -8.726415067643804e-05, 4.073369426042611e+01, -2.746695669705391e+02, 5.413862313911007e+01, 3.334714069552632e+02
344, 1.500000000001364e-04, 8.599999999998423e-03, 1.019832367185239e-03, -9.560111858750761e-05, 3.036094223893953e+01, -4.186741881495664e+02, 4.997692027567911e+00, 4.491463637005560e+02
345, 2.000000000000548e-04, 8.599999999997722e-03, 1.019139353640236e-03, -1.039398778778842e-04, 1.575311295603801e+01, -5.574049083252178e+02, -5.306130298512220e+01, 5.828997554099335e+02
346, -1.999999999999195e-04, 8.500000000003703e-03, 1.008062519248639e-03, -3.587795847291450e-05, 3.472859848144184e+01, 7.436338939582326e+02, 1.690489363286941e+02, 7.854023742327799e+02
347, -1.499999999998278e-04, 8.500000000002915e-03, 1.007353696005879e-03, -4.420839559946581e-05, 4.335945888070652e+01, 5.609499812289694e+02, 1.757950054824973e+02, 6.257119821731982e+02
348, -9.999999999969967e-05, 8.500000000002127e-03, 1.006647632199328e-03, -5.253769174937287e-05, 4.943648356073257e+01, 3.797986678670231e+02, 1.719851647450180e+02, 4.769221743524907e+02
349, -4.999999999961013e-05, 8.500000000001340e-03, 1.005944279703367e-03, -6.086636649842080e-05, 5.263748442552394e+01, 2.008436158161886e+02, 1.577750872491340e+02, 3.486215283192854e+02
350, 4.487512791917503e-16, 8.500000000000552e-03, 1.005243574777821e-03, -6.919493724365992e-05, 5.264332393543910e+01, 2.474916556853977e+01, 1.333245267855246e+02, 2.681040876997848e+02
351, 5.000000000032310e-05, 8.499999999999765e-03, 1.004545438084252e-03, -7.752391906058473e-05, 4.913550932070984e+01, -1.478209534438459e+02, 9.879674797849447e+01, 2.789893149732270e+02
352, 1.000000000002316e-04, 8.499999999998977e-03, 1.003849774699584e-03, -8.585382455683323e-05, 4.179616795830176e+01, -3.162033935557224e+02, 5.435847289751572e+01, 3.741431014294308e+02
353, 1.500000000001320e-04, 8.499999999998190e-03, 1.003156474125372e-03, -9.418516373606784e-05, 3.030799143390757e+01, -4.797350683268921e+02, 1.797791024734927e-01, 5.100431864972430e+02
354, 2.000000000000531e-04, 8.499999999997402e-03, 1.002465410295885e-03, -1.025184438670583e-04, 1.435463121833002e+01, -6.377526579685029e+02, -6.356618019684907e+01, 6.643843418307456e+02
355, -1.999999999999213e-04, 8.400000000004074e-03, 9.913919078383749e-04, -3.450759232542272e-05, 3.800740791217950e+01, 8.292481263547659e+02, 1.867076045493555e+02, 8.749290216399124e+02
356, -1.499999999998322e-04, 8.400000000003200e-03, 9.906830665640624e-04, -4.283145966910813e-05, 4.679679088818297e+01, 6.243861822707859e+02, 1.921308981597988e+02, 6.937338345132732e+02
357, -9.999999999970726e-05, 8.400000000002326e-03, 9.899773090021971e-04, -5.115413877179845e-05, 5.282235724540215e+01, 4.212589440951392e+02, 1.863365382419541e+02, 5.240522306654793e+02
358, -4.999999999962035e-05, 8.400000000001451e-03, 9.892745820134694e-04, -5.947618270758865e-05, 5.576005532693761e+01, 2.205377398587111e+02, 1.694828357217327e+02, 3.768944304931714e+02
359, 4.359305885021092e-16, 8.400000000000581e-03, 9.885748166724394e-04, -6.779814235646855e-05, 5.528592628040261e+01, 2.289230638126993e+01, 1.417306188580195e+02, 2.853061862239904e+02
360, 5.000000000031294e-05, 8.399999999999703e-03, 9.878779283003329e-04, -7.612056625636584e-05, 5.107749770329244e+01, -1.710077392245724e+02, 1.032439754298995e+02, 3.032476319966648e+02
361, 1.000000000002240e-04, 8.399999999998832e-03, 9.871838164822262e-04, -8.444400047583643e-05, 4.281317396282866e+01, -3.604929170440633e+02, 5.419018282527674e+01, 4.176147826667623e+02
362, 1.500000000001277e-04, 8.399999999997958e-03, 9.864923650784924e-04, -9.276898848340849e-05, 3.017211558994949e+01, -5.448937653789077e+02, -5.260215012375996e+00, 5.751621048907807e+02
363, 2.000000000000511e-04, 8.399999999997083e-03, 9.858034422338220e-04, -1.010960710165097e-04, 1.283503798256858e+01, -7.235402381355184e+02, -7.493320163657823e+01, 7.514708817432791e+02
364, -1.999999999999233e-04, 8.300000000004210e-03, 9.747337543116224e-04, -3.314256852942352e-05, 4.141007104876012e+01, 9.202046844777440e+02, 2.052443841362143e+02, 9.699386586117766e+02
365, -1.499999999998365e-04, 8.300000000003279e-03, 9.740249579061228e-04, -4.145907896095587e-05, 5.034093849901200e+01, 6.918140624511389e+02, 2.091469294136315e+02, 7.658051456379114e+02
366, -9.999999999971485e-05, 8.300000000002344e-03, 9.733195891440363e-04, -4.977435594747470e-05, 5.629236561764961e+01, 4.653596740431906e+02, 2.011661088916931e+02, 5.737658723634709e+02
367, -4.999999999963053e-05, 8.300000000001409e-03, 9.726175897706765e-04, -5.808898642234749e-05, 5.893711673325027e+01, 2.415185997144830e+02, 1.814607039145623e+02, 4.062609336230842e+02
368, 4.231098978124681e-16, 8.300000000000474e-03, 9.719188856281227e-04, -6.640355505128466e-05, 5.794988984105900e+01, 2.096756140572692e+01, 1.501928276229994e+02, 3.026536543543904e+02
369, 5.000000000030276e-05, 8.299999999999542e-03, 9.712233866729041e-04, -7.471864414370148e-05, 5.300589366773677e+01, -1.956172400431043e+02, 1.075272390931262e+02, 3.287276854847490e+02
370, 1.000000000002164e-04, 8.299999999998609e-03, 9.705309869901990e-04, -8.303483353519485e-05, 4.378068631259261e+01, -4.075600168849222e+02, 5.363164182728965e+01, 4.639114596377092e+02
371, 1.500000000001233e-04, 8.299999999997672e-03, 9.698415648020182e-04, -9.135270046900356e-05, 2.995014042156303e+01, -6.141850693276325e+02, -1.132317101582219e+01, 6.445331839758558e+02
372, 2.000000000000492e-04, 8.299999999996739e-03, 9.691549824698588e-04, -9.967281947025759e-05, 1.118972424106997e+01, -8.148171435462336e+02, -8.716298518140214e+01, 8.442019246452386e+02
373, -1.999999999999252e-04, 8.200000000004194e-03, 9.580896253194288e-04, -3.178334408819732e-05, 4.502672873293335e+01, 1.016637695474912e+03, 2.246500850215113e+02, 1.070466493400878e+03
374, -1.499999999998408e-04, 8.200000000003217e-03, 9.573809442020664e-04, -4.009166246929209e-05, 5.404709192339136e+01, 7.633261973813658e+02, 2.268365201033493e+02, 8.419596646215620e+02
375, -9.999999999972244e-05, 8.200000000002240e-03, 9.566760542598976e-04, -4.839870444726911e-05, 5.987553881042292e+01, 5.121604016883975e+02, 2.164666232223879e+02, 6.260932782467493e+02
376, -4.999999999964069e-05, 8.200000000001265e-03, 9.559748921248236e-04, -5.670509102439686e-05, 6.218260428340204e+01, 2.638213089874488e+02, 1.937018052282728e+02, 4.367375924161930e+02
377, 4.102892071228270e-16, 8.200000000000287e-03, 9.552773783989611e-04, -6.501144094018925e-05, 6.063991023630523e+01, 1.899067579359571e+01, 1.587048536167701e+02, 3.201305686368383e+02
378, 5.000000000029257e-05, 8.199999999999309e-03, 9.545834176712075e-04, -7.331837055757644e-05, 5.491907799094024e+01, -2.216506704830179e+02, 1.116411430820659e+02, 3.554515509681027e+02
379, 1.000000000002088e-04, 8.199999999998328e-03, 9.538928985315622e-04, -8.162649376346636e-05, 4.469219473095229e+01, -4.574218967707316e+02, 5.267862407082859e+01, 5.130484486094311e+02
380, 1.500000000001190e-04, 8.199999999997352e-03, 9.532056935762692e-04, -8.993642186679782e-05, 2.963135861372936e+01, -6.876420652228130e+02, -1.801203402406680e+01, 7.181774836493641e+02
381, 2.000000000000473e-04, 8.199999999996377e-03, 9.525216594021732e-04, -9.824876349410195e-05, 9.408136814096963e+00, -9.116299144422740e+02, -1.002573454437197e+02, 9.426119207414145e+02
382, -1.999999999999271e-04, 8.100000000004175e-03, 9.414611867929073e-04, -3.043039376762565e-05, 4.875773239909671e+01, 1.118525402619330e+03, 2.449279557693517e+02, 1.176589003143341e+03
383, -1.499999999998452e-04, 8.100000000003150e-03, 9.407526979537436e-04, -3.872963655286099e-05, 5.784823453072882e+01, 8.389177461631688e+02, 2.451964814126360e+02, 9.222553008740513e+02
384, -9.999999999973005e-05, 8.100000000002133e-03, 9.400483837592509e-04, -4.702756225955826e-05, 6.352713453814845e+01, 5.616615068853216e+02, 2.322337412491174e+02, 6.810784794808601e+02
385, -4.999999999965090e-05, 8.100000000001112e-03, 9.393481756586904e-04, -5.532482624283752e-05, 6.546702092598518e+01, 2.874471070389338e+02, 2.062005445963368e+02, 4.683479657242205e+02
386, 3.974685164331859e-16, 8.100000000000092e-03, 9.386519889587515e-04, -6.362208155558861e-05, 6.333596868563976e+01, 1.695926765009875e+01, 1.672605996182673e+02, 3.377206406744919e+02
387, 5.000000000028236e-05, 8.099999999999071e-03, 9.379597228528975e-04, -7.191997885845585e-05, 5.680334273365575e+01, -2.491166599746757e+02, 1.155796793352296e+02, 3.834340845021521e+02
388, 1.000000000002012e-04, 8.099999999998051e-03, 9.372712604306278e-04, -8.021916633811444e-05, 4.553871425493129e+01, -5.100950702951786e+02, 5.132570109163763e+01, 5.650364704190964e+02
389, 1.500000000001146e-04, 8.099999999997031e-03, 9.365864686778859e-04, -8.852028962469921e-05, 2.921164063067438e+01, -7.652897797096991e+02, -2.533116808065072e+01, 7.961150540143000e+02
390, 2.000000000000454e-04, 8.099999999996011e-03, 9.359051984677216e-04, -9.682399171225201e-05, 7.491368676523678e+00, -1.014013773522730e+03, -1.142184415893905e+02, 1.046735957697046e+03
391, -1.999999999999291e-04, 8.000000000004158e-03, 9.248502004718695e-04, -2.908420989709348e-05, 5.260649206409965e+01, 1.225902870953672e+03, 2.660868386765192e+02, 1.288345146140132e+03
392, -1.499999999998495e-04, 8.000000000003093e-03, 9.241419881674618e-04, -3.737344453500982e-05, 6.173845807974709e+01, 9.186098832153971e+02, 2.642323795695161e+02, 1.006729179504535e+03
393, -9.999999999973761e-05, 8.000000000002028e-03, 9.234383540237210e-04, -4.566132392922877e-05, 6.724553860102304e+01, 6.138846693517132e+02, 2.484673526343493e+02, 7.387546551923435e+02
394, -4.999999999966106e-05, 8.000000000000966e-03, 9.227392242081424e-04, -5.394853798182661e-05, 6.878838683953937e+01, 3.124116028770532e+02, 2.189537729689350e+02, 5.011140490764442e+02
395, 3.846478257435448e-16, 7.999999999999901e-03, 9.220445086979990e-04, -6.223577424072336e-05, 6.603617091438467e+01, 1.488126848909675e+01, 1.758555670952651e+02, 3.554117977160155e+02
396, 5.000000000027218e-05, 7.999999999998840e-03, 9.213541012833463e-04, -7.052371785786324e-05, 5.865741825185256e+01, -2.780161163965101e+02, 1.193382043552457e+02, 4.126929815341664e+02
397, 1.000000000001936e-04, 7.999999999997775e-03, 9.206678795680698e-04, -7.881305152414407e-05, 4.632036198580032e+01, -5.655899814243886e+02, 4.956901196595255e+01, 6.198891966807444e+02
398, 1.500000000001103e-04, 7.999999999996709e-03, 9.199857049625070e-04, -8.710445540335088e-05, 2.869285512857661e+01, -8.471491166130745e+02, -3.328269351827273e+01, 8.783678672490407e+02
399, 2.000000000000435e-04, 7.999999999995648e-03, 9.193074226719289e-04, -9.539860706287174e-05, 5.442549841583570e+00, -1.122001236261722e+03, -1.290455945345477e+02, 1.156607345946781e+03
400, -1.999999999999309e-04, 7.900000000004136e-03, 9.082585245360150e-04, -2.774530023084531e-05, 5.672364637932776e+01, 1.338937157834039e+03, 2.880973743299833e+02, 1.405728237370347e+03
401, -1.499999999998538e-04, 7.900000000003030e-03, 9.075506811859624e-04, -3.602354541416889e-05, 6.583074871258954e+01, 1.002534690573533e+03, 2.839210503611382e+02, 1.095380721964066e+03
402, -9.999999999974523e-05, 7.900000000001926e-03, 9.068478392149496e-04, -4.430039976211874e-05, 7.109455299552522e+01, 6.689144376634206e+02, 2.651497622899583e+02, 7.991284003675639e+02
403, -4.999999999967128e-05, 7.900000000000816e-03, 9.061499196178227e-04, -5.257658783644158e-05, 7.218298758961612e+01, 3.387683133097376e+02, 2.319482460017580e+02, 5.350398968137529e+02
404, 3.718271350539037e-16, 7.899999999999709e-03, 9.054568271142134e-04, -6.085283185532047e-05, 6.876055284177576e+01, 1.278727495175924e+01, 1.844800283416629e+02, 3.731816330763293e+02
405, 5.000000000026201e-05, 7.899999999998603e-03, 9.047684501575584e-04, -6.912985163925560e-05, 6.049253958522362e+01, -3.083361473771607e+02, 1.229100657684301e+02, 4.432404961137867e+02
406, 1.000000000001860e-04, 7.899999999997496e-03, 9.040846609291897e-04, -7.740836456925995e-05, 4.704420575904429e+01, -6.239083068549239e+02, 4.740488788987291e+01, 6.776180102140164e+02
407, 1.500000000001060e-04, 7.899999999996389e-03, 9.034053153292962e-04, -8.568908553208424e-05, 2.808044986054610e+01, -9.332346121775778e+02, -4.186718269735061e+01, 9.649549691303814e+02
408, 2.000000000000416e-04, 7.899999999995286e-03, 9.027302529633392e-04, -9.397272686010735e-05, 3.266050488537289e+00, -1.235619180205233e+03, -1.447358091510945e+02, 1.272254075502864e+03
409, -1.999999999999328e-04, 7.800000000004094e-03, 8.916881223242053e-04, -2.641419056725091e-05, 6.086942505268586e+01, 1.457490054073329e+03, 3.109642207124558e+02, 1.528837521667766e+03
410, -1.499999999998583e-04, 7.800000000002947e-03, 8.909807460593094e-04, -3.468041561860609e-05, 6.995008709839047e+01, 1.090600666526266e+03, 3.042579797005309e+02, 1.188284173980388e+03
411, -9.999999999975283e-05, 7.800000000001799e-03, 8.902788146869081e-04, -4.294521689574459e-05, 7.496368239603200e+01, 7.267011844853544e+02, 2.822766692444450e+02, 8.622541641700436e+02
412, -4.999999999968147e-05, 7.800000000000654e-03, 8.895822439438776e-04, -5.120935375068272e-05, 7.557921661516531e+01, 3.664882826090875e+02, 2.451802497653934e+02, 5.701591919609285e+02
413, 3.590064443642627e-16, 7.799999999999507e-03, 8.888909332761051e-04, -5.947358317557155e-05, 7.146252032026798e+01, 1.065740689771215e+01, 1.931315488800430e+02, 3.910197469560171e+02
414, 5.000000000025183e-05, 7.799999999998360e-03, 8.882047658074540e-04, -6.773865980618871e-05, 6.227838806654570e+01, -3.400946899962466e+02, 1.262945097861070e+02, 4.750845259089989e+02
415, 1.000000000001784e-04, 7.799999999997211e-03, 8.875236083213982e-04, -7.600533587347727e-05, 4.769087056737041e+01, -6.850702330650852e+02, 4.483469494291437e+01, 7.382272241519890e+02
416, 1.500000000001016e-04, 7.799999999996065e-03, 8.868473112462417e-04, -8.427436115163189e-05, 2.736344170432297e+01, -1.023570414286265e+03, -5.108065204767640e+01, 1.055887731589732e+03
417, 2.000000000000397e-04, 7.799999999994919e-03, 8.861757086411018e-04, -9.254648290812952e-05, 9.578517816559327e-01, -1.354896373240058e+03, -1.612825306602014e+02, 1.393696128391648e+03
418, -1.999999999999347e-04, 7.700000000003952e-03, 8.751410517102497e-04, -2.509142352772995e-05, 6.515448652847317e+01, 1.581686803469121e+03, 3.346876930065657e+02, 1.657689257890512e+03
419, -1.499999999998626e-04, 7.700000000002785e-03, 8.744342481999784e-04, -3.334454808685142e-05, 7.415670175662336e+01, 1.182887839989422e+03, 3.252505653414012e+02, 1.285471297970749e+03
420, -9.999999999976044e-05, 7.700000000001617e-03, 8.737333531712403e-04, -4.159621876833660e-05, 7.888044049806612e+01, 7.872948594888301e+02, 2.998525951429345e+02, 9.281687908402394e+02
421, -4.999999999969162e-05, 7.700000000000449e-03, 8.730382772070459e-04, -4.984722966310702e-05, 7.898778038711500e+01, 3.956006116633947e+02, 2.586535297785477e+02, 6.065066189221600e+02
422, 3.461857536746216e-16, 7.699999999999279e-03, 8.723489145411524e-04, -5.809837264991234e-05, 7.414400847702147e+01, 8.504999161060439e+00, 2.018136972872596e+02, 4.089297656016195e+02
423, 5.000000000024164e-05, 7.699999999998113e-03, 8.716651430164677e-04, -6.635043731308136e-05, 6.401214329382289e+01, -3.732916662179871e+02, 1.294954810675887e+02, 5.082429933420099e+02
424, 1.000000000001708e-04, 7.699999999996944e-03, 8.709868240603324e-04, -7.460421088361403e-05, 4.825419105600859e+01, -7.490880096604508e+02, 4.186313802946650e+01, 8.017260594155981e+02
425, 1.500000000000973e-04, 7.699999999995776e-03, 8.703138026676274e-04, -8.286047817739116e-05, 2.653155631616126e+01, -1.118181585386698e+03, -6.091719684809793e+01, 1.151178438068812e+03
426, 2.000000000000377e-04, 7.699999999994609e-03, 8.696459073897183e-04, -9.112002153535531e-05, -1.494232359414369e+00, -1.479868361141231e+03, -1.786779364855703e+02, 1.520951440578680e+03
427, -1.999999999999367e-04, 7.600000000003967e-03, 8.586194703671919e-04, -2.377755692647136e-05, 6.956509216142796e+01, 1.711547359655832e+03, 3.592573338031855e+02, 1.792308314529495e+03
428, -1.499999999998669e-04, 7.600000000002791e-03, 8.579133523625093e-04, -3.201645142766675e-05, 7.845161034527806e+01, 1.279428156278149e+03, 3.468898970763236e+02, 1.386966137530163e+03
429, -9.999999999976803e-05, 7.600000000001615e-03, 8.572136265484169e-04, -4.025386442638936e-05, 8.284270745790617e+01, 8.507165639225022e+02, 3.178753115716114e+02, 9.968997513635999e+02
430, -4.999999999970180e-05, 7.600000000000435e-03, 8.565201984951892e-04, -4.849062496483533e-05, 8.240769870162423e+01, 4.261192775702173e+02, 2.723691781549360e+02, 6.441098712824717e+02
431, 3.333650629849805e-16, 7.599999999999259e-03, 8.558329573116448e-04, -5.672755995423368e-05, 7.680687553848260e+01, 6.337728577720156e+00, 2.105299490969546e+02, 4.269160790371366e+02
432, 5.000000000023146e-05, 7.599999999998081e-03, 8.551517756267908e-04, -6.496549408677678e-05, 6.570024931506367e+01, -4.079247458984646e+02, 1.325183537666580e+02, 5.427385120213187e+02
433, 1.000000000001632e-04, 7.599999999996904e-03, 8.544765095714594e-04, -7.320524975519962e-05, 4.874720176433438e+01, -8.159634602285971e+02, 3.849725400251366e+01, 8.681317199752523e+02
434, 1.500000000000929e-04, 7.599999999995727e-03, 8.538069987639258e-04, -8.144764697948357e-05, 2.560683880643532e+01, -1.217072280977004e+03, -7.136841373681202e+01, 1.250849789808104e+03
435, 2.000000000000358e-04, 7.599999999994550e-03, 8.531430663005121e-04, -8.969350333539232e-05, -4.060681582663534e+00, -1.610543079680948e+03, -1.969113660120162e+02, 1.654050192605559e+03
436, -1.999999999999386e-04, 7.500000000004145e-03, 8.421256362344352e-04, -2.247316511577906e-05, 7.401291663391802e+01, 1.847026449163623e+03, 3.846753427705978e+02, 1.932738333007386e+03
437, -1.499999999998712e-04, 7.500000000002950e-03, 8.414203230008931e-04, -3.069665013865201e-05, 8.276127357754234e+01, 1.380177538730721e+03, 3.691816344161102e+02, 1.492805841978328e+03
438, -9.999999999977570e-05, 7.500000000001755e-03, 8.407219061265876e-04, -3.891862846283616e-05, 8.681007763863037e+01, 9.169444104546405e+02, 3.363499535085787e+02, 1.068479375290312e+03
439, -4.999999999971198e-05, 7.500000000000564e-03, 8.400302861702597e-04, -4.713996427940409e-05, 8.581562312176465e+01, 4.580310063405678e+02, 2.863329589026906e+02, 6.830011309804693e+02
440, 3.205443722953394e-16, 7.499999999999370e-03, 8.393453471455321e-04, -5.536151971127702e-05, 7.943773608109728e+01, 4.144545366771297e+00, 2.192873696745618e+02, 4.449908612130092e+02
441, 5.000000000022125e-05, 7.499999999998177e-03, 8.386669565080165e-04, -6.358415471798625e-05, 6.733515312888784e+01, -4.440070450767697e+02, 1.353722167658979e+02, 5.785960524876115e+02
442, 1.000000000001556e-04, 7.499999999996980e-03, 8.379949651413037e-04, -7.180872701396902e-05, 4.916583535646932e+01, -8.857146029030004e+02, 3.474871773630747e+01, 9.374600404163840e+02
443, 1.500000000000885e-04, 7.499999999995787e-03, 8.373292073399255e-04, -8.003609199187490e-05, 2.458693153665519e+01, -1.320267719703418e+03, -8.241964598075948e+01, 1.354919195057931e+03
444, 2.000000000000339e-04, 7.499999999994593e-03, 8.366695007927775e-04, -8.826710263816358e-05, -6.745879884200619e+00, -1.746955358411541e+03, -2.159668365003637e+02, 1.793013030356527e+03
445, -1.999999999999404e-04, 7.400000000004559e-03, 8.256619032332065e-04, -2.117883667217558e-05, 7.866771758161624e+01, 1.988285406207533e+03, 4.109150257643623e+02, 2.078952705163996e+03
446, -1.499999999998756e-04, 7.400000000003323e-03, 8.249575221143811e-04, -2.938568311013049e-05, 8.721498431646968e+01, 1.485256245957908e+03, 3.921093646063157e+02, 1.602971735402674e+03
447, -9.999999999978329e-05, 7.400000000002085e-03, 8.242605616622359e-04, -3.759099992873014e-05, 9.086186040033323e+01, 9.860532016005527e+02, 3.552657006223234e+02, 1.142900874754469e+03
448, -4.999999999972218e-05, 7.400000000000849e-03, 8.235709175548752e-04, -4.579568670938192e-05, 8.925979345254456e+01, 4.913810389825538e+02, 3.005389436479963e+02, 7.231847085653983e+02
449, 3.077507866600104e-16, 7.399999999999613e-03, 8.228884688175571e-04, -5.400064098269151e-05, 8.206392532042935e+01, 1.948874536756136e+00, 2.280844763544734e+02, 4.631506609923468e+02
450, 5.000000000021107e-05, 7.399999999998373e-03, 8.222130778301662e-04, -6.220675814979581e-05, 6.892972675764261e+01, -4.815323969268339e+02, 1.380596831445176e+02, 6.158331381560124e+02
451, 1.000000000001480e-04, 7.399999999997137e-03, 8.215445903164064e-04, -7.041493141598542e-05, 4.951208574531576e+01, -9.583503509291244e+02, 3.062395942732259e+01, 1.009721743265621e+03
452, 1.500000000000842e-04, 7.399999999995899e-03, 8.208828353256490e-04, -7.862605172274465e-05, 2.346478705127699e+01, -1.427791145166420e+03, -9.406118523907686e+01, 1.463398034395078e+03
453, 2.000000000000320e-04, 7.399999999994663e-03, 8.202276252060065e-04, -8.684100768001593e-05, -9.560147277416405e+00, -1.889139621322009e+03, -2.358319850072454e+02, 1.937856005966279e+03
454, -1.999999999999424e-04, 7.300000000004963e-03, 8.092307308427448e-04, -1.989517567948115e-05, 8.341287472557440e+01, 2.135275367137447e+03, 4.379547648732782e+02, 2.230999146586008e+03
455, -1.499999999998800e-04, 7.300000000003675e-03, 8.085274154913187e-04, -2.808410432750601e-05, 9.174241563332097e+01, 1.594643410928112e+03, 4.156490207187277e+02, 1.717488816661064e+03
456, -9.999999999979085e-05, 7.300000000002383e-03, 8.078320655691986e-04, -3.627148270599470e-05, 9.495754757793682e+01, 1.058035800883073e+03, 3.746047133301828e+02, 1.220178055443560e+03
457, -4.999999999973237e-05, 7.300000000001096e-03, 8.071445718772880e-04, -4.445824599875661e-05, 9.271615050702266e+01, 5.261667518457592e+02, 3.149750424684831e+02, 7.646675966150279e+02
458, 2.949029909160572e-16, 7.299999999999806e-03, 8.064648085084537e-04, -5.264532731324676e-05, 8.467165780008122e+01, -2.516366729404922e-01, 2.369144318087046e+02, 4.813790169306478e+02
459, 5.000000000020089e-05, 7.299999999998517e-03, 8.057926328396581e-04, -6.083365765914447e-05, 7.047716486423113e+01, -5.205053835581432e+02, 1.405786190670047e+02, 6.544537914130747e+02
460, 1.000000000001404e-04, 7.299999999997227e-03, 8.051278855173863e-04, -6.902416589937271e-05, 4.978504480771036e+01, -1.033878671203085e+03, 2.612503342192124e+01, 1.084922632671801e+03
461, 1.500000000000799e-04, 7.299999999995936e-03, 8.044703904356451e-04, -7.721777869748768e-05, 2.224677151915120e+01, -1.539653654072775e+03, -1.062870733599045e+02, 1.576299688294677e+03
462, 2.000000000000302e-04, 7.299999999994650e-03, 8.038199547081726e-04, -8.541542046634427e-05, -1.248737720275766e+01, -2.037110356126356e+03, -2.564966667788581e+02, 2.088602491394694e+03
463, -1.999999999999443e-04, 7.200000000005343e-03, 7.928346802941228e-04, -1.862280242367815e-05, 8.823206004801546e+01, 2.288022241384126e+03, 4.657881118281906e+02, 2.388914209925640e+03
464, -1.499999999998843e-04, 7.200000000003976e-03, 7.921325707982875e-04, -2.679248330168073e-05, 9.631344469084073e+01, 1.708347229106725e+03, 4.397936745876489e+02, 1.836389617408960e+03
465, -9.999999999979844e-05, 7.200000000002606e-03, 7.914389920576693e-04, -3.496059576822049e-05, 9.907419721142656e+01, 1.132899791820388e+03, 3.943590112827566e+02, 1.300335141103333e+03
466, -4.999999999974257e-05, 7.200000000001237e-03, 7.907538300163453e-04, -4.312811063622090e-05, 9.616827912233990e+01, 5.623933557932382e+02, 3.296350047547791e+02, 8.074668832562223e+02
467, 2.821094052807283e-16, 7.199999999999870e-03, 7.900769538819527e-04, -5.129599670439993e-05, 8.724959170759539e+01, -2.455847691395519e+00, 2.457738958406427e+02, 4.996661859326828e+02
468, 5.000000000019069e-05, 7.199999999998501e-03, 7.894082160982165e-04, -5.946522072117907e-05, 7.197014720074239e+01, -5.609303287055799e+02, 1.429292488739039e+02, 6.944624490475225e+02
469, 1.000000000001328e-04, 7.199999999997132e-03, 7.887474523193645e-04, -6.763674734899695e-05, 4.998059291911952e+01, -1.112310733591856e+03, 2.125611311695371e+01, 1.163068534980637e+03
470, 1.500000000000756e-04, 7.199999999995762e-03, 7.880944813815847e-04, -7.581153912235033e-05, 2.093020326441192e+01, -1.655875709362944e+03, -1.190887963893741e+02, 1.693637102310864e+03
471, 2.000000000000282e-04, 7.199999999994395e-03, 7.874491052718600e-04, -8.399055640078936e-05, -1.553227579216876e+01, -2.190901057620183e+03, -2.779470159636224e+02, 2.245272257808443e+03
472, -1.999999999999461e-04, 7.100000000005715e-03, 7.764764136742382e-04, -1.736235143970819e-05, 9.319400322893839e+01, 2.446614226839793e+03, 4.943905022614733e+02, 2.552699477769754e+03
473, -1.499999999998886e-04, 7.100000000004259e-03, 7.757756570703704e-04, -2.551140403206533e-05, 1.009743121838571e+02, 1.826436070174846e+03, 4.645254507412616e+02, 1.959682080296404e+03
474, -9.999999999980600e-05, 7.100000000002804e-03, 7.750840169470129e-04, -3.365887250206540e-05, 1.032350164032285e+02, 1.210689629946182e+03, 4.145159291927257e+02, 1.383383368150567e+03
475, -4.999999999975274e-05, 7.100000000001348e-03, 7.744013745283724e-04, -4.180576337756960e-05, 9.962833917197901e+01, 6.000896678530738e+02, 3.445107437781026e+02, 8.515938890218813e+02
476, 2.692616095367750e-16, 7.099999999999895e-03, 7.737275942517906e-04, -4.995308123714126e-05, 8.980544467900404e+01, -4.646378337184501e+00, 2.546595078972981e+02, 5.180029022322728e+02
477, 5.000000000018050e-05, 7.099999999998441e-03, 7.730625237411743e-04, -5.810182867914717e-05, 7.341647483849101e+01, -6.027984356784891e+02, 1.451131388840682e+02, 7.358654071993294e+02
478, 1.000000000001252e-04, 7.099999999996985e-03, 7.724059937759208e-04, -6.625300628850597e-05, 5.011015012596062e+01, -1.193644176073236e+03, 1.602398836875602e+01, 1.244167149844500e+03
479, 1.500000000000712e-04, 7.099999999995530e-03, 7.717578182597927e-04, -7.440761259950391e-05, 1.953382919783587e+01, -1.776458907741903e+03, -1.324540476941832e+02, 1.815424526148798e+03
480, 2.000000000000263e-04, 7.099999999994075e-03, 7.711177941876199e-04, -8.256664405797978e-05, -1.866703319311600e+01, -2.350516044456225e+03, -3.001651940865096e+02, 2.407886290150078e+03
481, -1.999999999999481e-04, 7.000000000006086e-03, 7.601586978939494e-04, -1.611447205730358e-05, 9.819895066461766e+01, 2.611007075458342e+03, 5.237438114082146e+02, 2.722395083742065e+03
482, -1.499999999998929e-04, 7.000000000004546e-03, 7.594594471283161e-04, -2.424146506336069e-05, 1.056584332756238e+02, 1.948888038313012e+03, 4.898292690744495e+02, 2.087396998238314e+03
483, -9.999999999981362e-05, 7.000000000003004e-03, 7.587699191667956e-04, -3.236686063861913e-05, 1.073962558703840e+02, 1.291396257880435e+03, 4.350650368576954e+02, 1.469347593302467e+03
484, -4.999999999976293e-05, 7.000000000001462e-03, 7.580899905894933e-04, -4.049170109735677e-05, 1.030651418553532e+02, 6.392499166783650e+02, 3.595964544426009e+02, 8.970688674470663e+02
485, 2.564544713742900e-16, 6.999999999999921e-03, 7.574195211582596e-04, -4.861702688099560e-05, 9.231572137247693e+01, -6.830358972049311e+00, 2.635701745630600e+02, 5.363831586883495e+02
486, 5.000000000017032e-05, 6.999999999998381e-03, 7.567583537751020e-04, -5.674387653486017e-05, 7.479651737295862e+01, -6.461218258110223e+02, 1.471341550638008e+02, 7.786636603081528e+02
487, 1.000000000001176e-04, 6.999999999996837e-03, 7.561063144477282e-04, -6.487328667225421e-05, 5.015442785248484e+01, -1.277899301784664e+03, 1.043780404021962e+01, 1.328217790806865e+03
488, 1.500000000000668e-04, 6.999999999995296e-03, 7.554632122544441e-04, -7.300629193989213e-05, 1.803472993901644e+01, -1.901435151589195e+03, -1.463679492887113e+02, 1.941663959703083e+03
489, 2.000000000000244e-04, 6.999999999993755e-03, 7.548288393082493e-04, -8.114392498194784e-05, -2.191945023796734e+01, -2.515999517218282e+03, -3.231308202393307e+02, 2.576449007541718e+03
490, -1.999999999999499e-04, 6.900000000006458e-03, 7.438844012894807e-04, -1.487982768068304e-05, 1.032876230830855e+02, 2.781266119215961e+03, 5.538296997378870e+02, 2.898012796900167e+03
491, -1.499999999998973e-04, 6.900000000004828e-03, 7.431868156730820e-04, -2.298327890031049e-05, 1.103838865216804e+02, 2.075745877223546e+03, 5.156920829979041e+02, 2.219549740907481e+03
492, -9.999999999982122e-05, 6.900000000003202e-03, 7.424995797231167e-04, -3.108512173616825e-05, 1.115644420778668e+02, 1.375047568856714e+03, 4.559975052190112e+02, 1.558244047227103e+03
493, -4.999999999977310e-05, 6.900000000001573e-03, 7.418225655235929e-04, -3.918643433954580e-05, 1.064811362255103e+02, 6.798925566659882e+02, 3.748877485234599e+02, 9.439088690459065e+02
494, 2.436337806846489e-16, 6.899999999999946e-03, 7.411556282844613e-04, -4.728829310591234e-05, 9.478201952168550e+01, -8.996857680178294e+00, 2.725060022573402e+02, 5.548045966089228e+02
495, 5.000000000016015e-05, 6.899999999998319e-03, 7.404986063090791e-04, -5.539177262097489e-05, 7.611355179750797e+01, -6.908956725420458e+02, 1.489969708218269e+02, 8.228630137989466e+02
496, 1.000000000001100e-04, 6.899999999996692e-03, 7.398513209573648e-04, -6.349794562755653e-05, 5.012055722271165e+01, -1.365076118183401e+03, 4.506798843512904e+00, 1.415225379585802e+03
497, 1.500000000000625e-04, 6.899999999995065e-03, 7.392135766084926e-04, -7.160788299089649e-05, 1.644622163580311e+01, -2.030807670558009e+03, -1.608168685582470e+02, 2.072365016099779e+03
498, 2.000000000000225e-04, 6.899999999993437e-03, 7.385851606231932e-04, -7.972265366669017e-05, -2.526699132368250e+01, -2.687356378539279e+03, -3.468248266546801e+02, 2.750976144400767e+03
499, -1.999999999999519e-04, 6.800000000006828e-03, 7.276564958470770e-04, -1.365909518684387e-05, 1.084191172948841e+02, 2.957384189714103e+03, 5.846270924384490e+02, 3.079570965689341e+03
500, -1.499999999999017e-04, 6.800000000005111e-03, 7.269607406015249e-04, -2.173747146860448e-05, 1.151222139245520e+02, 2.207008227602617e+03, 5.420985325144268e+02, 2.356155845872485e+03
501, -9.999999999982880e-05, 6.800000000003401e-03, 7.262759825290773e-04, -2.981423062337843e-05, 1.157226349500559e+02, 1.461647345330893e+03, 4.773036529249406e+02, 1.650087402047452e+03
502, -4.999999999978328e-05, 6.800000000001686e-03, 7.256020893244580e-04, -3.789048677280751e-05, 1.098662219111731e+02, 7.220219869579894e+02, 3.903803040085131e+02, 9.921299348931921e+02
503, 2.308130899950078e-16, 6.799999999999972e-03, 7.249389117715237e-04, -4.596735234504529e-05, 9.719954043887580e+01, -1.114326830523112e+01, 2.814682881184416e+02, 5.732676103460464e+02
504, 5.000000000014997e-05, 6.799999999998255e-03, 7.242862837073346e-04, -5.404593805466488e-05, 7.736771140512559e+01, -7.371205378087774e+02, 1.507086846347966e+02, 8.684719561418960e+02
505, 1.000000000001024e-04, 6.799999999996542e-03, 7.236440219816424e-04, -6.212735286931951e-05, 5.001402253277917e+01, -1.455178979977268e+03, -1.755950135237264e+00, 1.505197099468611e+03
506, 1.500000000000582e-04, 6.799999999994830e-03, 7.230119264157462e-04, -7.021270397569403e-05, 1.478003192797615e+01, -2.164584769412554e+03, -1.757814704169944e+02, 2.207538773994670e+03
507, 2.000000000000206e-04, 6.799999999993115e-03, 7.223897797636517e-04, -7.830309674098378e-05, -2.869458658313579e+01, -2.864601441454082e+03, -3.712219304740123e+02, 2.931482658342606e+03
508, -1.999999999999538e-04, 6.700000000007203e-03, 7.114780560755553e-04, -1.245296425283070e-05, 1.136227670377698e+02, 3.139412475918070e+03, 6.161062390811753e+02, 3.267070699220471e+03
509, -1.499999999999060e-04, 6.700000000005407e-03, 7.107843025500317e-04, -2.050468135322852e-05, 1.198980908959468e+02, 2.342717954594782e+03, 5.690274957775554e+02, 2.497217914051077e+03
510, -9.999999999983645e-05, 6.700000000003612e-03, 7.101022142506414e-04, -2.855477476986912e-05, 1.198841278012484e+02, 1.551225610383350e+03, 4.989692120740019e+02, 1.744883817952167e+03
511, -4.999999999979346e-05, 6.700000000001816e-03, 7.094316546420476e-04, -3.660439463753191e-05, 1.132261699128698e+02, 7.656569629124431e+02, 4.060671914755624e+02, 1.041742864446624e+03
512, 2.179923993053667e-16, 6.700000000000018e-03, 7.087724702460535e-04, -4.465468950089791e-05, 9.956961502949505e+01, -1.326060781400750e+01, 2.904572341753658e+02, 5.917704611807923e+02
513, 5.000000000013978e-05, 6.699999999998221e-03, 7.081244905935411e-04, -5.270680629172498e-05, 7.855764475606293e+01, -7.847966042797796e+02, 1.522765027894829e+02, 9.154960909449178e+02
514, 1.000000000000948e-04, 6.699999999996424e-03, 7.074875281785207e-04, -6.076189029991379e-05, 4.983137716540944e+01, -1.548217396077006e+03, -8.336307937577537e+00, 1.598135744479081e+03
515, 1.500000000000538e-04, 6.699999999994629e-03, 7.068613784136471e-04, -6.882108513810259e-05, 1.302981446323093e+01, -2.302786366676554e+03, -1.912408252936438e+02, 2.347189126991013e+03
516, 2.000000000000187e-04, 6.699999999992831e-03, 7.062458195855600e-04, -7.688553270250198e-05, -3.221028110011062e+01, -3.047763994073283e+03, -3.962949037068229e+02, 3.117974149771337e+03
517, -1.999999999999557e-04, 6.600000000007607e-03, 6.953522617777243e-04, -1.126213707515893e-05, 1.188786105158099e+02, 3.327374574342747e+03, 6.482362219358810e+02, 3.460532783779482e+03
518, -1.499999999999103e-04, 6.600000000005753e-03, 6.946606867428419e-04, -1.928555965817954e-05, 1.246923432081974e+02, 2.482895593876747e+03, 5.964529316235626e+02, 2.642753671841755e+03
519, -9.999999999984406e-05, 6.600000000003900e-03, 6.939814655762400e-04, -2.730735404774277e-05, 1.240320103741695e+02, 1.643796413849973e+03, 5.209775599523850e+02, 1.842648722347244e+03
520, -4.999999999980367e-05, 6.600000000002050e-03, 6.933144576964351e-04, -3.532870645476832e-05, 1.165479518313761e+02, 8.108065173426938e+02, 4.219402096316789e+02, 1.092762150608234e+03
521, 2.051717086157256e-16, 6.600000000000198e-03, 6.926595055343851e-04, -4.335080162136524e-05, 1.018831985758771e+02, -1.534471825114721e+01, 2.994724552974864e+02, 6.103092580087767e+02
522, 5.000000000012958e-05, 6.599999999998345e-03, 6.920164344784636e-04, -5.137482279462416e-05, 7.967837891380356e+01, -8.339245238296207e+02, 1.537073541464992e+02, 9.639367545519158e+02
523, 1.000000000000872e-04, 6.599999999996491e-03, 6.913850528263597e-04, -5.940195169124340e-05, 4.957201630872058e+01, -1.644196708542746e+03, -1.522042444567717e+01, 1.694042248164488e+03
524, 1.500000000000495e-04, 6.599999999994639e-03, 6.907651517385372e-04, -6.743336846130529e-05, 1.120064665059692e+01, -2.445421610432305e+03, -2.071745329380922e+02, 2.491320545892792e+03
525, 2.000000000000168e-04, 6.599999999992787e-03, 6.901565051916639e-04, -7.547025165364208e-05, -3.580133066554328e+01, -3.236856262405480e+03, -4.220168641784222e+02, 3.310460030059346e+03
526, -1.999999999999576e-04, 6.500000000008018e-03, 6.792823978461394e-04, -1.008732880836043e-05, 1.241049191424088e+02, 3.521239802961920e+03, 6.809980163445734e+02, 3.659994345886941e+03
527, -1.499999999999147e-04, 6.500000000006126e-03, 6.785931828558424e-04, -1.808077006364876e-05, 1.294360805716132e+02, 2.627513944775738e+03, 6.243629901768134e+02, 2.792796016474667e+03
528, -9.999999999985163e-05, 6.500000000004228e-03, 6.779170311755112e-04, -2.607258059344753e-05, 1.281202225042451e+02, 1.739344786885605e+03, 5.433213667782767e+02, 1.943408610472116e+03
529, -4.999999999981387e-05, 6.500000000002332e-03, 6.772537983156772e-04, -3.406398273590233e-05, 1.198012355688696e+02, 8.574615982611649e+02, 4.379973300109159e+02, 1.145211532894292e+03
530, 1.923510179260846e-16, 6.500000000000438e-03, 6.766033227525067e-04, -4.205619751415807e-05, 1.041209099483985e+02, -1.740296957080412e+01, 3.085177589485482e+02, 6.288886098824941e+02
531, 5.000000000011942e-05, 6.499999999998543e-03, 6.759654258755093e-04, -5.005044458086839e-05, 8.071832002434132e+01, -8.845130510196278e+02, 1.550112761440180e+02, 1.013797604344481e+03
532, 1.000000000000796e-04, 6.499999999996646e-03, 6.753399119367098e-04, -5.804794217905487e-05, 4.923014932733764e+01, -1.743129250310419e+03, -2.239183180426700e+01, 1.792918791801798e+03
533, 1.500000000000451e-04, 6.499999999994751e-03, 6.747265679996526e-04, -6.604990710498939e-05, 9.290772331128011e+00, -2.592508611250309e+03, -2.235595304977818e+02, 2.639938538509997e+03
534, 2.000000000000149e-04, 6.499999999992855e-03, 6.741251638893653e-04, -7.405755466834821e-05, -3.946729162382377e+01, -3.431904264949393e+03, -4.483580328142723e+02, 3.508949746055461e+03
535, -1.999999999999595e-04, 6.400000000008258e-03, 6.632718506348241e-04, -8.929265590045826e-06, 1.293731571300177e+02, 3.721086007147394e+03, 7.143615285231568e+02, 3.865443153212282e+03
536, -1.499999999999190e-04, 6.400000000006336e-03, 6.625851828551040e-04, -1.689098735658030e-05, 1.341828194599591e+02, 2.776632422321144e+03, 6.527380928387691e+02, 2.947339134716670e+03
537, -9.999999999985919e-05, 6.400000000004416e-03, 6.619123084712441e-04, -2.485107763597004e-05, 1.321813276576041e+02, 1.837910245580796e+03, 5.659884589285095e+02, 2.047164596216069e+03
538, -4.999999999982406e-05, 6.400000000002495e-03, 6.612530792871461e-04, -3.281079502931744e-05, 1.230063370465076e+02, 9.056478866723601e+02, 4.542334961670729e+02, 1.199099692002881e+03
539, 1.795438797635995e-16, 6.400000000000575e-03, 6.606073300148556e-04, -4.077139693292813e-05, 1.062966589509441e+02, -1.942014897967414e+01, 3.175953972646682e+02, 6.475122093451780e+02
540, 5.000000000010922e-05, 6.399999999998654e-03, 6.599748782328057e-04, -4.873413949705798e-05, 8.168930781068048e+01, -9.365551589602811e+02, 1.561979861609579e+02, 1.065088276920103e+03
541, 1.000000000000720e-04, 6.399999999996736e-03, 6.593555243338007e-04, -5.670027758969105e-05, 4.881887289742784e+01, -1.845014630343243e+03, -2.983322944863998e+01, 1.894773185453650e+03
542, 1.500000000000408e-04, 6.399999999994814e-03, 6.587490514713287e-04, -6.467106475979511e-05, 7.317454123560680e+00, -2.744052259772815e+03, -2.403709722139205e+02, 2.793053547585238e+03
543, 2.000000000000129e-04, 6.399999999992895e-03, 6.581552255048226e-04, -7.264775320043464e-05, -4.318529619676173e+01, -3.632918009021160e+03, -4.752859107516613e+02, 3.713457652560179e+03
544, -1.999999999999615e-04, 6.300000000008254e-03, 6.473241124313812e-04, -7.788683998867553e-06, 1.346644107996628e+02, 3.926926618163306e+03, 7.482852349148186e+02, 4.076883101164991e+03
545, -1.499999999999234e-04, 6.300000000006307e-03, 6.466401839396573e-04, -1.571689669986171e-05, 1.389279416416280e+02, 2.930271066138755e+03, 6.815449483884996e+02, 3.106382221390812e+03
546, -9.999999999986685e-05, 6.300000000004357e-03, 6.459707995898478e-04, -2.364347879039793e-05, 1.362138359305754e+02, 1.939510182554618e+03, 5.889565755894045e+02, 2.153916689537367e+03
547, -4.999999999983422e-05, 6.300000000002410e-03, 6.453158076619661e-04, -3.156972524648069e-05, 1.261619026105039e+02, 9.553771458875667e+02, 4.706369256091895e+02, 1.254429903450375e+03
548, 1.667096365468024e-16, 6.300000000000461e-03, 6.446750393081887e-04, -3.949692993451240e-05, 1.084092243818509e+02, -2.139080346239427e+01, 3.267034686778775e+02, 6.661746565376038e+02
549, 5.000000000009904e-05, 6.299999999998514e-03, 6.440483084987794e-04, -4.742638560001296e-05, 8.259040732942296e+01, -9.900523351111206e+02, 1.572750555021524e+02, 1.117812249549624e+03
550, 1.000000000000644e-04, 6.299999999996569e-03, 6.434354119676311e-04, -5.535938383759070e-05, 4.833752350221050e+01, -1.949862057583449e+03, -3.752782564936643e+01, 1.999608690879988e+03
551, 1.500000000000364e-04, 6.299999999994618e-03, 6.428361291558486e-04, -6.329721505812429e-05, 5.280057601863462e+00, -2.900070503459319e+03, -2.575829168944298e+02, 2.950670723574879e+03
552, 2.000000000000111e-04, 6.299999999992672e-03, 6.422502221539442e-04, -7.124116845296310e-05, -4.695565889012346e+01, -3.839924468399930e+03, -5.027661585457026e+02, 3.923991288296835e+03
553, -1.999999999999633e-04, 6.200000000008235e-03, 6.314427821616337e-04, -6.666331313030274e-06, 1.399539610869240e+02, 4.138783894951997e+03, 7.827310407760392e+02, 4.294334915764339e+03
554, -1.499999999999277e-04, 6.200000000006244e-03, 6.307617892984662e-04, -1.455919366948480e-05, 1.436433424687726e+02, 3.088442528716781e+03, 7.107531634681277e+02, 3.269942275460950e+03
555, -9.999999999987445e-05, 6.200000000004252e-03, 6.300961120525958e-04, -2.245042788930235e-05, 1.401958245852142e+02, 2.044153866531777e+03, 6.122046146162701e+02, 2.263677138225063e+03
556, -4.999999999984441e-05, 6.200000000002263e-03, 6.294455953778443e-04, -3.034136535359236e-05, 1.292523691665271e+02, 1.006655476042522e+03, 4.871961815972105e+02, 1.311211916284800e+03
557, 1.538618408028491e-16, 6.200000000000271e-03, 6.288100670634779e-04, -3.823333648477455e-05, 1.104483208143426e+02, -2.331278056004743e+01, 3.358400408208684e+02, 6.848694505634924e+02
558, 5.000000000008886e-05, 6.199999999998280e-03, 6.281893376721517e-04, -4.612767071837368e-05, 8.341586069825166e+01, -1.045007128902867e+03, 1.582498445392424e+02, 1.171968641494773e+03
559, 1.000000000000568e-04, 6.199999999996288e-03, 6.275832004815683e-04, -5.402569647661074e-05, 4.778442377550971e+01, -2.057679501819845e+03, -4.545918775507863e+01, 2.107426034998336e+03
560, 1.500000000000321e-04, 6.199999999994299e-03, 6.269914314249086e-04, -6.192874113943286e-05, 3.180675672835321e+00, -3.060577478033781e+03, -2.751701506242017e+02, 3.112794318868813e+03
561, 2.000000000000091e-04, 6.199999999992307e-03, 6.264137890287247e-04, -6.983813101548746e-05, -5.077107587234445e+01, -4.052943839698352e+03, -5.307643709775716e+02, 4.140559153243385e+03
562, -1.999999999999653e-04, 6.100000000008216e-03, 6.156315647154282e-04, -5.562964980575267e-06, 1.451991032221267e+02, 4.356658159915320e+03, 8.176668247690554e+02, 4.517820661725602e+03
563, -1.499999999999321e-04, 6.100000000006179e-03, 6.149537077071485e-04, -1.341858384312714e-05, 1.482926284384520e+02, 3.251146967877689e+03, 7.403394080638875e+02, 3.438039384344870e+03
564, -9.999999999988203e-05, 6.100000000004146e-03, 6.142919586167821e-04, -2.127257851388509e-05, 1.441010410389361e+02, 2.151843384197864e+03, 6.357168182652111e+02, 2.376462246410465e+03
565, -4.999999999985460e-05, 6.100000000002112e-03, 6.136461592649904e-04, -2.912631684637306e-05, 1.322604641924372e+02, 1.059485446417679e+03, 5.039034790070097e+02, 1.369460124386275e+03
566, 1.410275975860520e-16, 6.100000000000079e-03, 6.130161342691158e-04, -3.698116588713000e-05, 1.124043252366635e+02, -2.518472868993524e+01, 3.450059272340078e+02, 7.035958407117017e+02
567, 5.000000000007866e-05, 6.099999999998046e-03, 6.124016909850526e-04, -4.483849184157373e-05, 8.416313096259739e+01, -1.101420568467049e+03, 1.591321870383395e+02, 1.227558927367524e+03
568, 1.000000000000492e-04, 6.099999999996011e-03, 6.118026194452060e-04, -5.269966004856351e-05, 4.716441528469443e+01, -2.168470934388808e+03, -5.360819968698090e+01, 2.218227977241640e+03
569, 1.500000000000277e-04, 6.099999999993980e-03, 6.112186922940804e-04, -6.056603495589914e-05, 1.032770520029260e+00, -3.225580009664291e+03, -2.931040559078147e+02, 3.279431350647127e+03
570, 2.000000000000072e-04, 6.099999999991945e-03, 6.106496647227906e-04, -6.843898009358542e-05, -5.461018629032640e+01, -4.271987339910684e+03, -5.592423674589454e+02, 4.363172946162379e+03
571, -1.999999999999672e-04, 6.000000000008407e-03, 5.998942695353791e-04, -4.479351161231309e-06, 1.504257344606066e+02, 4.580595553028929e+03, 8.530519642148465e+02, 4.747335593357279e+03
572, -1.499999999999365e-04, 6.000000000006308e-03, 5.992197527100127e-04, -1.229578150575163e-05, 1.528959266217176e+02, 3.418421854018145e+03, 7.702744330413359e+02, 3.610671736849932e+03
573, -9.999999999988962e-05, 6.000000000004209e-03, 5.985621568413644e-04, -2.011059292340302e-05, 1.479406985179793e+02, 2.262605921129242e+03, 6.594734628718996e+02, 2.492274061304367e+03
574, -4.999999999986476e-05, 6.000000000002106e-03, 5.979213208387353e-04, -2.792518982719505e-05, 1.351914581366000e+02, 1.113884941276765e+03, 5.207487915605898e+02, 1.429180936616595e+03
575, 1.282204594235670e-16, 6.000000000000007e-03, 5.972970663765219e-04, -3.574097595378351e-05, 1.142794709422872e+02, -2.699715541643184e+01, 3.542010675987257e+02, 7.223521788626441e+02
576, 5.000000000006848e-05, 5.999999999997906e-03, 5.966891978361703e-04, -4.355935434751595e-05, 8.483333640024102e+01, -1.159291267407224e+03, 1.599322399986686e+02, 1.284585269790623e+03
577, 1.000000000000416e-04, 5.999999999995806e-03, 5.960975022390924e-04, -5.138172734327903e-05, 4.647850590634198e+01, -2.282243360776514e+03, -6.195427515257211e+01, 2.332016050803598e+03
578, 1.500000000000234e-04, 5.999999999993707e-03, 5.955217491770669e-04, -5.920949654586423e-05, -1.162853122074750e+00, -3.395094540933680e+03, -3.113534367667826e+02, 3.450584899966624e+03
579, 2.000000000000053e-04, 5.999999999991606e-03, 5.949616907412120e-04, -6.704406280626831e-05, -5.847208359455058e+01, -4.497081173310997e+03, -5.881584572141379e+02, 4.591837555323959e+03
580, -1.999999999999690e-04, 5.900000000008779e-03, 5.842348131183185e-04, -3.416263895288265e-06, 1.556306181562433e+02, 4.810626368014468e+03, 8.888359903379858e+02, 4.982881004206158e+03
581, -1.499999999999408e-04, 5.900000000006594e-03, 5.835638443704038e-04, -1.119150880762017e-05, 1.574538751749700e+02, 3.590296961551565e+03, 8.005181869318916e+02, 3.787839638384719e+03
582, -9.999999999989724e-05, 5.900000000004408e-03, 5.829106303106667e-04, -1.896514125191092e-05, 1.517136929233645e+02, 2.376464821317796e+03, 6.834472927409693e+02, 2.611114396404749e+03
583, -4.999999999987495e-05, 5.900000000002220e-03, 5.822750071799764e-04, -2.673860225145182e-05, 1.380432461987559e+02, 1.169870400714790e+03, 5.377173488311531e+02, 1.490378161988652e+03
584, 1.153862162067698e-16, 5.900000000000033e-03, 5.816567939689076e-04, -3.451333228971459e-05, 1.160722048651635e+02, -2.874029328634498e+01, 3.634227132708075e+02, 7.411308478975510e+02
585, 5.000000000005830e-05, 5.899999999997847e-03, 5.810557923430063e-04, -4.229077131959202e-05, 8.542692719784407e+01, -1.218615816486767e+03, 1.606588725035807e+02, 1.343046004652474e+03
586, 1.000000000000340e-04, 5.899999999995659e-03, 5.804717865686490e-04, -5.007235875190512e-05, 4.573037796162049e+01, -2.398999469072559e+03, -7.047723215886323e+01, 2.448789943214987e+03
587, 1.500000000000191e-04, 5.899999999993472e-03, 5.799045434390878e-04, -5.785953343756128e-05, -3.397882084927971e+00, -3.569129340003380e+03, -3.298870454017036e+02, 3.626257393082394e+03
588, 2.000000000000034e-04, 5.899999999991286e-03, 5.793538122001431e-04, -6.565373364796903e-05, -6.234164335849005e+01, -4.728238254640416e+03, -6.174703032726695e+02, 4.826558762603719e+03
589, -1.999999999999710e-04, 5.800000000009150e-03, 5.686572203097576e-04, -2.374485113092418e-06, 1.607658651016725e+02, 5.046756176965304e+03, 9.249719844477930e+02, 5.224480262732209e+03
590, -1.499999999999452e-04, 5.800000000006880e-03, 5.679900102248191e-04, -1.010649558647808e-05, 1.619233734034939e+02, 3.766776689698102e+03, 8.310342418484364e+02, 3.969564091496528e+03
591, -9.999999999990477e-05, 5.800000000004606e-03, 5.673414093226347e-04, -1.783690115599708e-05, 1.553873042766613e+02, 2.493425149023893e+03, 7.076137919461046e+02, 2.733000197160560e+03
592, -4.999999999988512e-05, 5.800000000002332e-03, 5.667112514363878e-04, -2.556717943668747e-05, 1.407922967102592e+02, 1.227445757604979e+03, 5.547967421740029e+02, 1.553065821071992e+03
593, 1.025655255171287e-16, 5.800000000000059e-03, 5.660993531319203e-04, -3.329880770490997e-05, 1.177667846516320e+02, -3.041284591372539e+01, 3.726703630724928e+02, 7.599276287679112e+02
594, 5.000000000004811e-05, 5.799999999997786e-03, 5.655055136173966e-04, -4.103326288970705e-05, 8.593492675156841e+01, -1.279396759908944e+03, 1.613232928778729e+02, 1.402936717710061e+03
595, 1.000000000000264e-04, 5.799999999995513e-03, 5.649295146626617e-04, -4.877202155766535e-05, 4.491719100786702e+01, -2.518746581611023e+03, -7.915430602896109e+01, 2.568546973619565e+03
596, 1.500000000000147e-04, 5.799999999993240e-03, 5.643711205213969e-04, -5.651655989409328e-05, -5.669461776746175e+00, -3.747697366659275e+03, -3.486706180101881e+02, 3.806449479550984e+03
597, 2.000000000000015e-04, 5.799999999990969e-03, 5.638300778547876e-04, -6.426835368233737e-05, -6.621143933714393e+01, -4.965478603917377e+03, -6.471320814868902e+02, 5.067340374742184e+03
598, -1.999999999999729e-04, 5.700000000009518e-03, 5.531656227927219e-04, -1.354803860389222e-06, 1.657965379155414e+02, 5.288995543068286e+03, 9.614187825398079e+02, 5.472154269396960e+03
599, -1.499999999999495e-04, 5.700000000007160e-03, 5.525023842823364e-04, -9.041478708837626e-06, 1.662704106974519e+02, 3.947867609801416e+03, 8.617937419086966e+02, 4.155867080483074e+03
600, -9.999999999991239e-05, 5.700000000004800e-03, 5.518586302676894e-04, -1.672655712198756e-05, 1.589340639034274e+02, 2.613492036255494e+03, 7.319548088248774e+02, 2.857951400616278e+03
601, -4.999999999989533e-05, 5.700000000002444e-03, 5.512341924574726e-04, -2.441155332963562e-05, 1.434185596180239e+02, 1.286614593350867e+03, 5.719795178772648e+02, 1.617262949253131e+03
602, 8.974483482748763e-17, 5.700000000000083e-03, 5.506288852552483e-04, -3.209798144938182e-05, 1.193500781685548e+02, -3.201382719360004e+01, 3.819475572280633e+02, 7.787469279145968e+02
603, 5.000000000003792e-05, 5.699999999997726e-03, 5.500425056728644e-04, -3.978735545125789e-05, 8.635068405823273e+01, -1.341636671690360e+03, 1.619402902578358e+02, 1.464256302227526e+03
604, 1.000000000000188e-04, 5.699999999995369e-03, 5.494748332470531e-04, -4.748118913404710e-05, 4.403856972230568e+01, -2.641491624821216e+03, -8.795928068450264e+01, 2.691285894519403e+03
605, 1.500000000000104e-04, 5.699999999993010e-03, 5.489256299578410e-04, -5.518099610319146e-05, -7.971799656896110e+00, -3.930810574579049e+03, -3.676664277693246e+02, 3.991162545232574e+03
606, 1.999999999999996e-04, 5.699999999990651e-03, 5.483946401483145e-04, -6.288828974748944e-05, -7.006954219007798e+01, -5.208819601320152e+03, -6.770945610176144e+02, 5.314186706208946e+03
607, -1.999999999999748e-04, 5.600000000009672e-03, 5.377642580658006e-04, -3.580148096363239e-07, 1.707187992050898e+02, 5.537367354387325e+03, 9.981310285326799e+02, 5.725904200675943e+03
608, -1.499999999999538e-04, 5.600000000007281e-03, 5.371052063236797e-04, -7.997200678380926e-06, 1.704932543057872e+02, 4.133589932316996e+03, 8.927652574500646e+02, 4.346752178224910e+03
609, -9.999999999991998e-05, 5.600000000004890e-03, 5.364665351901058e-04, -1.563479921961642e-05, 1.623516277661834e+02, 2.736681387276924e+03, 7.564507443011523e+02, 2.985974652423844e+03
610, -4.999999999990553e-05, 5.600000000002499e-03, 5.358480745380765e-04, -2.327236137259184e-05, 1.459196211525004e+02, 1.347387860325063e+03, 5.892576720470001e+02, 1.682980791930026e+03
611, 7.692414413784654e-17, 5.600000000000110e-03, 5.352496368923063e-04, -3.091143816202775e-05, 1.208208370682947e+02, -3.353749932126811e+01, 3.912580704895073e+02, 7.975951397204240e+02
612, 5.000000000002774e-05, 5.599999999997718e-03, 5.346710173504472e-04, -3.855358066593487e-05, 8.667517854558241e+01, -1.405335368391508e+03, 1.625256411467957e+02, 1.527008123191303e+03
613, 1.000000000000112e-04, 5.599999999995330e-03, 5.341119934987968e-04, -4.620033999076421e-05, 4.309857233297026e+01, -2.767240371613457e+03, -9.686422197214435e+01, 2.817008287147021e+03
614, 1.500000000000060e-04, 5.599999999992939e-03, 5.335723253267361e-04, -5.385326724830183e-05, -1.029706072286626e+01, -4.118481101485454e+03, -3.868343346729259e+02, 4.180399421431379e+03
615, 1.999999999999977e-04, 5.599999999990549e-03, 5.330517551411431e-04, -6.151391353107314e-05, -7.390380527451771e+01, -5.458280150671978e+03, -7.073055730089291e+02, 5.567102776428119e+03
616, -1.999999999999767e-04, 5.500000000009695e-03, 5.224574704510010e-04, 6.150830866162793e-07, 1.755533819802174e+02, 5.791915510668986e+03, 1.035050911473275e+03, 5.985720100199813e+03
617, -1.499999999999582e-04, 5.500000000007305e-03, 5.218028227113586e-04, -6.974408285321634e-06, 1.746097648146821e+02, 4.323980156186125e+03, 9.239054627999346e+02, 4.542210900162634e+03
618, -9.999999999992762e-05, 5.500000000004914e-03, 5.211694724162587e-04, -1.456232184828962e-05, 1.656514724478442e+02, 2.863020138987613e+03, 7.810731045153242e+02, 3.117065687729304e+03
619, -4.999999999991570e-05, 5.500000000002524e-03, 5.205572479085517e-04, -2.215024534803802e-05, 1.483025970122675e+02, 1.409783875813305e+03, 6.066171757432991e+02, 1.750220731334367e+03
620, 6.410345344820545e-17, 5.500000000000133e-03, 5.199659601482981e-04, -2.973976679372770e-05, 1.221842259515370e+02, -3.497328416136611e+01, 4.006019630700538e+02, 8.164718086053005e+02
621, 5.000000000001756e-05, 5.499999999997745e-03, 5.193954026316515e-04, -3.733247444629117e-05, 8.691368081375498e+01, -1.470489470598346e+03, 1.630932179961611e+02, 1.591195200801497e+03
622, 1.000000000000036e-04, 5.499999999995354e-03, 5.188453513042187e-04, -4.492995680065757e-05, 4.210422292082990e+01, -2.895996404592512e+03, -1.058416589128585e+02, 2.945716402581891e+03
623, 1.500000000000017e-04, 5.499999999992964e-03, 5.183155644720096e-04, -5.253380256554938e-05, -1.263507291747504e+01, -4.310719443826220e+03, -4.061334750814723e+02, 4.374163560931053e+03
624, 1.999999999999958e-04, 5.499999999990576e-03, 5.178057827109048e-04, -6.014560064137488e-05, -7.769939815391314e+01, -5.713877601921651e+03, -7.377110974499001e+02, 5.826094351950495e+03
625, -1.999999999999786e-04, 5.400000000009719e-03, 5.072497134794044e-04, 1.563687022888608e-06, 1.802685030658559e+02, 6.052652540775266e+03, 1.072117379226003e+03, 6.251610751294262e+03
626, -1.499999999999625e-04, 5.400000000007331e-03, 5.065996881221595e-04, -5.973852011408781e-06, 1.785952424436785e+02, 4.519050472788856e+03, 9.551667280930726e+02, 4.742248993932617e+03
627, -9.999999999993521e-05, 5.400000000004939e-03, 5.059718978061087e-04, -1.350982300741490e-05, 1.688160453941402e+02, 2.992519254161419e+03, 8.057896298632286e+02, 3.251228617243502e+03
628, -4.999999999992589e-05, 5.400000000002551e-03, 5.053661696474895e-04, -2.104585056407978e-05, 1.505555867076439e+02, 1.473810831899680e+03, 6.240411913299980e+02, 1.818987102162763e+03
629, 5.128276275856436e-17, 5.400000000000158e-03, 5.047823133584113e-04, -2.858355974176844e-05, 1.234331452418193e+02, -3.631693962429119e+01, 4.099775378725158e+02, 8.353720224275949e+02
630, 5.000000000000737e-05, 5.399999999997771e-03, 5.042201211542944e-04, -3.612457606011098e-05, 8.706360075707914e+01, -1.537099577834479e+03, 1.636561494639429e+02, 1.656816034362926e+03
631, 9.999999999999598e-05, 5.399999999995381e-03, 5.036793676616773e-04, -4.367052548615372e-05, 4.105751594613673e+01, -3.027765882149386e+03, -1.148639063525304e+02, 3.077409936395996e+03
632, 1.499999999999973e-04, 5.399999999992991e-03, 5.031598098248706e-04, -5.122303441826114e-05, -1.497889360911341e+01, -4.507537917650788e+03, -4.255218095368197e+02, 4.572456869787208e+03
633, 1.999999999999938e-04, 5.399999999990601e-03, 5.026611868114355e-04, -5.878372966797307e-05, -8.144385407122786e+01, -5.975631048368099e+03, -7.682548549853350e+02, 6.091166125648469e+03
634, -1.999999999999805e-04, 5.300000000009745e-03, 4.921455495493894e-04, 2.486990957655757e-06, 1.848335765260618e+02, 6.319594829958150e+03, 1.109272250797929e+03, 6.523590678619624e+03
635, -1.499999999999669e-04, 5.300000000007331e-03, 4.915003654788968e-04, -4.996285401508461e-06, 1.824201629687753e+02, 4.718812515355592e+03, 9.865050989305804e+02, 4.946880311434444e+03
636, -9.999999999994280e-05, 5.300000000004915e-03, 4.908783748429132e-04, -1.247800358412413e-05, 1.718219644337483e+02, 3.125188222218250e+03, 8.305705872952390e+02, 3.388474915731245e+03
637, -4.999999999993605e-05, 5.300000000002501e-03, 4.902794038525169e-04, -1.995982506014514e-05, 1.526616209787562e+02, 1.539475509907553e+03, 6.415146215881048e+02, 1.889290025742774e+03
638, 3.846207206892327e-17, 5.300000000000087e-03, 4.897032612943068e-04, -2.744341199241478e-05, 1.245566259555404e+02, -3.756533372510785e+01, 4.193845190810698e+02, 8.542932922539743e+02
639, 4.999999999999720e-05, 5.299999999997673e-03, 4.891497384298998e-04, -3.493042722738156e-05, 8.711966074352478e+01, -1.605167100236482e+03, 1.642290209435408e+02, 1.723867502642966e+03
640, 9.999999999998842e-05, 5.299999999995259e-03, 4.886186088970463e-04, -4.242253428448286e-05, 3.995875786152811e+01, -3.162555559762832e+03, -1.239015527249438e+02, 3.212087223856107e+03
641, 1.499999999999930e-04, 5.299999999992844e-03, 4.881096286109524e-04, -4.992139734224361e-05, -1.732264460036566e+01, -4.708949428656639e+03, -4.449551426634285e+02, 4.775280326515370e+03
642, 1.999999999999920e-04, 5.299999999990430e-03, 4.876225356655995e-04, -5.742868122189126e-05, -8.512560850071765e+01, -6.243560292547890e+03, -7.988778276872906e+02, 6.362321973301622e+03
643, -1.999999999999824e-04, 5.200000000009989e-03, 4.771496493444830e-04, 3.384186913161385e-06, 1.892335498539264e+02, 6.592766557802690e+03, 1.146455241222560e+03, 6.801666962178908e+03
644, -1.499999999999712e-04, 5.200000000007502e-03, 4.765095256033056e-04, -4.042463902817600e-06, 1.860707187707838e+02, 4.923287137061067e+03, 1.017876194416691e+03, 5.156113573454317e+03
645, -9.999999999995044e-05, 5.200000000005017e-03, 4.758935744710796e-04, -1.146756626486462e-05, 1.746564731348285e+02, 3.261043093003845e+03, 8.553866229735443e+02, 3.528813889447109e+03
646, -4.999999999994625e-05, 5.200000000002529e-03, 4.753016216024299e-04, -1.889281855188336e-05, 1.546104903582955e+02, 1.606789086299211e+03, 6.590231545252017e+02, 1.961139655228643e+03
647, 2.564138137928218e-17, 5.200000000000042e-03, 4.747334752033332e-04, -2.631992007686488e-05, 1.255481169494268e+02, -3.871235210606795e+01, 4.288237956620856e+02, 8.732358745485000e+02
648, 4.999999999998700e-05, 5.199999999997556e-03, 4.741889259270046e-04, -3.375057107632340e-05, 8.707981716611278e+01, -1.674691260132768e+03, 1.648280327091196e+02, 1.792347748143170e+03
649, 9.999999999998081e-05, 5.199999999995069e-03, 4.736677467694134e-04, -4.118647269876619e-05, 3.881112490378206e+01, -3.300370337004928e+03, -1.329230341077785e+02, 3.349747299057118e+03
650, 1.499999999999887e-04, 5.199999999992581e-03, 4.731696929654734e-04, -4.862932699091911e-05, -1.965728272163119e+01, -4.914964913937767e+03, -4.643865452866701e+02, 4.982635473122240e+03
651, 1.999999999999900e-04, 5.199999999990096e-03, 4.726945018857069e-04, -5.608083688178801e-05, -8.872948044523241e+01, -6.517682910885409e+03, -8.295177149431397e+02, 6.639566308757408e+03
652, -1.999999999999843e-04, 5.100000000010360e-03, 4.622667922650957e-04, 4.254466273591343e-06, 1.934568297009317e+02, 6.872193683669802e+03, 1.183600908500128e+03, 7.085842956696919e+03
653, -1.499999999999755e-04, 5.100000000007788e-03, 4.616319475343904e-04, -3.113143580678396e-06, 1.895374155720656e+02, 5.132497541154209e+03, 1.049231282273462e+03, 5.369953439081189e+03
654, -9.999999999995803e-05, 5.100000000005215e-03, 4.610222753427998e-04, -1.047921431113474e-05, 1.773106280278265e+02, 3.400102022060110e+03, 8.802057061309932e+02, 3.672251722018902e+03
655, -4.999999999995644e-05, 5.100000000002642e-03, 4.604376011582073e-04, -1.784548125249345e-05, 1.563946636243086e+02, 1.675764164148490e+03, 6.765512349986043e+02, 2.034544168465174e+03
656, 1.282069068964109e-17, 5.100000000000066e-03, 4.598777329748564e-04, -2.521368092216579e-05, 1.264027175278688e+02, -3.975104676827084e+01, 4.382961645964813e+02, 8.922001933365182e+02
657, 4.999999999997683e-05, 5.099999999997495e-03, 4.593424612039308e-04, -3.258555101201108e-05, 8.694278493189114e+01, -1.745670990411964e+03, 1.654702910831539e+02, 1.862255331179007e+03
658, 9.999999999997324e-05, 5.099999999994921e-03, 4.588315585654698e-04, -3.996283037602745e-05, 3.761775277090419e+01, -3.441215358975737e+03, -1.418949483430230e+02, 3.490389165243024e+03
659, 1.499999999999843e-04, 5.099999999992348e-03, 4.583447799802956e-04, -4.734725901699376e-05, -2.197457490722917e+01, -5.125596136488496e+03, -4.837663378493651e+02, 5.194523320034474e+03
660, 1.999999999999881e-04, 5.099999999989774e-03, 4.578818624618288e-04, -5.474057807083452e-05, -9.224150058354172e+01, -6.798017614531725e+03, -8.601087273877354e+02, 6.922902670275827e+03
661, -1.999999999999862e-04, 5.000000000010596e-03, 4.475018671686879e-04, 5.097020841420790e-06, 1.974837965883830e+02, 7.157899096333595e+03, 1.220640334388971e+03, 7.376125842790109e+03
662, -1.499999999999799e-04, 5.000000000007969e-03, 4.468725190928921e-04, -2.209080009582126e-06, 1.928020831338084e+02, 5.346462055143546e+03, 1.080518805998910e+03, 5.588407167303099e+03
663, -9.999999999996564e-05, 5.000000000005344e-03, 4.462693642480370e-04, -9.513650417781464e-06, 1.797694200355115e+02, 3.542379229145888e+03, 9.049938406037652e+02, 3.818795639262245e+03
664, -4.999999999996662e-05, 5.000000000002718e-03, 4.456922282995890e-04, -1.681846271997428e-05, 1.580028675168843e+02, 1.746410752750511e+03, 6.940822241235670e+02, 2.109511826288166e+03
665, 0.000000000000000e+00, 5.000000000000093e-03, 4.451409194097389e-04, -2.412529069916029e-05, 1.271130823810016e+02, -4.067619933136388e+01, 4.478021835305082e+02, 9.111862736873923e+02
666, 4.999999999996663e-05, 4.999999999997467e-03, 4.446152281273114e-04, -3.143590957042863e-05, 8.670543549957938e+01, -1.818106486819176e+03, 1.661734654960120e+02, 1.933588100384229e+03
667, 9.999999999996559e-05, 4.999999999994841e-03, 4.441149272767750e-04, -3.875209597039144e-05, 3.638006254406162e+01, -3.585096879365285e+03, -1.507825688312857e+02, 3.634011113499038e+03
668, 1.499999999999799e-04, 4.999999999992216e-03, 4.436397718460393e-04, -4.607562794567380e-05, -2.426817513303479e+01, -5.340856040563531e+03, -5.030428042641973e+02, 5.410943982571871e+03
669, 1.999999999999863e-04, 4.999999999989590e-03, 4.431894988732719e-04, -5.340828494011322e-05, -9.564976413156000e+01, -7.084584554145698e+03, -8.905822178266365e+02, 7.212333619980845e+03
670, -1.999999999999881e-04, 4.900000000010410e-03, 4.328598725662712e-04, 5.911043906023554e-06, 2.012821227901433e+02, 7.449893199715119e+03, 1.257504846574272e+03, 7.672524767060097e+03
671, -1.499999999999843e-04, 4.900000000007836e-03, 4.322362370908500e-04, -1.331027153450642e-06, 1.958381313665199e+02, 5.565189841178150e+03, 1.111687503870143e+03, 5.811482961232977e+03
672, -9.999999999997321e-05, 4.900000000005265e-03, 4.316398363385411e-04, -8.571575543846959e-06, 1.820135917170704e+02, 3.687883828521115e+03, 9.297169214960336e+02, 3.968453141183941e+03
673, -4.999999999997681e-05, 4.900000000002690e-03, 4.310704965494583e-04, -1.581241066544187e-05, 1.594217877733873e+02, 1.818736152525209e+03, 7.115993465990158e+02, 2.186050932936451e+03
674, -1.282069068964109e-17, 4.900000000000120e-03, 4.305280264379394e-04, -2.305534362276856e-05, 1.276711798593883e+02, -4.148378732423635e+01, 4.573426145661530e+02, 9.301948566379585e+02
675, 4.999999999995644e-05, 4.899999999997547e-03, 4.300122170811188e-04, -3.030218721806772e-05, 8.636492806265477e+01, -1.891998096442141e+03, 1.669559673784185e+02, 2.006344296700049e+03
676, 9.999999999995801e-05, 4.899999999994974e-03, 4.295228418029360e-04, -3.755475594495853e-05, 3.510067797258364e+01, -3.732020442791492e+03, -1.595497948438570e+02, 3.780611866701692e+03
677, 1.499999999999756e-04, 4.899999999992402e-03, 4.290596560564013e-04, -4.481486598022716e-05, -2.652947778188150e+01, -5.560756029633014e+03, -5.221621475853160e+02, 5.631898148998942e+03
678, 1.999999999999843e-04, 4.899999999989829e-03, 4.286223973051280e-04, -5.208433517306843e-05, -9.893895151408037e+01, -7.377401515790297e+03, -9.208666957366715e+02, 7.507862491071492e+03
679, -1.999999999999901e-04, 4.800000000010084e-03, 4.183459162256229e-04, 6.695731810262100e-06, 2.048539104374818e+02, 7.748209802186940e+03, 1.294119394620495e+03, 7.975035933443995e+03
680, -1.499999999999886e-04, 4.800000000007600e-03, 4.177282072264816e-04, -4.797358679891459e-07, 1.986468535777821e+02, 5.788709975050204e+03, 1.142681110372293e+03, 6.039179263944117e+03
681, -9.999999999998080e-05, 4.800000000005114e-03, 4.171387951773981e-04, -7.653687502054794e-06, 1.840415998225762e+02, 3.836638158730231e+03, 9.543370748031527e+02, 4.121225379849954e+03
682, -4.999999999998701e-05, 4.800000000002629e-03, 4.165775072981394e-04, -1.482796959890423e-05, 1.606489069373588e+02, 1.892756037209019e+03, 7.290834242452077e+02, 2.264165556838633e+03
683, -2.564138137928218e-17, 4.800000000000143e-03, 4.160441532708872e-04, -2.200443063310435e-05, 1.280754707205977e+02, -4.216456309763896e+01, 4.669170733825973e+02, 9.492248852506519e+02
684, 4.999999999994627e-05, 4.799999999997659e-03, 4.155385251196482e-04, -2.918492105407830e-05, 8.592224163264223e+01, -1.967343001571294e+03, 1.678362202493166e+02, 2.080522565669410e+03
685, 9.999999999995042e-05, 4.799999999995174e-03, 4.150603970875923e-04, -3.637129328506124e-05, 3.378432053923871e+01, -3.881989862218127e+03, -1.681594197391196e+02, 3.930190556720769e+03
686, 1.499999999999713e-04, 4.799999999992687e-03, 4.146095255135707e-04, -4.356540171803739e-05, -2.874907910642480e+01, -5.785306951038789e+03, -5.410684310640017e+02, 5.857386680191322e+03
687, 1.999999999999824e-04, 4.799999999990203e-03, 4.141856487079306e-04, -5.076910270570538e-05, -1.020945717867009e+02, -7.676487216611578e+03, -9.508875020719560e+02, 7.809492435770956e+03
688, -1.999999999999919e-04, 4.700000000009747e-03, 4.039652166675042e-04, 7.450285329786157e-06, 2.081937665671297e+02, 8.052884070767668e+03, 1.330400411431095e+03, 8.283660240966072e+03
689, -1.499999999999929e-04, 4.700000000007334e-03, 4.033536451638401e-04, 3.440474138259069e-07, 2.012212019175374e+02, 6.017052139615103e+03, 1.173435729002828e+03, 6.271498635595940e+03
690, -9.999999999998839e-05, 4.700000000004922e-03, 4.027714535181574e-04, -6.760679666688700e-06, 1.858446885779214e+02, 3.988664114216278e+03, 9.788115059071449e+02, 4.277116252850428e+03
691, -4.999999999999717e-05, 4.700000000002511e-03, 4.022184703752290e-04, -1.386577954412348e-05, 1.616763282916444e+02, 1.968485549154138e+03, 7.465124349435213e+02, 2.343860666228893e+03
692, -3.846207206892327e-17, 4.700000000000096e-03, 4.016945068290313e-04, -2.097313810937500e-05, 1.283206052474476e+02, -4.270967849008150e+01, 4.765239453728527e+02, 9.682725029712337e+02
693, 4.999999999993608e-05, 4.699999999997685e-03, 4.011993562921177e-04, -2.808464352089867e-05, 8.537582971046390e+01, -2.044138531741054e+03, 1.688327403083779e+02, 2.156119058036547e+03
694, 9.999999999994281e-05, 4.699999999995272e-03, 4.007327943672672e-04, -3.520218620583652e-05, 3.243425655899250e+01, -4.035008760842884e+03, -1.765729850521516e+02, 4.082744760086306e+03
695, 1.499999999999669e-04, 4.699999999992859e-03, 4.002945787193839e-04, -4.232765885709642e-05, -3.091787152259587e+01, -6.014518850509849e+03, -5.597033703816044e+02, 6.087409311604019e+03
696, 1.999999999999805e-04, 4.699999999990447e-03, 3.998844489472083e-04, -4.946295642849464e-05, -1.051005494803165e+02, -7.981858182671152e+03, -9.805667309543404e+02, 8.117225835681055e+03
697, -1.999999999999939e-04, 4.600000000009572e-03, 3.897231041803101e-04, 8.173910409787017e-06, 2.112394614294109e+02, 8.363909972895268e+03, 1.366268493411543e+03, 8.598418159922274e+03
698, -1.499999999999973e-04, 4.600000000007185e-03, 3.891178772128767e-04, 1.139581586310115e-06, 2.035091412649815e+02, 6.250212678897143e+03, 1.203891659502864e+03, 6.508459432407607e+03
699, -9.999999999999598e-05, 4.600000000004799e-03, 3.885431337844720e-04, -5.893239918988038e-06, 1.873851137384177e+02, 4.143962210855409e+03, 1.003100475220960e+03, 4.436140730295284e+03
700, -5.000000000000737e-05, 4.600000000002412e-03, 3.879987044020508e-04, -1.292647487758406e-05, 1.624775615273824e+02, 2.045926203283430e+03, 7.638666897804159e+02, 2.425149081016888e+03
701, -5.126921023140829e-17, 4.600000000000025e-03, 3.874844020082828e-04, -1.996204663869846e-05, 1.283890978825806e+02, -4.311910521888285e+01, 4.861636796897313e+02, 9.873376107132411e+02
702, 4.999999999992590e-05, 4.599999999997638e-03, 3.870000218450384e-04, -2.700188112836377e-05, 8.471575355528967e+01, -2.122388077194700e+03, 1.699661737587643e+02, 2.233128146927546e+03
703, 9.999999999993524e-05, 4.599999999995251e-03, 3.865453413195598e-04, -3.404790684921574e-05, 3.104718068252555e+01, -4.191085524181512e+03, -1.847496233807615e+02, 4.238270197951029e+03
704, 1.499999999999625e-04, 4.599999999992864e-03, 3.861201198708752e-04, -4.110205487911812e-05, -3.303331378468818e+01, -6.248406662568926e+03, -5.780058682351180e+02, 6.321964014421018e+03
705, 1.999999999999786e-04, 4.599999999990477e-03, 3.857240988360534e-04, -4.816625886674789e-05, -1.079485113818417e+02, -8.293536846829516e+03, -1.009822965789508e+03, 8.431063164652529e+03
706, -1.999999999999958e-04, 4.500000000009600e-03, 3.756250188455500e-04, 8.865819867409263e-06, 2.139821102170364e+02, 8.681314980609815e+03, 1.401643933819561e+03, 8.919313247492022e+03
707, -1.500000000000016e-04, 4.500000000007212e-03, 3.750263391300510e-04, 1.906132479449589e-06, 2.055003399030089e+02, 6.488213400029939e+03, 1.233990746429287e+03, 6.750067854842789e+03
708, -1.000000000000036e-04, 4.500000000004825e-03, 3.744592673772185e-04, -5.052049101011046e-06, 1.886524465134065e+02, 4.302549260485253e+03, 1.027165509449595e+03, 4.598306528627588e+03
709, -5.000000000001756e-05, 4.500000000002437e-03, 3.739236364199856e-04, -1.201068282307037e-05, 1.630441242949122e+02, 2.125090214431070e+03, 7.811276888571072e+02, 2.508040415347322e+03
710, -6.409667718462742e-17, 4.500000000000053e-03, 3.734192615096828e-04, -1.897172953768353e-05, 1.282758720033069e+02, -4.338528699121161e+01, 4.958381184953024e+02, 1.006424022228796e+03
711, 4.999999999991571e-05, 4.499999999997665e-03, 3.729459401802947e-04, -2.593715299283005e-05, 8.394162900336050e+01, -2.202088904786185e+03, 1.712589988275435e+02, 2.311548005154936e+03
712, 9.999999999992765e-05, 4.499999999995279e-03, 3.725034521103276e-04, -3.290891983406038e-05, 2.962870201151804e+01, -4.350222375844378e+03, -1.926460161020388e+02, 4.396765335365921e+03
713, 1.499999999999582e-04, 4.499999999992891e-03, 3.720915589839184e-04, -3.988899960452157e-05, -3.508223145092722e+01, -6.486977448493466e+03, -5.959116759442945e+02, 6.561051348206577e+03
714, 1.999999999999767e-04, 4.499999999990504e-03, 3.717100043513816e-04, -4.687936474421051e-05, -1.106171357458957e+02, -8.611535894986559e+03, -1.038570876283201e+03, 8.751007805473862e+03
715, -1.999999999999977e-04, 4.400000000009622e-03, 3.616765112695047e-04, 9.525235424232434e-06, 2.164278919304980e+02, 9.005135237553292e+03, 1.436436558810195e+03, 9.246338559502887e+03
716, -1.500000000000059e-04, 4.400000000007235e-03, 3.610845766363066e-04, 2.642974769791760e-06, 2.072001717142238e+02, 6.731086164399077e+03, 1.263665279392205e+03, 6.996319618121741e+03
717, -1.000000000000112e-04, 4.400000000004850e-03, 3.605253950526917e-04, -4.237779230068450e-06, 1.896476172624809e+02, 4.464449153434874e+03, 1.050961691238887e+03, 4.763613132850805e+03
718, -5.000000000002772e-05, 4.400000000002464e-03, 3.599988021680058e-04, -1.111902176289376e-05, 1.633747082761245e+02, 2.205994142503564e+03, 7.982729755479281e+02, 2.592537970222269e+03
719, -7.691736787426851e-17, 4.400000000000076e-03, 3.595046160349721e-04, -1.800275123107885e-05, 1.279795040897131e+02, -4.349859042918752e+01, 5.055471363304168e+02, 1.025532235040602e+03
720, 4.999999999990552e-05, 4.399999999997690e-03, 3.590426369718948e-04, -2.489096926088208e-05, 8.305349994247888e+01, -2.283238333439727e+03, 1.727333788119810e+02, 2.391377076363018e+03
721, 9.999999999991999e-05, 4.399999999995304e-03, 3.586126474207518e-04, -3.178568070771607e-05, 2.818140171442394e+01, -4.512423986806189e+03, -2.002177088764045e+02, 4.558228363964809e+03
722, 1.499999999999539e-04, 4.399999999992917e-03, 3.582144118033774e-04, -3.868889365987048e-05, -3.705894869012900e+01, -6.730244036172979e+03, -6.133539802471690e+02, 6.804670384055570e+03
723, 1.999999999999748e-04, 4.399999999990530e-03, 3.578476763767709e-04, -4.560261943903462e-05, -1.130968252591418e+02, -8.935876653658090e+03, -1.066721616169141e+03, 9.077060313009568e+03
724, -1.999999999999997e-04, 4.300000000009517e-03, 3.478832443495303e-04, 1.015138892590646e-05, 2.185462956227134e+02, 9.335383229094372e+03, 1.470551755765836e+03, 9.579499232060976e+03
725, -1.500000000000103e-04, 4.300000000007164e-03, 3.472982466840488e-04, 3.349393360954160e-06, 2.085835065520873e+02, 6.978842765526272e+03, 1.292843119839651e+03, 7.247219036554130e+03
726, -1.000000000000188e-04, 4.300000000004808e-03, 3.467471678314538e-04, -3.451092044024113e-06, 1.903521949978958e+02, 4.629673397560299e+03, 1.074440453090523e+03, 4.932064667912371e+03
727, -5.000000000003792e-05, 4.300000000002456e-03, 3.462298467483605e-04, -1.025209974577469e-05, 1.634561558287413e+02, 2.288647258549910e+03, 8.152776028849407e+02, 2.678646580299178e+03
728, -8.973805856390960e-17, 4.300000000000101e-03, 3.457461047912986e-04, -1.705566574401004e-05, 1.274916560666563e+02, -4.345330482227700e+01, 5.152892571922201e+02, 1.044659874774636e+03
729, 4.999999999989533e-05, 4.299999999997747e-03, 3.452957455701023e-04, -2.386382959927935e-05, 8.204791939810627e+01, -2.365835204519251e+03, 1.744111553879109e+02, 2.472611735160695e+03
730, 9.999999999991241e-05, 4.299999999995395e-03, 3.448785547998444e-04, -3.067863444463750e-05, 2.670707645141135e+01, -4.677694558306590e+03, -2.074196815659510e+02, 4.722656714002981e+03
731, 1.499999999999495e-04, 4.299999999993039e-03, 3.444943001514835e-04, -3.750212699336690e-05, -3.895591750405856e+01, -6.978216673418463e+03, -6.302647628808780e+02, 7.052820324089570e+03
732, 1.999999999999729e-04, 4.299999999990687e-03, 3.441427311011913e-04, -4.433635754496392e-05, -1.153730871257941e+02, -9.266575805017066e+03, -1.094183941103090e+03, 9.409222346815499e+03
733, -2.000000000000014e-04, 4.200000000009198e-03, 3.342509930333276e-04, 1.074352375978749e-05, 2.203129750958641e+02, 9.672076542753668e+03, 1.503894334953479e+03, 9.918801702913717e+03
734, -1.500000000000147e-04, 4.200000000006931e-03, 3.336731174424032e-04, 4.024684802279474e-06, 2.096277506277335e+02, 7.231498132447075e+03, 1.321452456406367e+03, 7.502773489666431e+03
735, -1.000000000000264e-04, 4.200000000004664e-03, 3.331303470962544e-04, -2.692637530266578e-06, 1.907476654200309e+02, 4.798234785856946e+03, 1.097553355449169e+03, 5.103668390209436e+03
736, -5.000000000004811e-05, 4.200000000002396e-03, 3.326225247717431e-04, -9.410512971728478e-06, 1.632746871026213e+02, 2.373059577088946e+03, 8.321168968753232e+02, 2.766373687749640e+03
737, -1.025587492535507e-16, 4.200000000000129e-03, 3.321494756482483e-04, -1.613101515224398e-05, 1.268036527741797e+02, -4.324297598316798e+01, 5.250637633024343e+02, 1.063806222055971e+03
738, 4.999999999988515e-05, 4.199999999997860e-03, 3.317110071514072e-04, -2.285622161758795e-05, 8.092184718684541e+01, -2.449877280540964e+03, 1.763156445557680e+02, 2.555248138824938e+03
739, 9.999999999990481e-05, 4.199999999995591e-03, 3.313069087978254e-04, -2.958821384360580e-05, 2.520907955126290e+01, -4.846036579831907e+03, -2.142045540655066e+02, 4.890047917760008e+03
740, 1.499999999999452e-04, 4.199999999993324e-03, 3.309369520397187e-04, -3.632907724734967e-05, -4.076226998447351e+01, -7.230902859787777e+03, -6.465725218232843e+02, 7.305501064611838e+03
741, 1.999999999999710e-04, 4.199999999991056e-03, 3.306008901095416e-04, -4.308090119528675e-05, -1.174273759490798e+02, -9.603646913310673e+03, -1.120862347720606e+03, 9.747496638684817e+03
742, -2.000000000000034e-04, 4.100000000008875e-03, 3.207856442507413e-04, 1.130089671589411e-05, 2.217178542770929e+02, 1.001524282369943e+04, 1.536364180232291e+03, 1.026424818990179e+04
743, -1.500000000000190e-04, 4.100000000006694e-03, 3.202150682996294e-04, 4.668159038706685e-06, 2.103216958188834e+02, 7.489075916564144e+03, 1.349418239697488e+03, 7.762987913717889e+03
744, -1.000000000000340e-04, 4.100000000004513e-03, 3.196808046430273e-04, -1.963052233002036e-06, 1.908218975908680e+02, 4.970151271033987e+03, 1.120250274813357e+03, 5.278430824850678e+03
745, -5.000000000005830e-05, 4.100000000002334e-03, 3.191827004283286e-04, -8.594844121782292e-06, 1.628194718650434e+02, 2.459243788915074e+03, 8.487656188229943e+02, 2.855727043455418e+03
746, -1.153726636796137e-16, 4.100000000000152e-03, 3.187205852039005e-04, -1.522932792038530e-05, 1.259073715321091e+02, -4.286021079249679e+01, 5.348703366967617e+02, 1.082971654825795e+03
747, 4.999999999987496e-05, 4.099999999997971e-03, 3.182942707573011e-04, -2.186861920847916e-05, 7.967075572647752e+01, -2.535362871009438e+03, 1.784715034385273e+02, 2.639281943847233e+03
748, 9.999999999989721e-05, 4.099999999995790e-03, 3.179035509542700e-04, -2.851483786794981e-05, 2.368703526012723e+01, -5.017454732983279e+03, -2.205226329202713e+02, 5.060398329583217e+03
749, 1.499999999999408e-04, 4.099999999993610e-03, 3.175482015778772e-04, -3.517010809597246e-05, -4.247411894269544e+01, -7.488314679615252e+03, -6.622024743898680e+02, 7.562710501090788e+03
750, 1.999999999999691e-04, 4.099999999991429e-03, 3.172279801674383e-04, -4.183655841562456e-05, -1.192507636966594e+02, -9.947109850453275e+03, -1.146656919388270e+03, 1.009188300528046e+04
751, -2.000000000000054e-04, 4.000000000008551e-03, 3.074931976215037e-04, 1.182277964704326e-05, 2.227323111977149e+02, 1.036489521581065e+04, 1.567858254272354e+03, 1.061584600517860e+04
752, -1.500000000000234e-04, 4.000000000006458e-03, 3.069300903386891e-04, 5.279141110159996e-06, 2.106407184867002e+02, 7.751588550336658e+03, 1.376663206824888e+03, 8.027870237041959e+03
753, -1.000000000000416e-04, 4.000000000004365e-03, 3.064045230211662e-04, -1.262957540584728e-06, 1.905553821518758e+02, 5.145434332557817e+03, 1.142479808411987e+03, 5.456360129582012e+03
754, -5.000000000006849e-05, 4.000000000002271e-03, 3.059163477476045e-04, -7.805660642703018e-06, 1.620757456475463e+02, 2.547209092829798e+03, 8.651980798939824e+02, 2.946715451761460e+03
755, -1.282069068964109e-16, 4.000000000000177e-03, 3.054653989959984e-04, -1.435111718773213e-05, 1.247928844196582e+02, -4.229909822556920e+01, 5.447089998441458e+02, 1.102157569818922e+03
756, 4.999999999986478e-05, 3.999999999998083e-03, 3.050514934783438e-04, -2.090148083832662e-05, 7.828990041415557e+01, -2.622290180356702e+03, 1.809045031691319e+02, 2.724708888986825e+03
757, 9.999999999988963e-05, 3.999999999995989e-03, 3.046744299749198e-04, -2.745890994483065e-05, 2.214191202843961e+01, -5.191952032382660e+03, -2.263223672566446e+02, 5.233704511799181e+03
758, 1.499999999999365e-04, 3.999999999993896e-03, 3.043339891680163e-04, -3.402556756069426e-05, -4.408397616197954e+01, -7.750460422427089e+03, -6.770772924523910e+02, 7.824447109628149e+03
759, 1.999999999999672e-04, 3.999999999991804e-03, 3.040299334752130e-04, -4.060362145604757e-05, -1.208286193901021e+02, -1.029697890047168e+04, -1.171464481536868e+03, 1.044238242304726e+04
760, -2.000000000000072e-04, 3.900000000008219e-03, 2.943797652254942e-04, 1.230846125842452e-05, 2.233356113795892e+02, 1.072104947447547e+04, 1.598271421188311e+03, 1.097359934089926e+04
761, -1.500000000000277e-04, 3.900000000006203e-03, 2.938242862648563e-04, 5.856972982037502e-06, 2.105669826358055e+02, 8.019050512118212e+03, 1.403108787499113e+03, 8.297425631388747e+03
762, -1.000000000000492e-04, 3.900000000004186e-03, 2.933075955462389e-04, -5.929578488690163e-07, 1.899334215264439e+02, 5.324096859603120e+03, 1.164189464998087e+03, 5.637462430077334e+03
763, -5.000000000007867e-05, 3.900000000002170e-03, 2.928295506523648e-04, -7.043512915226124e-06, 1.610320251340739e+02, 2.636965723461400e+03, 8.813880976827196e+02, 3.039346573436449e+03
764, -1.410275975860520e-16, 3.900000000000153e-03, 2.923899915682938e-04, -1.349687894393295e-05, 1.234522988528179e+02, -4.155299599338582e+01, 5.545800669961825e+02, 1.121366554773792e+03
765, 4.999999999985460e-05, 3.899999999998138e-03, 2.919887405124999e-04, -1.995524772810989e-05, 7.677554917541329e+01, -2.710656976778388e+03, 1.836416078778718e+02, 2.811525750783917e+03
766, 9.999999999988204e-05, 3.899999999996121e-03, 2.916256017657121e-04, -2.642081614745465e-05, 2.057479801558634e+01, -5.369531409932303e+03, -2.315500279907014e+02, 5.409963640802806e+03
767, 1.499999999999321e-04, 3.899999999994104e-03, 2.913003614987722e-04, -3.289578618662237e-05, -4.558524043006889e+01, -8.017348921156913e+03, -6.911163903452734e+02, 8.090709711846739e+03
768, 1.999999999999652e-04, 3.899999999992088e-03, 2.910127876001392e-04, -3.938236495149490e-05, -1.221482962848335e+02, -1.065326961210961e+04, -1.195177644153854e+03, 1.079899599837687e+04
769, -2.000000000000091e-04, 3.800000000007874e-03, 2.814515717902651e-04, 1.275724922192623e-05, 2.235275050685241e+02, 1.108373547329813e+04, 1.627491548243595e+03, 1.133750554891221e+04
770, -1.500000000000321e-04, 3.800000000005924e-03, 2.809038706251102e-04, 6.401015581798079e-06, 2.100978129267901e+02, 8.291487182977859e+03, 1.428670416689912e+03, 8.571653912079868e+03
771, -1.000000000000568e-04, 3.800000000003971e-03, 2.803962265177673e-04, 4.636142125044817e-08, 1.889508013958165e+02, 5.506158605107023e+03, 1.185322566846681e+03, 5.821740047249737e+03
772, -5.000000000008884e-05, 3.800000000002021e-03, 2.799285031565658e-04, -6.308932313038267e-06, 1.596825785873438e+02, 2.728528227738654e+03, 8.973069101602479e+02, 3.133625174338652e+03
773, -1.538415120121150e-16, 3.800000000000070e-03, 2.795005466400632e-04, -1.266709011799065e-05, 1.218810548189897e+02, -4.061249834028604e+01, 5.644827242631023e+02, 1.140599464660711e+03
774, 4.999999999984441e-05, 3.799999999998119e-03, 2.791121853022688e-04, -1.903034196434413e-05, 7.512567918924731e+01, -2.800459215542129e+03, 1.867099732820944e+02, 2.899729460363374e+03
775, 9.999999999987444e-05, 3.799999999996168e-03, 2.787632295356823e-04, -2.540092332198481e-05, 1.898731472460258e+01, -5.550194625994035e+03, -2.361504762456325e+02, 5.589173076453329e+03
776, 1.499999999999278e-04, 3.799999999994218e-03, 2.784534716130763e-04, -3.178107518225312e-05, -4.697179785186313e+01, -8.288988399240823e+03, -7.042366503112022e+02, 8.361497156379197e+03
777, 1.999999999999633e-04, 3.799999999992265e-03, 2.781826855086057e-04, -3.817304407685872e-05, -1.231979506370592e+02, -1.101599698889404e+04, -1.217685286481663e+03, 1.116172480916404e+04
778, -2.000000000000110e-04, 3.700000000007529e-03, 2.687149558663586e-04, 1.316847197494695e-05, 2.232835893759124e+02, 1.145296552882808e+04, 1.655401592662056e+03, 1.170756909837437e+04
779, -1.500000000000364e-04, 3.700000000005644e-03, 2.681751706476522e-04, 6.910650647133960e-06, 2.092124266019879e+02, 8.568911191501538e+03, 1.453259405706652e+03, 8.850560154078523e+03
780, -1.000000000000644e-04, 3.700000000003758e-03, 2.676767318254391e-04, 6.544356969922676e-07, 1.875906472762616e+02, 5.691631454002214e+03, 1.205819427618711e+03, 6.009198546411604e+03
781, -5.000000000009902e-05, 3.700000000001873e-03, 2.672195098097196e-04, -5.602429312065561e-06, 1.580142289621052e+02, 2.821906452059396e+03, 9.129239342650825e+02, 3.229557588168134e+03
782, -1.666825314924902e-16, 3.699999999999988e-03, 2.668033574355818e-04, -1.186220667770051e-05, 1.200698793738115e+02, -3.947076842187710e+01, 5.744155031520196e+02, 1.159855982156673e+03
783, 4.999999999983423e-05, 3.699999999998102e-03, 2.664281097802991e-04, -1.812716459345338e-05, 7.333537334181244e+01, -2.891693916127239e+03, 1.901372597076133e+02, 2.989315539973295e+03
784, 9.999999999986681e-05, 3.699999999996217e-03, 2.660935839800966e-04, -2.439957717914143e-05, 1.737955934286595e+01, -5.733943313695046e+03, -2.400669100754675e+02, 5.771329420088737e+03
785, 1.499999999999234e-04, 3.699999999994331e-03, 2.657995790456254e-04, -3.068172450813486e-05, -4.823771443758460e+01, -8.565385808225186e+03, -7.163521492097982e+02, 8.636808048012865e+03
786, 1.999999999999614e-04, 3.699999999992445e-03, 2.655458756758704e-04, -3.697589263104707e-05, -1.239655659138696e+02, -1.138517459706886e+04, -1.238872364442074e+03, 1.153057014136248e+04
787, -2.000000000000130e-04, 3.600000000007325e-03, 2.561763697630410e-04, 1.354148061149070e-05, 2.225853730758620e+02, 1.182875627488078e+04, 1.681882203453055e+03, 1.208379551246509e+04
788, -1.500000000000407e-04, 3.600000000005489e-03, 2.556446262932935e-04, 7.385282618260990e-06, 2.078918961949175e+02, 8.851336537399369e+03, 1.476785758122208e+03, 9.134151299772533e+03
789, -1.000000000000720e-04, 3.600000000003653e-03, 2.551555390574276e-04, 1.230723172313071e-06, 1.858362088911963e+02, 5.880527548885475e+03, 1.225619440984520e+03, 6.199845281479423e+03
790, -5.000000000010923e-05, 3.600000000001818e-03, 2.547089858248752e-04, -4.924491551858356e-06, 1.560132196926050e+02, 2.917110241088927e+03, 9.282081747867796e+02, 3.327151698454349e+03
791, -1.794761171278192e-16, 3.599999999999982e-03, 2.543048268077309e-04, -1.108266167764277e-05, 1.180084950883606e+02, -3.812098670129728e+01, 5.843772237497758e+02, 1.179136706931766e+03
792, 4.999999999982404e-05, 3.599999999998146e-03, 2.539429044724110e-04, -1.724609366181601e-05, 7.139837668006305e+01, -2.984358028693750e+03, 1.939522837720269e+02, 3.080278747533188e+03
793, 9.999999999985923e-05, 3.599999999996311e-03, 2.536230433504719e-04, -2.341710032942348e-05, 1.574997025122946e+01, -5.920778917618999e+03, -2.432403434101838e+02, 5.956428350544222e+03
794, 1.499999999999191e-04, 3.599999999994474e-03, 2.533450498479710e-04, -2.959800090670680e-05, -4.937892373135912e+01, -8.846547701806701e+03, -7.273735605587942e+02, 8.916639933088223e+03
795, 1.999999999999595e-04, 3.599999999992638e-03, 2.531087120529630e-04, -3.579112105213384e-05, -1.244401938391291e+02, -1.176081455899232e+04, -1.258619267832692e+03, 1.190553225233685e+04
796, -2.000000000000149e-04, 3.500000000007369e-03, 2.438423796060483e-04, 1.387565103645385e-05, 2.214171764000855e+02, 1.221112290503865e+04, 1.706810004256199e+03, 1.246618807101290e+04
797, -1.500000000000451e-04, 3.500000000005565e-03, 2.433187903413474e-04, 7.824340759863919e-06, 2.061215849687999e+02, 9.138777696593666e+03, 1.499156642826093e+03, 9.422432157753510e+03
798, -1.000000000000796e-04, 3.500000000003764e-03, 2.428391876096999e-04, 1.774706904312670e-06, 1.836738482608063e+02, 6.072859599293460e+03, 1.244660052943476e+03, 6.393686213737663e+03
799, -5.000000000011939e-05, 3.500000000001962e-03, 2.424034571967057e-04, -4.275581757261099e-06, 1.536675094547047e+02, 3.014149801895222e+03, 9.431275103675639e+02, 3.426414590882754e+03
800, -1.923239128717724e-16, 3.500000000000160e-03, 2.420114673522233e-04, -1.032886319558721e-05, 1.156870457019068e+02, -3.655623775365427e+01, 5.943664132248815e+02, 1.198442218063338e+03
801, 4.999999999981385e-05, 3.499999999998358e-03, 2.416630685979324e-04, -1.638748216598715e-05, 6.930751032740818e+01, -3.078448822611407e+03, 1.981844181022097e+02, 3.172613778238767e+03
802, 9.999999999985163e-05, 3.499999999996555e-03, 2.413580935322868e-04, -2.245379024874389e-05, 1.409440563777900e+01, -6.110703918013507e+03, -2.456103855986879e+02, 6.144465180262425e+03
803, 1.499999999999148e-04, 3.499999999994753e-03, 2.410963566336766e-04, -2.853014588798933e-05, -5.039640026193558e+01, -9.132483030216566e+03, -7.372092912458149e+02, 9.200989496266002e+03
804, 1.999999999999576e-04, 3.499999999992950e-03, 2.408776540619754e-04, -3.461891442897439e-05, -1.246186379213227e+02, -1.214293295403426e+04, -1.276802867477953e+03, 1.228660983552765e+04
805, -2.000000000000167e-04, 3.400000000007423e-03, 2.317196656231341e-04, 1.417038621080001e-05, 2.197691971256905e+02, 1.260008197657361e+04, 1.730056572487307e+03, 1.285474727456700e+04
806, -1.500000000000494e-04, 3.400000000005649e-03, 2.312043286481552e-04, 8.227281399200444e-06, 2.038921820572070e+02, 9.431250898164464e+03, 1.520274828043462e+03, 9.715404833914585e+03
807, -1.000000000000872e-04, 3.400000000003875e-03, 2.307343289165894e-04, 2.285897024156958e-06, 1.810943093016627e+02, 6.268642116943729e+03, 1.262875556911980e+03, 6.590725073867873e+03
808, -5.000000000012958e-05, 3.400000000002102e-03, 2.303095609081303e-04, -3.656135551179467e-06, 1.509687744924629e+02, 3.113037317047135e+03, 9.576479427917734e+02, 3.527351468187600e+03
809, -2.051242747706794e-16, 3.400000000000329e-03, 2.299299015965814e-04, -9.601192162414958e-06, 1.130992989767492e+02, -3.476712062472586e+01, 6.043809414134646e+02, 1.217772461267318e+03
810, 4.999999999980369e-05, 3.399999999998554e-03, 2.295952102512273e-04, -1.555165589451192e-05, 6.705986428076471e+01, -3.173960097356147e+03, 2.028635423393875e+02, 3.266316711369378e+03
811, 9.999999999984403e-05, 3.399999999996781e-03, 2.293053282357176e-04, -2.150991712886385e-05, 1.241458491820276e+01, -6.303715693158802e+03, -2.471150235304761e+02, 6.335437240558773e+03
812, 1.499999999999104e-04, 3.399999999995008e-03, 2.290600788052311e-04, -2.747837358796908e-05, -5.128234803286853e+01, -9.423193018810274e+03, -7.457650921006285e+02, 9.489856264001837e+03
813, 1.999999999999557e-04, 3.399999999993234e-03, 2.288592669025121e-04, -3.345943037842004e-05, -1.244865307831190e+02, -1.253153596344356e+04, -1.293296330044944e+03, 1.267380515921365e+04
814, -2.000000000000187e-04, 3.300000000007353e-03, 2.198150226700327e-04, 1.442511838403108e-05, 2.176310681456263e+02, 1.299564835574152e+04, 1.751488091720893e+03, 1.324947425160183e+04
815, -1.500000000000538e-04, 3.300000000005614e-03, 2.193080205563091e-04, 8.593590156234529e-06, 2.011923334006001e+02, 9.728770160489923e+03, 1.540038782798719e+03, 1.001307230880416e+04
816, -1.000000000000948e-04, 3.300000000003875e-03, 2.188477267565941e-04, 2.763832965242944e-06, 1.780864728651034e+02, 6.467887872746238e+03, 1.280197282038248e+03, 6.790966203251136e+03
817, -5.000000000013977e-05, 3.300000000002137e-03, 2.184340451466960e-04, -3.066559228433247e-06, 1.479070225224958e+02, 3.213783714756367e+03, 9.717338916677836e+02, 3.629967894740416e+03
818, -2.179652942510546e-16, 3.300000000000398e-03, 2.180668621342226e-04, -8.900000136211927e-06, 1.102372665357180e+02, -3.274518831728540e+01, 6.144184877554040e+02, 1.237127436757565e+03
819, 4.999999999979350e-05, 3.299999999998659e-03, 2.177460464523519e-04, -1.473891119885832e-05, 6.465034208609381e+01, -3.270886562950550e+03, 2.080207727155065e+02, 3.361383199277651e+03
820, 9.999999999983644e-05, 3.299999999996922e-03, 2.174714489524632e-04, -2.058572163995786e-05, 1.070920228631019e+01, -6.499812815830950e+03, -2.476895112677689e+02, 6.529341262666389e+03
821, 1.499999999999061e-04, 3.299999999995182e-03, 2.172429023952551e-04, -2.644286851673489e-05, -5.203345446670892e+01, -9.718680894983392e+03, -7.529423700122662e+02, 9.783238808773222e+03
822, 1.999999999999538e-04, 3.299999999993444e-03, 2.170602212406482e-04, -3.231279676722851e-05, -1.240354136620924e+02, -1.292663228983706e+04, -1.307967337238577e+03, 1.306711907786016e+04
823, -2.000000000000206e-04, 3.200000000007042e-03, 2.081353605713691e-04, 1.463931132328797e-05, 2.149871134076889e+02, 1.339783142794180e+04, 1.770966711066169e+03, 1.365037276370365e+04
824, -1.500000000000580e-04, 3.200000000005365e-03, 2.076367591668133e-04, 8.922784169351297e-06, 1.980060441622169e+02, 1.003134508162516e+04, 1.558344212690318e+03, 1.031544004716204e+04
825, -1.000000000001024e-04, 3.200000000003689e-03, 2.071862574656752e-04, 3.208085699676320e-06, 1.746355176852952e+02, 6.670606448793291e+03, 1.296554698824700e+03, 6.994415964609033e+03
826, -5.000000000014997e-05, 3.200000000002012e-03, 2.067837694635974e-04, -2.507227512743629e-06, 1.444691394479597e+02, 3.316397736397093e+03, 9.853488369554133e+02, 3.734271059537758e+03
827, -2.307656561499616e-16, 3.200000000000335e-03, 2.064291917312175e-04, -8.225607059271434e-06, 1.070899235865558e+02, -3.048350385814354e+01, 6.244767755050503e+02, 1.256507628516287e+03
828, 4.999999999978330e-05, 3.199999999998658e-03, 2.061224032016779e-04, -1.394951275676014e-05, 6.207041396767602e+01, -3.369224068588058e+03, 2.136882968368501e+02, 3.457807481459538e+03
829, 9.999999999982882e-05, 3.199999999996980e-03, 2.058632649567292e-04, -1.968141270707470e-05, 8.972623421218145e+00, -6.698994938233876e+03, -2.472669857013228e+02, 6.726172214349575e+03
830, 1.499999999999017e-04, 3.199999999995303e-03, 2.056516200113305e-04, -2.542378335399792e-05, -5.265206441087764e+01, -1.001895114181706e+04, -7.586394241673817e+02, 1.008113348805140e+04
831, 1.999999999999519e-04, 3.199999999993626e-03, 2.054872930965282e-04, -3.117910953807036e-05, -1.232630157586002e+02, -1.332823162267554e+04, -1.320679140868570e+03, 1.346655002152234e+04
832, -2.000000000000225e-04, 3.100000000006703e-03, 1.966877041153489e-04, 1.481246269282730e-05, 2.118249476669339e+02, 1.380663953556413e+04, 1.788350970528968e+03, 1.405744573009158e+04
833, -1.500000000000624e-04, 3.100000000005093e-03, 1.961975513773619e-04, 9.214414462361553e-06, 1.943206603708801e+02, 1.033898514223455e+04, 1.575084226926376e+03, 1.062251282593885e+04
834, -1.000000000001100e-04, 3.100000000003483e-03, 1.957569100006991e-04, 3.618260094485205e-06, 1.707290715309814e+02, 6.876807687514813e+03, 1.311875503202136e+03, 7.201080456942767e+03
835, -5.000000000016015e-05, 3.100000000001875e-03, 1.953657048454409e-04, -1.978481210387755e-06, 1.406436275971566e+02, 3.420888710462759e+03, 9.984553371842088e+02, 3.840268225667381e+03
836, -2.436134518939148e-16, 3.100000000000265e-03, 1.950238433968149e-04, -7.578298921691414e-06, 1.036473587768942e+02, -2.797405152208285e+01, 6.345535170862132e+02, 1.275914127139842e+03
837, 4.999999999977311e-05, 3.099999999998656e-03, 1.947312155467429e-04, -1.318369124680770e-05, 5.931252718280075e+01, -3.468966676220308e+03, 2.198992371803047e+02, 3.555583895117199e+03
838, 9.999999999982122e-05, 3.099999999997047e-03, 1.944876933732996e-04, -1.879716519685997e-05, 7.200500320056108e+00, -6.901258929197160e+03, -2.457787019904757e+02, 6.925925235713552e+03
839, 1.499999999998973e-04, 3.099999999995438e-03, 1.942931309185414e-04, -2.442123665026976e-05, -5.313832148336974e+01, -1.032400409034839e+04, -7.627516884744311e+02, 1.038353717165426e+04
840, 1.999999999999499e-04, 3.099999999993829e-03, 1.941473639649723e-04, -3.005843041370703e-05, -1.221644881035738e+02, -1.373633870877609e+04, -1.331291108407552e+03, 1.387209730978427e+04
841, -2.000000000000244e-04, 3.000000000006373e-03, 1.854791931816756e-04, 1.494410659896597e-05, 2.081400117872590e+02, 1.422208315641752e+04, 1.803494111951186e+03, 1.447069336653568e+04
842, -1.500000000000668e-04, 3.000000000004845e-03, 1.849975180054386e-04, 9.468068465922815e-06, 1.901298795356324e+02, 1.065170196397667e+04, 1.590147691475573e+03, 1.093429326480575e+04
843, -1.000000000001176e-04, 3.000000000003318e-03, 1.845667860449751e-04, 3.993997401866541e-06, 1.663589779764980e+02, 7.086502923509239e+03, 1.326084472648910e+03, 7.410964332750197e+03
844, -5.000000000017031e-05, 3.000000000001789e-03, 1.841869337957011e-04, -1.480624743669247e-06, 1.364215868713914e+02, 3.527267123182248e+03, 1.011014349005240e+03, 3.947965742847476e+03
845, -2.564273663199779e-16, 3.000000000000262e-03, 1.838578804358475e-04, -6.958325311721859e-06, 9.990107734474600e+01, -2.520772372179454e+01, 6.446460969018984e+02, 1.295348050952992e+03
846, 4.999999999976296e-05, 2.999999999998735e-03, 1.835795276011926e-04, -1.244164090969977e-05, 5.636967151203055e+01, -3.570107263939847e+03, 2.266876519709977e+02, 3.654707119536248e+03
847, 9.999999999981362e-05, 2.999999999997206e-03, 1.833517591581896e-04, -1.793311748403961e-05, 5.388355045896787e+00, -7.106600325192348e+03, -2.431536871206027e+02, 7.128595783888879e+03
848, 1.499999999998930e-04, 2.999999999995678e-03, 1.831744409753606e-04, -2.343531039061271e-05, -5.349322072061716e+01, -1.063383874088646e+04, -7.651710564440070e+02, 1.069044705840556e+04
849, 1.999999999999481e-04, 2.999999999994151e-03, 1.830474206929749e-04, -2.895078446271677e-05, -1.207368212088638e+02, -1.415095717330257e+04, -1.339657788347316e+03, 1.428376053733130e+04
850, -2.000000000000263e-04, 2.900000000006043e-03, 1.745170831938480e-04, 1.503381613155398e-05, 2.039269384511854e+02, 1.464417015138068e+04, 1.816243779176423e+03, 1.489011718926834e+04
851, -1.500000000000711e-04, 2.900000000004594e-03, 1.740438941153993e-04, 9.683372547204256e-06, 1.854254688153753e+02, 1.096950422567177e+04, 1.603419056796526e+03, 1.125078509797758e+04
852, -1.000000000001252e-04, 2.900000000003146e-03, 1.736231002377416e-04, 4.334977782573227e-06, 1.615155754448854e+02, 7.299701357650467e+03, 1.339103374224901e+03, 7.624072904210975e+03
853, -5.000000000018052e-05, 2.900000000001698e-03, 1.732546504873944e-04, -1.013923635620952e-06, 1.317929258544289e+02, 3.635542220751780e+03, 1.022985149834008e+03, 4.057370279949479e+03
854, -2.692480570096190e-16, 2.900000000000249e-03, 1.729384765373692e-04, -6.365896909356569e-06, 9.584141734303330e+01, -2.217588002456830e+01, 6.547515195037239e+02, 1.314810363378573e+03
855, 4.999999999975274e-05, 2.899999999998802e-03, 1.726744925762464e-04, -1.172351705080743e-05, 5.323349619695591e+01, -3.672638497479385e+03, 2.340885212322361e+02, 3.755171348467669e+03
856, 9.999999999980604e-05, 2.899999999997354e-03, 1.724625950755090e-04, -1.708936896235167e-05, 3.530068026570234e+00, -7.315013833229144e+03, -2.393187170353766e+02, 7.334178797104761e+03
857, 1.499999999998886e-04, 2.899999999995905e-03, 1.723026625548188e-04, -2.246604751469800e-05, -5.371961270884071e+01, -1.094845253944956e+04, -7.657857777994843e+02, 1.100185970529202e+04
858, 1.999999999999462e-04, 2.899999999994458e-03, 1.721945553452834e-04, -2.785615762271634e-05, -1.189781691013523e+02, -1.457208760784771e+04, -1.345628756643713e+03, 1.470153867631565e+04
859, -2.000000000000283e-04, 2.800000000005697e-03, 1.638087453486253e-04, 1.508120588372336e-05, 1.991734031416843e+02, 1.507289955286815e+04, 1.826444064283596e+03, 1.531572137566115e+04
860, -1.500000000000755e-04, 2.800000000004316e-03, 1.633440291904411e-04, 9.859994553764544e-06, 1.801942877495042e+02, 1.129239392798008e+04, 1.614780290236409e+03, 1.157199388123259e+04
861, -1.000000000001328e-04, 2.800000000002934e-03, 1.629331803005880e-04, 4.640922866419915e-06, 1.561861346398289e+02, 7.516407901167457e+03, 1.350852141826243e+03, 7.840412647863202e+03
862, -5.000000000019071e-05, 2.800000000001552e-03, 1.625761608470777e-04, -5.786019437648156e-07, 1.267452666152844e+02, 3.745720562959932e+03, 1.034325974468415e+03, 4.168489304459467e+03
863, -2.820416426449479e-16, 2.800000000000171e-03, 1.622729158170376e-04, -5.801182922318319e-06, 9.145651807613331e+01, -1.887149710741119e+01, 6.648666704962927e+02, 1.334302450376842e+03
864, 4.999999999974258e-05, 2.799999999998790e-03, 1.620233727806185e-04, -1.102943348395373e-05, 4.989297825939616e+01, -3.776554032178269e+03, 2.421377147436395e+02, 3.856970237802261e+03
865, 9.999999999979847e-05, 2.799999999997408e-03, 1.618274416522256e-04, -1.626597750074944e-05, 1.615842977533703e+00, -7.526494940654802e+03, -2.341986219569494e+02, 7.542668489914401e+03
866, 1.499999999998843e-04, 2.799999999996027e-03, 1.616850144493727e-04, -2.151344938883795e-05, -5.382573646086303e+01, -1.126784407413611e+04, -7.644810875843349e+02, 1.131777065551397e+04
867, 1.999999999999443e-04, 2.799999999994645e-03, 1.615959650490870e-04, -2.677449419316296e-05, -1.168946912862041e+02, -1.499973293500942e+04, -1.349049262077923e+03, 1.512542924464897e+04
868, -2.000000000000301e-04, 2.700000000005420e-03, 1.533616664137805e-04, 1.508593472517438e-05, 1.938799480097086e+02, 1.550827423472959e+04, 1.833934705940719e+03, 1.574750578319418e+04
869, -1.500000000000799e-04, 2.700000000004097e-03, 1.529053870410050e-04, 9.997646563407014e-06, 1.744342656334172e+02, 1.162037724364841e+04, 1.624109831224865e+03, 1.189792173581150e+04
870, -1.000000000001404e-04, 2.700000000002773e-03, 1.525044670037381e-04, 4.911598474625901e-06, 1.503654628851727e+02, 7.736630445073835e+03, 1.361248120359015e+03, 8.059987727081583e+03
871, -5.000000000020087e-05, 2.700000000001450e-03, 1.521588825463825e-04, -1.748395603757402e-07, 1.212713674574172e+02, 3.857811192436723e+03, 1.044993533302078e+03, 4.281328742601884e+03
872, -2.948962146524792e-16, 2.700000000000125e-03, 1.518685928158581e-04, -5.264308405007257e-06, 8.673824475342258e+01, -1.528493114909793e+01, 6.749880427098520e+02, 1.353825749358589e+03
873, 4.999999999973239e-05, 2.699999999998801e-03, 1.516335396195227e-04, -1.035945986629033e-05, 4.634027717849085e+01, -3.881844188313788e+03, 2.508718873869743e+02, 3.960098484944442e+03
874, 9.999999999979085e-05, 2.699999999997478e-03, 1.514536471802022e-04, -1.546295679222015e-05, -3.605873986109600e-01, -7.741034465801569e+03, -2.277162330137273e+02, 7.754060279808363e+03
875, 1.499999999998800e-04, 2.699999999996155e-03, 1.513288218887495e-04, -2.057747316742208e-05, -5.381476238429104e+01, -1.159200504152816e+04, -7.611389679266192e+02, 1.163817704933705e+04
876, 1.999999999999424e-04, 2.699999999994831e-03, 1.512589520544620e-04, -2.570569420757539e-05, -1.144852144401852e+02, -1.543388642436743e+04, -1.349760100631092e+03, 1.555543193703547e+04
877, -2.000000000000321e-04, 2.600000000005380e-03, 1.431834490970166e-04, 1.504770870026505e-05, 1.880547033760818e+02, 1.595029903397479e+04, 1.838548474915625e+03, 1.618546843053822e+04
878, -1.500000000000841e-04, 2.600000000004088e-03, 1.427355460641871e-04, 1.009608773438184e-05, 1.681474381460798e+02, 1.195346085275752e+04, 1.631280359900725e+03, 1.222856961099751e+04
879, -1.000000000001480e-04, 2.600000000002797e-03, 1.423445143338455e-04, 5.146817433694187e-06, 1.440506201396718e+02, 7.960376905583069e+03, 1.370204685042771e+03, 8.282801465456359e+03
880, -5.000000000021105e-05, 2.600000000001504e-03, 1.420103450913357e-04, 1.972305743612093e-07, 1.153647990843256e+02, 3.971823043816315e+03, 1.054942204094205e+03, 4.395893812329627e+03
881, -3.077169053421203e-16, 2.600000000000212e-03, 1.417330125172620e-04, -4.755351491511596e-06, 8.167791236384301e+01, -1.140671099316364e+01, 6.851113253926923e+02, 1.373380813842556e+03
882, 4.999999999972220e-05, 2.599999999998920e-03, 1.415124735391702e-04, -9.713618945712462e-06, 4.256550618814822e+01, -3.988499634261998e+03, 2.603283653339593e+02, 4.064550356157758e+03
883, 9.999999999978321e-05, 2.599999999997628e-03, 1.413486675803478e-04, -1.468027361110880e-05, -2.409435602537769e+00, -7.958624083862756e+03, -2.197922484254610e+02, 7.968349017146662e+03
884, 1.499999999998756e-04, 2.599999999996335e-03, 1.412415163061728e-04, -1.965802905669184e-05, -5.369662577747113e+01, -1.192092925995965e+04, -7.556377728792279e+02, 1.196307502981596e+04
885, 1.999999999999405e-04, 2.599999999995043e-03, 1.411909233683611e-04, -2.464961070009627e-05, -1.117585968140245e+02, -1.587454495367938e+04, -1.347596984374788e+03, 1.599154477407873e+04
886, -2.000000000000340e-04, 2.500000000005436e-03, 1.332818125688201e-04, 1.496628376578446e-05, 1.816906317756345e+02, 1.639896346427104e+04, 1.840113663414662e+03, 1.662961248197729e+04
887, -1.500000000000885e-04, 2.500000000004174e-03, 1.328421995870833e-04, 1.015512707195840e-05, 1.613246540339185e+02, 1.229164005439771e+04, 1.636161323450866e+03, 1.256394234377605e+04
888, -1.000000000001556e-04, 2.500000000002911e-03, 1.324609897100245e-04, 5.346442360859534e-06, 1.372317433661713e+02, 8.187648196403234e+03, 1.377632871683368e+03, 8.508859758152092e+03
889, -5.000000000022121e-05, 2.500000000001650e-03, 1.321381899447271e-04, 5.375252657802176e-07, 1.090147775763278e+02, 4.087761112020104e+03, 1.064125042367281e+03, 4.512191354211661e+03
890, -3.205375960317614e-16, 2.500000000000388e-03, 1.318737903989854e-04, -4.274340601974596e-06, 7.626405112687758e+01, -7.228981990577267e+00, 6.952319953559529e+02, 1.392968483507660e+03
891, 4.999999999971200e-05, 2.499999999999127e-03, 1.316677640255100e-04, -9.091883772826075e-06, 3.855702915641973e+01, -4.096510715873914e+03, 2.705454291840932e+02, 4.170319480927075e+03
892, 9.999999999977564e-05, 2.499999999997865e-03, 1.315200663642190e-04, -1.391784503557764e-05, -4.541759024980820e+00, -8.179253287092495e+03, -2.103452159067398e+02, 8.185529244131947e+03
893, 1.499999999998713e-04, 2.499999999996604e-03, 1.314306352820455e-04, -1.875497755215166e-05, -5.348087407987305e+01, -1.225460621072252e+04, -7.478525594082059e+02, 1.229246083105074e+04
894, 1.999999999999386e-04, 2.499999999995341e-03, 1.313993907102611e-04, -2.360604697030374e-05, -1.087220004480037e+02, -1.632169897828435e+04, -1.342391043987949e+03, 1.643376637730279e+04
895, -2.000000000000358e-04, 2.400000000005491e-03, 1.236645920767550e-04, 1.484146875510735e-05, 1.747956615108085e+02, 1.685426307064925e+04, 1.838454372197567e+03, 1.707993826005002e+04
896, -1.500000000000929e-04, 2.400000000004260e-03, 1.232331556289287e-04, 1.017462636708731e-05, 1.539680925072462e+02, 1.263491498521052e+04, 1.638619165900101e+03, 1.290404302619532e+04
897, -1.000000000001632e-04, 2.400000000003029e-03, 1.228616738208995e-04, 5.510388585555096e-06, 1.299056278652058e+02, 8.418447877665887e+03, 1.383441630354955e+03, 8.738167748740445e+03
898, -5.000000000023145e-05, 2.400000000001797e-03, 1.225501703923581e-04, 8.460139737838424e-07, 1.022141690684259e+02, 4.205632104327004e+03, 1.072494032716989e+03, 4.630228131772339e+03
899, -3.333650629849805e-16, 2.400000000000566e-03, 1.222986522982883e-04, -3.821251544795497e-06, 7.048670635530198e+01, -2.742470813545424e+00, 7.053455718621855e+02, 1.412590533513233e+03
900, 4.999999999970184e-05, 2.399999999999334e-03, 1.221071094478038e-04, -8.494174813256126e-06, 3.430311049817965e+01, -4.205866282097277e+03, 2.815626208571617e+02, 4.277399503876057e+03
901, 9.999999999976805e-05, 2.399999999998102e-03, 1.219755144402083e-04, -1.317553556798143e-05, -6.770033677104720e+00, -8.402909799407360e+03, -1.992911011136660e+02, 8.405595204243975e+03
902, 1.499999999998670e-04, 2.399999999996872e-03, 1.219038222984347e-04, -1.786812656386924e-05, -5.317958995480444e+01, -1.259302325505576e+04, -7.376543348453446e+02, 1.262633021966546e+04
903, 1.999999999999366e-04, 2.399999999995640e-03, 1.218919701997758e-04, -2.257475369747928e-05, -1.053861821608336e+02, -1.677533648153730e+04, -1.333968075571590e+03, 1.688209484306548e+04
904, -2.000000000000378e-04, 2.300000000005451e-03, 1.143397391770262e-04, 1.467312849294317e-05, 1.673789749146913e+02, 1.731618833893849e+04, 1.833389122334322e+03, 1.753644562900947e+04
905, -1.500000000000972e-04, 2.300000000004251e-03, 1.139163370184484e-04, 1.015450326835390e-05, 1.460807216464691e+02, 1.298328186151630e+04, 1.638515663959360e+03, 1.324887419479995e+04
906, -1.000000000001708e-04, 2.300000000003051e-03, 1.135544606645951e-04, 5.638627191038020e-06, 1.220699098354110e+02, 8.652777179649016e+03, 1.387536733155341e+03, 8.970730141224421e+03
907, -5.000000000024163e-05, 2.300000000001851e-03, 1.132541515218774e-04, 1.122721826894897e-06, 9.495603162125281e+01, 4.325441452811285e+03, 1.079999318883198e+03, 4.750010633046423e+03
908, -3.461857536746216e-16, 2.300000000000652e-03, 1.130154343379646e-04, -3.396004526598499e-06, 6.433522527444597e+01, 2.061671182224018e+00, 7.154470316319158e+02, 1.432248517479755e+03
909, 4.999999999969163e-05, 2.299999999999453e-03, 1.128383169351236e-04, -7.920356980100803e-06, 2.979021746279773e+01, -4.316554934886710e+03, 2.934202205716691e+02, 4.385783611478498e+03
910, 9.999999999976044e-05, 2.299999999998253e-03, 1.127227899405170e-04, -1.245315418969063e-05, -9.109870420898233e+00, -8.629580622154754e+03, -1.865438415160761e+02, 8.628540455994233e+03
911, 1.499999999998626e-04, 2.299999999997052e-03, 1.126688265135243e-04, -1.699722849321205e-05, -5.280971052390032e+01, -1.293616684934671e+04, -7.249107798151906e+02, 1.296467792585784e+04
912, 1.999999999999347e-04, 2.299999999995853e-03, 1.126763820701001e-04, -2.155542604562372e-05, -1.017679569165621e+02, -1.723544397522113e+04, -1.322148956356665e+03, 1.733652691144928e+04
913, -2.000000000000396e-04, 2.200000000005174e-03, 1.053153218437751e-04, 1.446118687952405e-05, 1.594495313893765e+02, 1.778472362214197e+04, 1.824731212583067e+03, 1.799913505607572e+04
914, -1.500000000001016e-04, 2.200000000004032e-03, 1.048997814503884e-04, 1.009473438897963e-05, 1.376656530170526e+02, 1.333673232769571e+04, 1.635708817005631e+03, 1.359843867577203e+04
915, -1.000000000001784e-04, 2.200000000002889e-03, 1.045473575540231e-04, 5.731188112168624e-06, 1.137225950014752e+02, 8.890634494115235e+03, 1.389821118492106e+03, 9.206551659032348e+03
916, -5.000000000025179e-05, 2.200000000001748e-03, 1.042581101833613e-04, 1.367732707430511e-06, 8.723372629489427e+01, 4.447193262171992e+03, 1.086589346512993e+03, 4.871545215463751e+03
917, -3.590132206278407e-16, 2.200000000000606e-03, 1.040320828476080e-04, -2.998461082794013e-06, 5.779898095044177e+01, 7.192306612937500e+00, 7.255308320286955e+02, 1.451943865438505e+03
918, 4.999999999968146e-05, 2.199999999999464e-03, 1.038693022641721e-04, -7.370236581507293e-06, 2.500453158598134e+01, -4.428563972900508e+03, 3.061591993449305e+02, 4.495465075554268e+03
919, 9.999999999975283e-05, 2.199999999998322e-03, 1.037697780830197e-04, -1.175045132658941e-05, -1.157739827325804e+01, -8.859250134279308e+03, -1.720154662510371e+02, 8.854358820715537e+03
920, 1.499999999998582e-04, 2.199999999997180e-03, 1.037335026078823e-04, -1.614197721900622e-05, -5.238872427839897e+01, -1.328401938342609e+04, -7.094864379495179e+02, 1.330749916109839e+04
921, 1.999999999999328e-04, 2.199999999996038e-03, 1.037604505145519e-04, -2.054770066972785e-05, -9.788557299198033e+01, -1.770200317152540e+04, -1.306750166199346e+03, 1.779705988107143e+04
922, -2.000000000000416e-04, 2.100000000004828e-03, 9.659952438189410e-05, 1.420563015823484e-05, 1.510253827347794e+02, 1.825985354609592e+04, 1.812288876301953e+03, 1.846800534261383e+04
923, -1.500000000001059e-04, 2.100000000003754e-03, 9.619164140687168e-05, 9.995358529684223e-06, 1.287327442784294e+02, 1.369525840806745e+04, 1.630052321198398e+03, 1.395273811356120e+04
924, -1.000000000001860e-04, 2.100000000002678e-03, 9.584848502581653e-05, 5.788163340152033e-06, 1.048659422267440e+02, 9.132018285927927e+03, 1.390194709944820e+03, 9.445636281512434e+03
925, -5.000000000026199e-05, 2.100000000001603e-03, 9.557013487209501e-05, 1.581192436903956e-06, 7.904312648303858e+01, 4.570891999493431e+03, 1.092210806165901e+03, 4.994837742948915e+03
926, -3.718339113174818e-16, 2.100000000000528e-03, 9.535665421252066e-05, -2.628420909015006e-06, 5.086857441872962e+01, 1.265928382412790e+01, 7.355910010463060e+02, 1.471678101069989e+03
927, 4.999999999967128e-05, 2.099999999999452e-03, 9.520808966944217e-05, -6.843558166628688e-06, 1.993250411139729e+01, -4.541878858379475e+03, 3.198214781743258e+02, 4.606437454102385e+03
928, 9.999999999974523e-05, 2.099999999998377e-03, 9.512447093930263e-05, -1.106711570674532e-05, -1.418914399538721e+01, -9.091899841413344e+03, -1.556156067380017e+02, 9.083044444141960e+03
929, 1.499999999998539e-04, 2.099999999997302e-03, 9.510581050789564e-05, -1.530200496261097e-05, -5.193489925978884e+01, -1.363655915684398e+04, -6.912419495439407e+02, 1.365478956084575e+04
930, 1.999999999999309e-04, 2.099999999996226e-03, 9.515210336259729e-05, -1.955115258934010e-05, -9.375803376222416e+01, -1.817499011607631e+04, -1.287582890738071e+03, 1.826369164261677e+04
931, -2.000000000000435e-04, 2.000000000004496e-03, 8.820064757330049e-05, 1.390651021476117e-05, 1.421237285210777e+02, 1.874155514856839e+04, 1.795864736762455e+03, 1.894305597732401e+04
932, -1.500000000001103e-04, 2.000000000003499e-03, 8.780018420267971e-05, 9.856479974687645e-06, 1.192910468487521e+02, 1.405884631470789e+04, 1.621395633920761e+03, 1.431177474223545e+04
933, -1.000000000001936e-04, 2.000000000002501e-03, 8.746607680500210e-05, 5.809710197310532e-06, 9.550169387647111e+01, 9.376923280491892e+03, 1.388554374874604e+03, 9.687988422599623e+03
934, -5.000000000027220e-05, 2.000000000001505e-03, 8.719842562404954e-05, 1.763312033384830e-06, 7.037922548806023e+01, 4.696539898958641e+03, 1.096808611490500e+03, 5.119894442049040e+03
935, -3.846512138753339e-16, 2.000000000000507e-03, 8.699731470495740e-05, -2.285618621906396e-06, 4.353296441898237e+01, 1.847141457918974e+01, 7.456210976395731e+02, 1.491452770375696e+03
936, 4.999999999966107e-05, 1.999999999999510e-03, 8.686281161048094e-05, -6.340001304738346e-06, 1.455782542646648e+01, -4.656485169844009e+03, 3.344498682738316e+02, 4.718693624428155e+03
937, 9.999999999973761e-05, 1.999999999998513e-03, 8.679496713373984e-05, -1.040277115783792e-05, -1.696589526972389e+01, -9.327510737317078e+03, -1.372515959091728e+02, 9.314590557726788e+03
938, 1.499999999998495e-04, 1.999999999997515e-03, 8.679381500743968e-05, -1.447687910453411e-05, -5.147274557238416e+01, -1.399376370999859e+04, -6.700341894904086e+02, 1.400654349213484e+04
939, 1.999999999999290e-04, 1.999999999996517e-03, 8.685937160961632e-05, -1.856529202099701e-05, -8.941232105209360e+01, -1.865437966545780e+04, -1.264453024628161e+03, 1.873641850260651e+04
940, -2.000000000000454e-04, 1.900000000004165e-03, 8.012710855784927e-05, 1.356394798547083e-05, 1.327687096550305e+02, 1.922980369574325e+04, 1.775256211950006e+03, 1.942428592592649e+04
941, -1.500000000001146e-04, 1.900000000003247e-03, 7.973379185945643e-05, 9.678271866975051e-06, 1.093543604706576e+02, 1.442748066020761e+04, 1.609584099906781e+03, 1.467555057345073e+04
942, -1.000000000002012e-04, 1.900000000002328e-03, 7.940847965839555e-05, 5.796054695335820e-06, 8.563447123188234e+01, 9.625342965377979e+03, 1.384794053586987e+03, 9.933612456537787e+03
943, -5.000000000028235e-05, 1.900000000001409e-03, 7.915129384081929e-05, 1.914371049441543e-06, 6.123848031070975e+01, 4.824138727732454e+03, 1.100325918004955e+03, 5.246721573537509e+03
944, -3.974685164331859e-16, 1.900000000000491e-03, 7.896234027698056e-05, -1.969720441917345e-06, 3.578137511266868e+01, 2.463800435601092e+01, 7.556141374884567e+02, 1.511269358453852e+03
945, 4.999999999965091e-05, 1.899999999999572e-03, 7.884170853212198e-05, -5.859177290255756e-06, 8.863430189416249e+00, -4.772366869308400e+03, 3.500878827653794e+02, 4.832226120482417e+03
946, 9.999999999973007e-05, 1.899999999998654e-03, 7.878947157365654e-05, -9.756973336367272e-06, -1.993003295613607e+01, -9.566060919476158e+03, -1.168287892383107e+02, 9.548990039085344e+03
947, 1.499999999998452e-04, 1.899999999997735e-03, 7.880568547457894e-05, -1.366609893867001e-05, -5.102889132831410e+01, -1.435560616151050e+04, -6.457167768962991e+02, 1.436275501087706e+04
948, 1.999999999999271e-04, 1.899999999996817e-03, 7.889038911295275e-05, -1.758956116109959e-05, -8.487843743999497e+01, -1.914014119534668e+04, -1.237161739723493e+03, 1.921523654431056e+04
949, -2.000000000000473e-04, 1.800000000003828e-03, 7.238744079934051e-05, 1.317813694181319e-05, 1.229848899466517e+02, 1.972456650090402e+04, 1.750255619494616e+03, 1.991169456840156e+04
950, -1.500000000001189e-04, 1.800000000002982e-03, 7.200096100728531e-05, 9.460979683452214e-06, 9.893768614275314e+01, 1.480114076140707e+04, 1.594459136761664e+03, 1.504406776844357e+04
951, -1.000000000002088e-04, 1.800000000002135e-03, 7.168415324301736e-05, 5.747494989340467e-06, 7.526993620472331e+01, 9.877267500142219e+03, 1.378804848299246e+03, 1.018251282750042e+04
952, -5.000000000029254e-05, 1.800000000001289e-03, 7.143716209062182e-05, 2.034721007053641e-06, 5.161782717476467e+01, 4.953688545537731e+03, 1.102704215025100e+03, 5.375325447930394e+03
953, -4.102858189910380e-16, 1.800000000000442e-03, 7.126011631714765e-05, -1.680320778280423e-06, 2.760279146905441e+01, 3.116814779550236e+01, 7.655626885526062e+02, 1.531129528218078e+03
954, 4.999999999964072e-05, 1.799999999999596e-03, 7.115312857848151e-05, -5.400625747500356e-06, 2.831237692249942e+00, -4.889506681800334e+03, 3.667798717663885e+02, 4.947027412076559e+03
955, 9.999999999972246e-05, 1.799999999998750e-03, 7.111629512141922e-05, -9.129206351226054e-06, -2.310569777744809e+01, -9.807525783918372e+03, -9.425034595559481e+01, 9.786235687583297e+03
956, 1.499999999998409e-04, 1.799999999997903e-03, 7.114969548176095e-05, -1.286909231356606e-05, -5.063239507946491e+01, -1.472205544065425e+04, -6.181396422024626e+02, 1.472341810352718e+04
957, 1.999999999999252e-04, 1.799999999997057e-03, 7.125339217843398e-05, -1.662333083524041e-05, -8.018908106343042e+01, -1.963223801536258e+04, -1.205505126800459e+03, 1.970014182619499e+04
958, -2.000000000000492e-04, 1.700000000003484e-03, 6.499029386051524e-05, 1.274934670785479e-05, 1.128058988171329e+02, 2.022580902114636e+04, 1.720650206455494e+03, 2.040527978565171e+04
959, -1.500000000001233e-04, 1.700000000002704e-03, 6.461030265443296e-05, 9.204924819242633e-06, 8.806206485643861e+01, 1.517980394541085e+04, 1.575858023237375e+03, 1.541732749301533e+04
960, -1.000000000002164e-04, 1.700000000001925e-03, 6.430166985588566e-05, 5.664404938478086e-06, 6.441758901281969e+01, 1.013268548903064e+04, 1.370474910848025e+03, 1.043469330797915e+04
961, -5.000000000030273e-05, 1.700000000001145e-03, 6.406456382886835e-05, 2.124788933488503e-06, 4.151618306487649e+01, 5.085188572985013e+03, 1.103883229353614e+03, 5.505711935166547e+03
962, -4.231031215488901e-16, 1.700000000000365e-03, 6.389913733524937e-05, -1.416938717251079e-06, 1.898646003368708e+01, 3.807093071663076e+01, 7.754587826053503e+02, 1.551034980617889e+03
963, 4.999999999963053e-05, 1.699999999999585e-03, 6.380552723623463e-05, -4.963811143388152e-06, -3.558270976400081e+00, -5.007886472943435e+03, 3.845709155491425e+02, 5.063089956671502e+03
964, 9.999999999971485e-05, 1.699999999998805e-03, 6.378385419003760e-05, -8.518879301682038e-06, -2.652028259486042e+01, -1.005187906009027e+04, -6.941737046591106e+01, 1.002632004789364e+04
965, 1.499999999998365e-04, 1.699999999998025e-03, 6.383422234549622e-05, -1.208521219587762e-05, -5.031771749467111e+01, -1.509307823101409e+04, -5.871493016245744e+02, 1.508852613997444e+04
966, 1.999999999999232e-04, 1.699999999997246e-03, 6.395671903115921e-05, -1.566589709714544e-05, -7.538477787830629e+01, -2.013063083455870e+04, -1.169274205168466e+03, 2.019112931614980e+04
967, -2.000000000000511e-04, 1.600000000003144e-03, 5.794443330548018e-05, 1.227792675810767e-05, 1.022690001918165e+02, 2.073349045251039e+04, 1.686221387436108e+03, 2.090503931793475e+04
968, -1.500000000001277e-04, 1.600000000002436e-03, 5.757054201913272e-05, 8.910508266256874e-06, 7.675152340488853e+01, 1.556344290854726e+04, 1.553613708480728e+03, 1.579533071130073e+04
969, -1.000000000002240e-04, 1.600000000001727e-03, 5.726971420664047e-05, 5.547237759154910e-06, 5.308922040293669e+01, 1.039158258735970e+04, 1.359689309376612e+03, 1.069015739691148e+04
970, -5.000000000031292e-05, 1.600000000001018e-03, 5.704214311959444e-05, 2.185080991250731e-06, 3.093390154403096e+01, 5.218636628753913e+03, 1.103800867563789e+03, 5.637886572718463e+03
971, -4.359339766338982e-16, 1.600000000000309e-03, 5.688800663877177e-05, -1.179014415964637e-06, 9.922176294482142e+00, 4.535558152318640e+01, 7.852938897994085e+02, 1.570987428221895e+03
972, 4.999999999962034e-05, 1.599999999999600e-03, 5.680746697166795e-05, -4.548119206233719e-06, -1.032487174983680e+01, -5.127486296305011e+03, 4.035068098086557e+02, 5.180406550378393e+03
973, 9.999999999970728e-05, 1.599999999998891e-03, 5.680067034691870e-05, -7.925322722915314e-06, -3.020200859413262e+01, -1.029909071592352e+04, -4.222893451033036e+01, 1.026923601905987e+04
974, 1.499999999998322e-04, 1.599999999998182e-03, 5.686774670491362e-05, -1.131373314565745e-05, -5.012018796809548e+01, -1.546863498936439e+04, -5.525888332912436e+02, 1.545807285387118e+04
975, 1.999999999999214e-04, 1.599999999997473e-03, 5.700880938400020e-05, -1.471647772930653e-05, -7.050691078716090e+01, -2.063527159324086e+04, -1.128255215306154e+03, 2.068819435736616e+04
976, -2.000000000000531e-04, 1.500000000002802e-03, 5.125874048559709e-05, 1.176431019085632e-05, 9.141532728511879e+01, 2.124756343128262e+04, 1.646745581038303e+03, 2.141097117444591e+04
977, -1.500000000001320e-04, 1.500000000002160e-03, 5.089051826979203e-05, 8.578214363836094e-06, 6.503348319044289e+01, 1.595202584795388e+04, 1.527555111352130e+03, 1.617807852839526e+04
978, -1.000000000002316e-04, 1.500000000001518e-03, 5.059708310949509e-05, 5.396529758323518e-06, 4.129887752305376e+01, 1.065394140391342e+04, 1.346330280448900e+03, 1.094890872594907e+04
979, -5.000000000032311e-05, 1.500000000000877e-03, 5.037865427742705e-05, 2.216186192565177e-06, 1.987232151838202e+01, 5.354028781425390e+03, 1.102393424753062e+03, 5.771855004287860e+03
980, -4.487512791917503e-16, 1.500000000000236e-03, 5.023543592337603e-05, -9.659054072103007e-07, 3.992729365509149e-01, 5.303070857263765e+01, 7.950591022117261e+02, 1.590988991808548e+03
981, 4.999999999961016e-05, 1.499999999999595e-03, 5.016761676740358e-05, -4.152853252311124e-06, -1.749046097340261e+01, -5.248285792411984e+03, 4.236342102071982e+02, 5.298970048568983e+03
982, 9.999999999969963e-05, 1.499999999998952e-03, 5.017536979141828e-05, -7.347784938542957e-06, -3.418312859933803e+01, -1.054912930827802e+04, -1.258196804964825e+01, 1.051497629028327e+04
983, 1.499999999998278e-04, 1.499999999998311e-03, 5.025885192983967e-05, -1.055384769808814e-05, -5.008149351441557e+01, -1.584868389572674e+04, -5.142977851853288e+02, 1.583205124772450e+04
984, 1.999999999999195e-04, 1.499999999997670e-03, 5.041820375626820e-05, -1.377420865811649e-05, -6.560529338817037e+01, -2.114610870360997e+04, -1.082229298333116e+03, 2.119133089367101e+04
985, -2.000000000000549e-04, 1.400000000002461e-03, 4.494221225545784e-05, 1.120901760171168e-05, 8.029312771138075e+01, 2.176797596906781e+04, 1.601993837580689e+03, 2.192307286969261e+04
986, -1.500000000001364e-04, 1.400000000001890e-03, 4.457918420715998e-05, 8.208614647341233e-06, 5.294014585932723e+01, 1.634551720841595e+04, 1.497506941297956e+03, 1.656557199423818e+04
987, -1.000000000002392e-04, 1.400000000001320e-03, 4.429268512409096e-05, 5.212904153987187e-06, 2.906375151794100e+01, 1.091974220118024e+04, 1.330277095605273e+03, 1.121095115047366e+04
988, -5.000000000033329e-05, 1.400000000000748e-03, 4.408296146248128e-05, 2.218780197730610e-06, 8.334542053479481e+00, 5.491360224052765e+03, 1.099595550831418e+03, 5.907623221829294e+03
989, -4.615719698813914e-16, 1.400000000000178e-03, 4.395024482143217e-05, -7.768828204056295e-07, -9.592376524275096e+00, 6.110551993181889e+01, 8.047451688708596e+02, 1.611042314728968e+03
990, 4.999999999959998e-05, 1.399999999999606e-03, 4.389475162673008e-05, -3.777230427866388e-06, -2.507759245283432e+01, -5.370262543340256e+03, 4.450006626971464e+02, 5.418773340747606e+03
991, 9.999999999969204e-05, 1.399999999999035e-03, 4.391668282025772e-05, -6.785428331111598e-06, -3.849780244414046e+01, -1.080195979411679e+04, 1.962866944107498e+01, 1.076353358265017e+04
992, 1.499999999998235e-04, 1.399999999998463e-03, 4.401622355335507e-05, -9.804662673887823e-06, -5.024636708042931e+01, -1.623317760893982e+04, -4.721124381411545e+02, 1.621045416377157e+04
993, 1.999999999999176e-04, 1.399999999997893e-03, 4.419354288308845e-05, -1.283814031379520e-05, -6.073384042552698e+01, -2.166308275918928e+04, -1.030972866705959e+03, 2.170053222885442e+04
994, -2.000000000000568e-04, 1.300000000002126e-03, 3.900396070889449e-05, 1.061266106104148e-05, 6.895468443320260e+01, 2.229466795877493e+04, 1.551731668111191e+03, 2.244134165402163e+04
995, -1.500000000001407e-04, 1.300000000001629e-03, 3.864560594716006e-05, 7.802371783835024e-06, 4.050596155416156e+01, 1.674387474058685e+04, 1.463289359104299e+03, 1.695781211012303e+04
996, -1.000000000002468e-04, 1.300000000001133e-03, 3.836554018375103e-05, 4.997074975457087e-06, 1.640173832734172e+01, 1.118896046319845e+04, 1.311405616915141e+03, 1.147628891362534e+04
997, -5.000000000034346e-05, 1.300000000000637e-03, 3.816403824961287e-05, 2.193629184307725e-06, -3.676456876830798e+00, 5.630624206062072e+03, 1.095339831950149e+03, 6.045198206032625e+03
998, -4.743892724392434e-16, 1.300000000000140e-03, 3.804136040221524e-05, -6.111275354365330e-07, -2.006324397860817e+01, 6.959064108617008e+01, 8.143423204334838e+02, 1.631150354352158e+03
999, 4.999999999958981e-05, 1.299999999999644e-03, 3.799775199924757e-05, -3.420377879779128e-06, -3.310956606239188e+01, -5.493389967801688e+03, 4.676548565571726e+02, 5.539807426712980e+03
1000, 9.999999999968445e-05, 1.299999999999148e-03, 3.803344317701666e-05, -6.237325529098524e-06, -4.318233185615918e+01, -1.105754176724026e+04, 5.451082556225106e+01, 1.101489897785035e+04
1001, 1.499999999998191e-04, 1.299999999998652e-03, 3.814864855253971e-05, -9.065195390938630e-06, -5.066421278870303e+01, -1.662206353813259e+04, -4.258649916313044e+02, 1.659327332277740e+04
1002, 1.999999999999157e-04, 1.299999999998155e-03, 3.834356693114788e-05, -1.190723388172573e-05, -5.595442081571105e+01, -2.218612934102970e+04, -9.742571168155794e+02, 2.221579054902012e+04
1003, -2.000000000000587e-04, 1.200000000001781e-03, 3.345321280454964e-05, 9.975948208767460e-06, 5.745936469054891e+01, 2.282757170512369e+04, 1.495719376515877e+03, 2.296577283282854e+04
1004, -1.500000000001450e-04, 1.200000000001350e-03, 3.309896254189708e-05, 7.360243642435755e-06, 2.776675545685544e+01, 1.714704474384944e+04, 1.424717561263536e+03, 1.735479643675932e+04
1005, -1.000000000002543e-04, 1.200000000000919e-03, 3.282477922054473e-05, 4.749851081817211e-06, 3.327861711821015e+00, 1.146155993367515e+04, 1.289586630028324e+03, 1.174492302743447e+04
1006, -5.000000000035367e-05, 1.200000000000488e-03, 3.263096722703449e-05, 2.141593786811607e-06, -1.616105090083579e+01, 5.771808638494492e+03, 1.089554208714706e+03, 6.184586212534413e+03
1007, -4.872353741173022e-16, 1.200000000000057e-03, 3.251781669408295e-05, -4.677263308903385e-07, -3.102502949222594e+01, 7.850169784398508e+01, 8.238380340842970e+02, 1.651312365852232e+03
1008, 4.999999999957962e-05, 1.199999999999626e-03, 3.248560316441811e-05, -3.081328962333989e-06, -4.160867398337155e+01, -5.617627705577264e+03, 4.916459528204216e+02, 5.662053621469518e+03
1009, 9.999999999967686e-05, 1.199999999999196e-03, 3.253458727927181e-05, -5.702455618787018e-06, -4.827239089888235e+01, -1.131581889023661e+04, 9.217644536077626e+01, 1.126905453456745e+04
1010, 1.499999999998148e-04, 1.199999999998765e-03, 3.266501444181171e-05, -8.334369844016585e-06, -5.138862366426156e+01, -1.701527911441711e+04, -3.753810908979017e+02, 1.698049541196810e+04
1011, 1.999999999999137e-04, 1.199999999998334e-03, 3.287711452099082e-05, -1.098035746693578e-05, -5.134000919773257e+01, -2.271518247966791e+04, -9.118460582048968e+02, 2.273709762616466e+04
1012, -2.000000000000607e-04, 1.100000000001707e-03, 2.829930990977322e-05, 9.299686518578626e-06, 4.587946163466631e+01, 2.336661442286565e+04, 1.433714418738119e+03, 2.349635774476485e+04
1013, -1.500000000001494e-04, 1.100000000001301e-03, 2.794854560071205e-05, 6.883087671835224e-06, 1.475571571925116e+01, 1.755494551063899e+04, 1.381602092264459e+03, 1.775650741016387e+04
1014, -1.000000000002619e-04, 1.100000000000895e-03, 2.767964393495319e-05, 4.472140517443126e-06, -1.015374888788779e+01, 1.173747039560058e+04, 1.264681086530779e+03, 1.201683594140666e+04
1015, -5.000000000036384e-05, 1.100000000000489e-03, 2.749293988006541e-05, 2.063633204418062e-06, -2.913111607728206e+01, 5.914882630058207e+03, 1.082153029417471e+03, 6.325782175395963e+03
1016, -5.000628410705213e-16, 1.100000000000083e-03, 2.738875447709162e-05, -3.456681440943984e-07, -4.249414694062330e+01, 8.786586436042808e+01, 8.332077176375593e+02, 1.671506546642750e+03
1017, 4.999999999956943e-05, 1.099999999999677e-03, 2.736739473949697e-05, -2.759019783464636e-06, -5.059408838218724e+01, -5.742896880109685e+03, 5.170191372670007e+02, 5.785459897528452e+03
1018, 9.999999999966927e-05, 1.099999999999272e-03, 2.742915330870208e-05, -5.179700717082673e-06, -5.379918510677362e+01, -1.157669081209263e+04, 1.327441941690873e+02, 1.152594965855756e+04
1019, 1.499999999998105e-04, 1.099999999998866e-03, 2.757430803519042e-05, -7.611013022869526e-06, -5.247620457307812e+01, -1.741273760102322e+04, -3.204720172177703e+02, 1.737208925283184e+04
1020, 1.999999999999118e-04, 1.099999999998460e-03, 2.780312136637885e-05, -1.005628207732801e-05, -4.698519261428032e+01, -2.325018944740815e+04, -8.434898604942748e+02, 2.326444902138692e+04
1021, -2.000000000000626e-04, 1.000000000002109e-03, 2.355170726190253e-05, 8.584787674593332e-06, 3.430888063348789e+01, 2.391172562306604e+04, 1.365479857036135e+03, 2.403308492998108e+04
1022, -1.500000000001537e-04, 1.000000000001674e-03, 2.320375895763781e-05, 6.371866039231875e-06, 1.508050372309981e+00, 1.796744336613229e+04, 1.333752314755684e+03, 1.816288558347864e+04
1023, -1.000000000002696e-04, 1.000000000001239e-03, 2.293948700654502e-05, 4.164955805725815e-06, -2.405244966866826e+01, 1.201654893777723e+04, 1.236530845023946e+03, 1.229195329856677e+04
1024, -5.000000000037402e-05, 1.000000000000804e-03, 2.275925717982022e-05, 1.960809839644866e-06, -4.261381684173375e+01, 6.059775323709744e+03, 1.073015201312850e+03, 6.468740195100931e+03
1025, -5.128852258260569e-16, 1.000000000000369e-03, 2.266342188704823e-05, -2.438406327007586e-07, -5.449901285155693e+01, 9.773163440339704e+01, 8.423909651147325e+02, 1.691645448192789e+03
1026, 4.999999999955924e-05, 9.999999999999337e-04, 2.265232066446244e-05, -2.452286788994205e-06, -6.009120251543777e+01, -5.869042212379548e+03, 5.438012925881486e+02, 5.909889272929183e+03
1027, 9.999999999966167e-05, 9.999999999994987e-04, 2.272628034934802e-05, -4.667843734220404e-06, -5.979559830942890e+01, -1.183996587222528e+04, 1.763429263333593e+02, 1.178544861229822e+04
1028, 1.499999999998061e-04, 9.999999999990637e-04, 2.288561380653191e-05, -6.893851859260032e-06, -5.399641747717396e+01, -1.781430919609210e+04, -2.609178054069251e+02, 1.776797744254945e+04
1029, 1.999999999999099e-04, 9.999999999986283e-04, 2.313061847309094e-05, -9.133677198714201e-06, -4.302012750093172e+01, -2.379114049504441e+04, -7.689082384821227e+02, 2.379785915808723e+04
1030, -2.000000000000644e-04, 9.000000000025380e-04, 1.921997412821292e-05, 7.832271846658789e-06, 2.286699813482937e+01, 2.446285549741883e+04, 1.290795321396340e+03, 2.457595670756459e+04
1031, -1.500000000001581e-04, 9.000000000020734e-04, 1.887411912883264e-05, 5.827652020174497e-06, -1.190646145527671e+01, 1.838436339092726e+04, 1.280981321851466e+03, 1.857380943881486e+04
1032, -1.000000000002772e-04, 9.000000000016087e-04, 1.861377304425933e-05, 3.829421049641263e-06, -3.831339420569589e+01, 1.229863133424553e+04, 1.204945918818492e+03, 1.257011471315874e+04
1033, -5.000000000038420e-05, 9.000000000011442e-04, 1.843933118276233e-05, 1.834294972148793e-06, -5.659989069596872e+01, 6.206417692456316e+03, 1.061959672300952e+03, 6.613351845263403e+03
1034, -5.256991402521199e-16, 9.000000000006796e-04, 1.835117579709137e-05, -1.610271743832398e-07, -6.708763554437701e+01, 1.081783269330197e+02, 8.512612770599301e+02, 1.711520144459288e+03
1035, 4.999999999954906e-05, 9.000000000002148e-04, 1.834968008944035e-05, -2.159866176768974e-06, -7.019741421734898e+01, -5.995858178487701e+03, 5.719826480289059e+02, 6.035073495144673e+03
1036, 9.999999999965402e-05, 8.999999999997502e-04, 1.843520808667191e-05, -4.165568410703926e-06, -6.638688016305946e+01, -1.210540699163559e+04, 2.231108579254296e+02, 1.204728679264078e+04
1037, 1.499999999998018e-04, 8.999999999992857e-04, 1.860811289955774e-05, -6.181511370833720e-06, -5.607056756187148e+01, -1.821984046491884e+04, -1.964470874426116e+02, 1.816801867889809e+04
1038, 1.999999999999080e-04, 8.999999999988212e-04, 1.886873108050418e-05, -8.211105494913149e-06, -3.961624664195006e+01, -2.433811842263448e+04, -6.877681814946217e+02, 2.433740553720999e+04
1039, -2.000000000000664e-04, 8.000000000027327e-04, 1.531379950146611e-05, 7.043270850166222e-06, 1.150136272866575e+01, 2.501982769834987e+04, 1.209412552846542e+03, 2.512502937313420e+04
1040, -1.500000000001624e-04, 8.000000000022627e-04, 1.496925935075238e-05, 5.251636215383499e-06, -2.519164956496365e+01, 1.880586045552686e+04, 1.223059533973316e+03, 1.898926069859634e+04
1041, -1.000000000002848e-04, 8.000000000017928e-04, 1.471208059415898e-05, 3.466778259353336e-06, -5.245838211425507e+01, 1.258415524366166e+04, 1.169716714912895e+03, 1.285134050205394e+04
1042, -5.000000000039436e-05, 8.000000000013229e-04, 1.454268363349802e-05, 1.685373833830900e-06, -7.071992785555312e+01, 6.355258783536904e+03, 1.048813505641286e+03, 6.759677616405334e+03
1043, -5.385198309417610e-16, 8.000000000008525e-04, 1.446147987754178e-05, -9.590404271744910e-08, -8.030988679644588e+01, 1.193162212684638e+02, 8.597261611542597e+02, 1.731001696045762e+03
1044, 4.999999999953886e-05, 8.000000000003829e-04, 1.446887587808520e-05, -1.880393013502630e-06, -8.138957014747962e+01, -6.123615221118726e+03, 6.015704916965259e+02, 6.160847266665106e+03
1045, 9.999999999964645e-05, 7.999999999999128e-04, 1.456527869701151e-05, -3.671458896022799e-06, -7.415718710947544e+01, -1.237337562106452e+04, 2.731901847511449e+02, 1.231134865050604e+04
1046, 1.499999999997974e-04, 7.999999999994429e-04, 1.475108713505046e-05, -5.472512575662778e-06, -5.907997354128156e+01, -1.862954608729569e+04, -1.267903722417626e+02, 1.857219736261904e+04
1047, 1.999999999999061e-04, 7.999999999989728e-04, 1.502668481512659e-05, -7.287015528325431e-06, -3.677810460882847e+01, -2.489116937350753e+04, -5.997201823324459e+02, 2.488331614829292e+04
1048, -2.000000000000683e-04, 7.000000000024487e-04, 1.184301839377999e-05, 6.219031312092391e-06, -6.701287572668662e-01, 2.558174248513408e+04, 1.120689773522781e+03, 2.568041310846267e+04
1049, -1.500000000001667e-04, 7.000000000020254e-04, 1.149894892695239e-05, 4.645118088871063e-06, -3.762127529415852e+01, 1.923371321926562e+04, 1.159416269338239e+03, 1.941034047984822e+04
1050, -1.000000000002923e-04, 7.000000000016023e-04, 1.124409917811279e-05, 3.078371687753421e-06, -6.439939402320920e+01, 1.287703836743297e+04, 1.130708254331945e+03, 1.313753462257289e+04
1051, -5.000000000040459e-05, 7.000000000011791e-04, 1.107892443605489e-05, 1.515433937036962e-06, -8.318828802947473e+01, 6.509539124429854e+03, 1.034035112280251e+03, 6.909484003071894e+03
1052, -5.513337453678241e-16, 7.000000000007558e-04, 1.100387215763129e-05, -4.703625997840962e-08, -9.411034134206284e+01, 1.312579242017434e+02, 8.685078653138427e+02, 1.751574863818916e+03
1053, 4.999999999952868e-05, 7.000000000003326e-04, 1.101939577700292e-05, -1.612381445785354e-06, -9.541910866412445e+01, -6.255412192667975e+03, 6.331317348305722e+02, 6.288794635665371e+03
1054, 9.999999999963887e-05, 6.999999999999092e-04, 1.112593867945514e-05, -3.183975780520684e-06, -8.532511165454321e+01, -1.264782791289263e+04, 3.267015764155415e+02, 1.257948378556307e+04
1055, 1.499999999997930e-04, 6.999999999994860e-04, 1.132394435229868e-05, -4.765255304605547e-06, -6.391607681559640e+01, -1.904536812132913e+04, -5.207370746138804e+01, 1.898173776033696e+04
1056, 1.999999999999042e-04, 6.999999999990628e-04, 1.161383814090472e-05, -6.359733899905839e-06, -3.367402846845744e+01, -2.544967138787077e+04, -5.047859887221547e+02, 2.543604052030870e+04
1057, -2.000000000000702e-04, 6.000000000020976e-04, 8.817691963444203e-06, 5.360923312817174e-06, -1.820167752021962e+01, 2.614374969683569e+04, 1.022155423250277e+03, 2.624170167026679e+04
1058, -1.500000000001711e-04, 6.000000000017323e-04, 8.473138921805800e-06, 4.009435226683622e-06, -4.711641505604621e+01, 1.967606245779817e+04, 1.087836757271923e+03, 1.984281583073558e+04
1059, -1.000000000003000e-04, 6.000000000013669e-04, 8.219607533416955e-06, 2.665521519648451e-06, -6.836861983163089e+01, 1.319280122719583e+04, 1.088311676618580e+03, 1.343861283516895e+04
1060, -5.000000000041474e-05, 6.000000000010013e-04, 8.057637349810028e-06, 1.325870611328915e-06, -8.902165813559009e+01, 6.681432610426153e+03, 1.020966886129546e+03, 7.071671975776178e+03
1061, -5.641662945187267e-16, 6.000000000006360e-04, 7.987828572436919e-06, -1.286910911325975e-08, -1.080177043845874e+02, 1.440248831844526e+02, 8.823214089713957e+02, 1.782551469345436e+03
1062, 4.999999999951849e-05, 6.000000000002706e-04, 8.010708112511649e-06, -1.354113011243319e-06, -1.166492042919276e+02, -6.403555868867485e+03, 6.698534497971839e+02, 6.428064248738131e+03
1063, 9.999999999963128e-05, 5.999999999999052e-04, 8.126734989579417e-06, -2.701314580224769e-06, -1.056213622552052e+02, -1.294468304405136e+04, 3.838811347485529e+02, 1.286199688117789e+04
1064, 1.499999999997888e-04, 5.999999999995398e-04, 8.336285416654174e-06, -4.057934549582386e-06, -7.303230678041768e+01, -1.947592331633265e+04, 2.557829765690440e+01, 1.940295844776788e+04
1065, 1.999999999999023e-04, 5.999999999991742e-04, 8.639783356006774e-06, -5.427462437203086e-06, -2.581748314928518e+01, -2.600899034962810e+04, -4.049182499002983e+02, 2.599579018544600e+04
1066, -2.000000000000721e-04, 5.000000000017480e-04, 6.248236624884159e-06, 4.470514448493108e-06, -4.880176249983288e+01, 2.669634246102875e+04, 9.056684242988213e+02, 2.680641118681186e+04
1067, -1.500000000001754e-04, 5.000000000014432e-04, 5.902051329185854e-06, 3.345684001374376e-06, -5.015571462605612e+01, 2.015710474900465e+04, 1.001921910148616e+03, 2.030637253428480e+04
1068, -1.000000000003076e-04, 5.000000000011384e-04, 5.648325708211086e-06, 2.229061650547193e-06, -5.874563240414955e+01, 1.356787289071370e+04, 1.044602195379013e+03, 1.378584445585184e+04
1069, -5.000000000042491e-05, 5.000000000008338e-04, 5.488071143078375e-06, 1.117742740400566e-06, -8.350279893003653e+01, 6.897462119478967e+03, 1.021878513510228e+03, 7.273981989086356e+03
1070, -5.769852911424733e-16, 5.000000000005289e-04, 5.422340449063342e-06, 8.289739071867799e-09, -1.209853524275281e+02, 1.569864886130354e+02, 9.171849136397119e+02, 1.855311566191680e+03
1071, 4.999999999950832e-05, 5.000000000002242e-04, 5.451976605831698e-06, -1.103257663783846e-06, -1.477010269767184e+02, -6.595421225253834e+03, 7.233962180477956e+02, 6.608048434175864e+03
1072, 9.999999999962365e-05, 4.999999999999196e-04, 5.577208778289427e-06, -2.220907949326571e-06, -1.396019897647307e+02, -1.330116296605158e+04, 4.458457168084900e+02, 1.319173229508933e+04
1073, 1.499999999997844e-04, 4.999999999996149e-04, 5.798045091251135e-06, -3.348233680864767e-06, -9.020946632122173e+01, -1.994640098447167e+04, 9.892309417496165e+01, 1.985717715889433e+04
1074, 1.999999999999003e-04, 4.999999999993100e-04, 6.114524279135979e-06, -4.488333427190616e-06, -5.849480209695002e+00, -2.655991877701877e+04, -3.082991658127680e+02, 2.656122718780708e+04
1075, -2.000000000000740e-04, 4.000000000013997e-04, 4.145370819963349e-06, 3.549677821491908e-06, -1.045450135430256e+02, 2.722131441105201e+04, 7.515400182940391e+02, 2.736716724268551e+04
1076, -1.500000000001797e-04, 4.000000000011572e-04, 3.795815911392519e-06, 2.653996020526714e-06, -3.211949300854303e+01, 2.074171329324967e+04, 8.892136565670633e+02, 2.084981852054156e+04
1077, -1.000000000003152e-04, 4.000000000009148e-04, 3.539488470311037e-06, 1.768348856994811e-06, -4.926882396883775e+01, 1.404666895433451e+04, 1.010280232788446e+03, 1.424001848470892e+04
1078, -5.000000000043512e-05, 4.000000000006724e-04, 3.378469127922949e-06, 8.910896855507143e-07, -1.245264804059739e+02, 7.126762561812664e+03, 1.062873662190449e+03, 7.556453828411355e+03
1079, -5.898025937003254e-16, 4.000000000004300e-04, 3.315380252505869e-06, 1.830335080053946e-08, -1.323469820565556e+02, 1.671632662207016e+02, 1.005482146844488e+03, 2.033146275926823e+03
1080, 4.999999999949812e-05, 4.000000000001875e-04, 3.351430892119780e-06, -8.561252709992664e-07, -1.281191226348460e+02, -6.804035160055595e+03, 8.193537641597451e+02, 6.874097562739602e+03
1081, 9.999999999961606e-05, 3.999999999999452e-04, 3.486536390837282e-06, -1.738372260024516e-06, -1.684908573020307e+02, -1.376147432531438e+04, 5.217252396068247e+02, 1.363297430732664e+04
1082, 1.499999999997800e-04, 3.999999999997027e-04, 3.719215760239717e-06, -2.632525444522991e-06, -1.279220743032558e+02, -2.052219226836926e+04, 1.531488752482525e+02, 2.039657017884448e+04
1083, 1.999999999998984e-04, 3.999999999994603e-04, 4.048521655216628e-06, -3.540467230094431e-06, 3.733583159619161e+01, -2.708558562120202e+04, -2.364010356321334e+02, 2.712704204172016e+04
1084, -2.000000000000760e-04, 3.000000000010516e-04, 2.517853547515831e-06, 2.600922231727079e-06, -4.863707544798126e+01, 2.786035660250041e+04, 5.412432578814052e+02, 2.792997861031354e+04
1085, -1.500000000001842e-04, 3.000000000008717e-04, 2.162852615101722e-06, 1.932098819577711e-06, -3.613725141339046e+01, 2.143490357452059e+04, 7.723784785903256e+02, 2.152653869542621e+04
1086, -1.000000000003227e-04, 3.000000000006917e-04, 1.899986677884788e-06, 1.280600778801772e-06, -3.714414912955790e+02, 1.424577711794085e+04, 1.018607245975311e+03, 1.475850001715694e+04
1087, -5.000000000044532e-05, 3.000000000005118e-04, 1.736499025940116e-06, 6.460195643393630e-07, -3.135048891115907e+02, 7.199477529765099e+03, 1.160102285974204e+03, 7.863094434256818e+03
1088, -6.026207432911247e-16, 3.000000000003319e-04, 1.675066113334270e-06, 1.927937784898875e-08, -1.439274675382308e+02, 1.676438089153328e+02, 1.143747610008362e+03, 2.308616694453685e+03
1089, 4.999999999948792e-05, 3.000000000001520e-04, 1.716818890134490e-06, -6.086270316451724e-07, 4.071191416558850e+01, -6.873819495602147e+03, 9.744890464820744e+02, 7.183958534367996e+03
1090, 9.999999999960845e-05, 2.999999999999720e-04, 1.861768809816861e-06, -1.246752956996652e-06, 1.432622790593100e+02, -1.394902713358694e+04, 6.449133606316168e+02, 1.415119337231550e+04
1091, 1.499999999997756e-04, 2.999999999997920e-04, 2.108366737919598e-06, -1.904345004102991e-06, -1.267475419724569e+02, -2.119971805694918e+04, 2.073380157191356e+02, 2.107705013838815e+04
1092, 1.999999999998966e-04, 2.999999999996122e-04, 2.450565991505973e-06, -2.582143954044558e-06, -3.095049941509819e+01, -2.772875400815254e+04, -2.145317593575250e+02, 2.770112659643504e+04
1093, -2.000000000000778e-04, 2.000000000007014e-04, 1.361557609163771e-06, 1.624453747040070e-06, 3.266886566922074e+02, 2.873653312648559e+04, 4.165573281050775e+02, 2.842205732926880e+04
1094, -1.500000000001885e-04, 2.000000000005817e-04, 9.970934950306134e-07, 1.177628307486545e-06, -1.449689548526992e+03, 2.020167913238160e+04, 8.006699522828878e+02, 2.171050564235168e+04
1095, -1.000000000003304e-04, 2.000000000004620e-04, 7.351401978908550e-07, 7.731874447473413e-07, -1.083821266329049e+03, 1.339451789615694e+04, 1.061435936658510e+03, 1.463314354110203e+04
1096, -5.000000000045550e-05, 2.000000000003424e-04, 5.758435004006293e-07, 3.888474387184030e-07, -6.167608330821818e+02, 6.751399846397620e+03, 1.107528744974117e+03, 7.693911325353838e+03
1097, -6.154388928819240e-16, 2.000000000002227e-04, 5.182000137869656e-07, 1.376753063199511e-08, -1.604492466387233e+02, 1.433022135867946e+02, 1.075002944554383e+03, 2.171356781551920e+03
1098, 4.999999999947777e-05, 2.000000000001030e-04, 5.620924793323041e-07, -3.620127052882805e-07, 3.138657449210045e+02, -6.471996723263528e+03, 9.815482091754122e+02, 7.064111903477839e+03
1099, 9.999999999960084e-05, 1.999999999999833e-04, 7.086970001692582e-07, -7.485021276777592e-07, 8.358891324089395e+02, -1.313569479053595e+04, 8.062301001068345e+02, 1.406432313384349e+04
1100, 1.499999999997714e-04, 1.999999999998636e-04, 9.601134063413124e-07, -1.156620624522764e-06, 1.298047898560838e+03, -1.996719366553077e+04, 4.090193309546732e+02, 2.128097004442109e+04
1101, 1.999999999998946e-04, 1.999999999997439e-04, 1.317222421985076e-06, -1.608790814489080e-06, -3.895932437310146e+02, -2.858825911962614e+04, -1.182693168709982e+02, 2.819965793596839e+04
1102, -2.000000000000798e-04, 1.000000000003506e-04, 5.996233674067595e-07, 6.264456985247175e-07, -8.999156381851493e+03, 1.601165980421601e+04, 1.676526616630153e+03, 2.523457731523026e+04
1103, -1.500000000001928e-04, 1.000000000002906e-04, 2.827501819394120e-07, 4.510403459334371e-07, -4.210978236998106e+03, 1.350280342800312e+04, 1.352583822998465e+03, 1.791915156664182e+04
1104, -1.000000000003380e-04, 1.000000000002307e-04, 7.021106532531506e-08, 2.938483560630283e-07, -1.768891466277507e+03, 9.689198338483551e+03, 5.270436552155232e+02, 1.150647304920066e+04
1105, -5.000000000046567e-05, 1.000000000001708e-04, -5.399514610439115e-08, 1.475173090205046e-07, -6.927330887185677e+02, 5.038910639527713e+03, 3.593713002799859e+00, 5.731648234725986e+03
1106, -6.282434899455673e-16, 1.000000000001108e-04, -9.742631696517290e-08, 5.340584478557577e-09, -1.612778923941210e+02, 6.897216208314831e+01, -2.024962772241779e+02, 4.658691412246468e+02
1107, 4.999999999946757e-05, 1.000000000000509e-04, -6.225767215674978e-08, -1.371517054759643e-07, 3.785096843006463e+02, -4.911361705922180e+03, -7.711939697334901e+01, 5.292119512128964e+03
1108, 9.999999999959325e-05, 9.999999999999091e-05, 5.436580340967360e-08, -2.844737999275612e-07, 1.486603995809756e+03, -9.588729104747916e+03, 3.625166367365498e+02, 1.109903944203964e+04
1109, 1.499999999997670e-04, 9.999999999993101e-05, 2.607900652453848e-07, -4.434954065317850e-07, 4.014760028972404e+03, -1.342531431533798e+04, 1.098881270231649e+03, 1.757800766069173e+04
1110, 1.999999999998927e-04, 9.999999999987105e-05, 5.741316192011527e-07, -6.215271361263187e-07, 8.975914326276094e+03, -1.590349374770290e+04, 1.309840612184310e+03, 2.501694777203807e+04
