"PointID","x","y","Displacement_x","Displacement_y","Sxx","Syy","Sxy","Von_Mises_Stress"
0, -2.500000000000000e-04, 0.000000000000000e+00, 0.000000000000000e+00, 0.000000000000000e+00, 4.316948102730799e+04, 5.275500954579042e+04, 5.424856051352211e+03, 1.447752084060701e+04
1, 2.500000000000000e-04, 0.000000000000000e+00, 0.000000000000000e+00, 0.000000000000000e+00, -4.361074778084361e+04, -5.330821205132685e+04, 5.320364199773459e+03, 1.439673275956124e+04
2, 2.500000000000000e-04, 1.000000000000000e-02, 8.319331773166138e-04, -6.756014605568020e-05, 2.037098785829674e+01, 1.728566732513389e+01, 2.976750768230337e+00, 6.705474132154705e+00
3, -2.500000000000000e-04, 1.000000000000000e-02, 8.350613003338097e-04, -1.174620354405069e-05, 1.093178920589057e+01, 3.974865137956144e+01, 3.309597030135518e+00, 2.956730078217947e+01
4, -2.000000000000817e-04, 0.000000000000000e+00, 0.000000000000000e+00, 0.000000000000000e+00, 2.915535136046163e+04, 3.563071585394475e+04, 3.089162886779154e+03, 8.949975122181997e+03
5, -1.500000000001972e-04, 0.000000000000000e+00, 0.000000000000000e+00, 0.000000000000000e+00, 2.098739514056496e+04, 2.565441228601213e+04, 1.444768024150287e+03, 5.489122663078880e+03
6, -1.000000000003456e-04, 0.000000000000000e+00, 0.000000000000000e+00, 0.000000000000000e+00, 1.366187741435866e+04, 1.670003389591027e+04, 3.445719359635958e+02, 3.115335308214642e+03
7, -5.000000000047588e-05, 0.000000000000000e+00, 0.000000000000000e+00, 0.000000000000000e+00, 6.834598034014452e+03, 8.353254382657075e+03, -2.953672267455703e+02, 1.629504311075615e+03
8, -6.410887445906788e-16, 0.000000000000000e+00, 0.000000000000000e+00, 0.000000000000000e+00, 1.919040630598593e+02, 2.333143269926107e+02, -5.149514638666687e+02, 1.030735102008601e+03
9, 4.999999999945738e-05, 0.000000000000000e+00, 0.000000000000000e+00, 0.000000000000000e+00, -6.474797152009780e+03, -7.913886982458787e+03, -3.261039753659996e+02, 1.579985680662891e+03
10, 9.999999999958566e-05, 0.000000000000000e+00, 0.000000000000000e+00, 0.000000000000000e+00, -1.337524027742139e+04, -1.634539962360397e+04, 2.853038934129115e+02, 3.024473472871265e+03
11, 1.499999999997626e-04, 0.000000000000000e+00, 0.000000000000000e+00, 0.000000000000000e+00, -2.082799021241665e+04, -2.545306773615504e+04, 1.361724096081858e+03, 5.367356160717282e+03
12, 1.999999999998909e-04, 0.000000000000000e+00, 0.000000000000000e+00, 0.000000000000000e+00, -2.917026238416726e+04, -3.565541692826590e+04, 2.990672414359062e+03, 8.822341833145920e+03
13, 2.500000000000000e-04, 9.999999999981111e-05, 6.708341970720562e-07, -6.069316982584114e-07, 2.321933189954764e+03, -1.788979820285720e+04, 1.348304427010141e+03, 2.039082600599498e+04
14, 2.500000000000000e-04, 1.999999999996242e-04, 1.151686695017585e-06, -1.369944231505938e-06, -4.673465342492003e+03, -2.598483764153686e+04, -2.225681410483660e+02, 2.131602063186597e+04
15, 2.500000000000000e-04, 2.999999999994322e-04, 1.894680755528703e-06, -2.142298996682817e-06, -4.980494526350984e+03, -2.638835327161201e+04, -1.643044132304241e+02, 2.141038065560435e+04
16, 2.500000000000000e-04, 3.999999999992179e-04, 2.937716873329620e-06, -2.919931653492710e-06, -5.430954196095032e+03, -2.663584138361780e+04, -1.915197685025313e+02, 2.120834646837128e+04
17, 2.500000000000000e-04, 4.999999999990053e-04, 4.286918010790353e-06, -3.690337551951098e-06, -5.445704780911610e+03, -2.627687529900768e+04, -2.337247089883631e+02, 2.083641461749985e+04
18, 2.500000000000000e-04, 5.999999999988090e-04, 5.937312580764342e-06, -4.450762682834325e-06, -5.368459390440526e+03, -2.577471703933831e+04, -2.857053854136038e+02, 2.041425632988419e+04
19, 2.500000000000000e-04, 6.999999999986395e-04, 7.882593057841966e-06, -5.201009265875705e-06, -5.259471945878456e+03, -2.523171068935589e+04, -3.369319654217288e+02, 1.998360360454922e+04
20, 2.500000000000000e-04, 7.999999999985029e-04, 1.011640786725250e-05, -5.941809504239870e-06, -5.146850615258063e+03, -2.468806974261737e+04, -3.851924512894168e+02, 1.955639889861103e+04
21, 2.500000000000000e-04, 8.999999999983563e-04, 1.263259685460716e-05, -6.674028577126771e-06, -5.035566549887377e+03, -2.415081638884657e+04, -4.299110629911518e+02, 1.913457787603787e+04
22, 2.500000000000000e-04, 9.999999999981935e-04, 1.542513221223169e-05, -7.398494576726749e-06, -4.926356891719826e+03, -2.362053905506959e+04, -4.711793637930256e+02, 1.871791886743722e+04
23, 2.500000000000000e-04, 1.099999999998054e-03, 1.848807370071726e-05, -8.115970556572118e-06, -4.818871746568374e+03, -2.309660695897406e+04, -5.091577878257077e+02, 1.830608016770464e+04
24, 2.500000000000000e-04, 1.199999999997903e-03, 2.181554834077749e-05, -8.827163210478492e-06, -4.712862787196884e+03, -2.257866669516177e+04, -5.439966070983128e+02, 1.789890160071258e+04
25, 2.500000000000000e-04, 1.299999999997659e-03, 2.540174508061493e-05, -9.532730865544556e-06, -4.608211816648423e+03, -2.206660265036144e+04, -5.758264941875643e+02, 1.749633433346277e+04
26, 2.500000000000000e-04, 1.399999999997322e-03, 2.924091429328822e-05, -1.023328800790763e-05, -4.504870565212428e+03, -2.156040585970235e+04, -6.047685106279469e+02, 1.709837021436196e+04
27, 2.500000000000000e-04, 1.499999999997028e-03, 3.332736829739761e-05, -1.092940774667113e-05, -4.402812451218382e+03, -2.106009454281115e+04, -6.309389080973674e+02, 1.670501069445637e+04
28, 2.500000000000000e-04, 1.599999999996764e-03, 3.765548183950339e-05, -1.162162356546687e-05, -4.302017402057056e+03, -2.056569002935517e+04, -6.544508020774155e+02, 1.631625786561627e+04
29, 2.500000000000000e-04, 1.699999999996466e-03, 4.221969246426153e-05, -1.231043091062722e-05, -4.202467087564595e+03, -2.007721061455389e+04, -6.754148495406346e+02, 1.593211294598455e+04
30, 2.500000000000000e-04, 1.799999999996210e-03, 4.701450079561514e-05, -1.299628870553194e-05, -4.104142887374006e+03, -1.959467000458756e+04, -6.939392877453531e+02, 1.555257654890130e+04
31, 2.500000000000000e-04, 1.899999999995898e-03, 5.203447068645110e-05, -1.367962085535878e-05, -4.007031674029332e+03, -1.911808318017137e+04, -7.101295963297350e+02, 1.517764849361096e+04
32, 2.500000000000000e-04, 1.999999999995521e-03, 5.727422956566140e-05, -1.436081775649632e-05, -3.911116063633151e+03, -1.864745814094145e+04, -7.240891332018432e+02, 1.480732920248385e+04
33, 2.500000000000000e-04, 2.099999999995151e-03, 6.272846846249907e-05, -1.504023770349521e-05, -3.816384595954071e+03, -1.818280475327035e+04, -7.359185172696046e+02, 1.444161806698905e+04
34, 2.500000000000000e-04, 2.199999999994897e-03, 6.839194227307421e-05, -1.571820834189371e-05, -3.722824855667242e+03, -1.772412956077646e+04, -7.457159549192588e+02, 1.408051499722216e+04
35, 2.500000000000000e-04, 2.299999999994653e-03, 7.425946988192849e-05, -1.639502803556571e-05, -3.630424314227011e+03, -1.727143617114687e+04, -7.535774560388072e+02, 1.372401983420411e+04
36, 2.500000000000000e-04, 2.399999999994409e-03, 8.032593418640754e-05, -1.707096721041565e-05, -3.539177358980845e+03, -1.682473167248786e+04, -7.595963422175967e+02, 1.337213146172240e+04
37, 2.500000000000000e-04, 2.499999999994080e-03, 8.658628240102070e-05, -1.774626969357377e-05, -3.449076523407000e+03, -1.638401994034984e+04, -7.638631762498730e+02, 1.302484967313001e+04
38, 2.500000000000000e-04, 2.599999999993751e-03, 9.303552618969389e-05, -1.842115402001300e-05, -3.360111704217231e+03, -1.594930024503619e+04, -7.664668423198248e+02, 1.268217464781928e+04
39, 2.500000000000000e-04, 2.699999999993507e-03, 9.966874160307629e-05, -1.909581463982661e-05, -3.272278548666625e+03, -1.552057456058302e+04, -7.674936813074353e+02, 1.234410553255741e+04
40, 2.500000000000000e-04, 2.799999999993264e-03, 1.064810692610644e-04, -1.977042317104044e-05, -3.185574099970610e+03, -1.509784447724441e+04, -7.670274452409310e+02, 1.201064152942241e+04
41, 2.500000000000000e-04, 2.899999999993009e-03, 1.134677145443239e-04, -2.044512958243507e-05, -3.099991724964704e+03, -1.468110688656636e+04, -7.651497442622307e+02, 1.168178260844029e+04
42, 2.500000000000000e-04, 2.999999999992623e-03, 1.206239474999715e-04, -2.112006335259158e-05, -3.015534062459316e+03, -1.427036505371691e+04, -7.619396744432778e+02, 1.135752741188571e+04
43, 2.500000000000000e-04, 3.099999999992220e-03, 1.279451032162877e-04, -2.179533462199532e-05, -2.932193528933493e+03, -1.386561249801692e+04, -7.574742573506760e+02, 1.103787657820603e+04
44, 2.500000000000000e-04, 3.199999999991949e-03, 1.354265816134706e-04, -2.247103527002359e-05, -2.849969743331723e+03, -1.346684712061733e+04, -7.518287062344566e+02, 1.072282942410219e+04
45, 2.500000000000000e-04, 3.299999999991705e-03, 1.430638475846314e-04, -2.314723997877835e-05, -2.768862679847249e+03, -1.307406598118109e+04, -7.450756925059425e+02, 1.041238523260039e+04
46, 2.500000000000000e-04, 3.399999999991461e-03, 1.508524310991233e-04, -2.382400727764417e-05, -2.688873160663119e+03, -1.268726620520288e+04, -7.372854327330252e+02, 1.010654355902068e+04
47, 2.500000000000000e-04, 3.499999999991149e-03, 1.587879273278648e-04, -2.450138057632495e-05, -2.609997095764007e+03, -1.230643952904056e+04, -7.285266744766752e+02, 9.805304703248254e+03
48, 2.500000000000000e-04, 3.599999999990803e-03, 1.668659964677134e-04, -2.517938909061558e-05, -2.532237455204179e+03, -1.193158247738562e+04, -7.188660251153561e+02, 9.508667640330455e+03
49, 2.500000000000000e-04, 3.699999999990560e-03, 1.750823638686200e-04, -2.585804882525212e-05, -2.455602754280999e+03, -1.156269568117299e+04, -7.083672726155637e+02, 9.216630531311179e+03
50, 2.500000000000000e-04, 3.799999999990315e-03, 1.834328204351048e-04, -2.653736350780297e-05, -2.380087483649972e+03, -1.119976736640076e+04, -6.970923763702502e+02, 8.929193936687285e+03
51, 2.500000000000000e-04, 3.899999999990071e-03, 1.919132222855743e-04, -2.721732545638463e-05, -2.305693675198226e+03, -1.084279112445637e+04, -6.851019349934002e+02, 8.646357123289359e+03
52, 2.500000000000000e-04, 3.999999999989709e-03, 2.005194908240431e-04, -2.789791644560833e-05, -2.232424586679143e+03, -1.049176101450677e+04, -6.724542438150231e+02, 8.368119087832092e+03
53, 2.500000000000000e-04, 4.099999999989249e-03, 2.092476128340566e-04, -2.857910854855727e-05, -2.160282052295166e+03, -1.014666941764398e+04, -6.592056961893552e+02, 8.094479090649202e+03
54, 2.500000000000000e-04, 4.199999999988788e-03, 2.180936404396072e-04, -2.926086494444859e-05, -2.089269306093392e+03, -9.807509803197378e+03, -6.454108704716459e+02, 7.825436546163280e+03
55, 2.500000000000000e-04, 4.299999999988333e-03, 2.270536911380368e-04, -2.994314073111786e-05, -2.019391515659991e+03, -9.474277415843993e+03, -6.311222961215474e+02, 7.560991019397468e+03
56, 2.500000000000000e-04, 4.399999999988144e-03, 2.361239479485758e-04, -3.062588370486991e-05, -1.950647067888929e+03, -9.146961226232866e+03, -6.163912703850577e+02, 7.301143078889019e+03
57, 2.500000000000000e-04, 4.499999999988117e-03, 2.453006591620586e-04, -3.130903504647596e-05, -1.883045151415787e+03, -8.825558823098079e+03, -6.012668082155112e+02, 7.045891226817385e+03
58, 2.500000000000000e-04, 4.599999999988090e-03, 2.545801386758831e-04, -3.199253007685909e-05, -1.816588955068550e+03, -8.510062475632887e+03, -5.857957480536215e+02, 6.795234683529829e+03
59, 2.500000000000000e-04, 4.699999999988035e-03, 2.639587659984230e-04, -3.267629890003969e-05, -1.751277010669068e+03, -8.200460878990398e+03, -5.700236651022117e+02, 6.549174030557007e+03
60, 2.500000000000000e-04, 4.799999999987717e-03, 2.734329859245137e-04, -3.336026711095763e-05, -1.687120368973488e+03, -7.896752904688170e+03, -5.539949685908771e+02, 6.307707818970563e+03
61, 2.500000000000000e-04, 4.899999999987257e-03, 2.829993089399296e-04, -3.404435640879876e-05, -1.624117441615644e+03, -7.598926612082142e+03, -5.377517003220662e+02, 6.070836201734293e+03
62, 2.500000000000000e-04, 4.999999999986965e-03, 2.926543110140292e-04, -3.472848520556787e-05, -1.562273281794202e+03, -7.306975658433046e+03, -5.213343899621254e+02, 5.838558347810588e+03
63, 2.500000000000000e-04, 5.099999999987202e-03, 3.023946336863835e-04, -3.541256922677157e-05, -1.501591710058679e+03, -7.020892441210529e+03, -5.047820554561771e+02, 5.610873395019316e+03
64, 2.500000000000000e-04, 5.199999999987608e-03, 3.122169840376546e-04, -3.609652205900119e-05, -1.442077554594780e+03, -6.740670095048647e+03, -4.881320116037076e+02, 5.387780095063503e+03
65, 2.500000000000000e-04, 5.299999999988015e-03, 3.221181347605482e-04, -3.678025570889230e-05, -1.383732052394644e+03, -6.466298854836890e+03, -4.714202442131040e+02, 5.169277849748820e+03
66, 2.500000000000000e-04, 5.399999999988211e-03, 3.320949240395953e-04, -3.746368111237411e-05, -1.326559063611547e+03, -6.197771126342687e+03, -4.546814152881868e+02, 4.955365548345676e+03
67, 2.500000000000000e-04, 5.499999999988184e-03, 3.421442555588203e-04, -3.814670864231920e-05, -1.270564096744463e+03, -5.935080851985487e+03, -4.379484419745297e+02, 4.746041709807861e+03
68, 2.500000000000000e-04, 5.599999999988157e-03, 3.522630986133150e-04, -3.882924859708422e-05, -1.215749556900600e+03, -5.678219541746485e+03, -4.212525907197358e+02, 4.541305246997033e+03
69, 2.500000000000000e-04, 5.699999999988293e-03, 3.624484880759409e-04, -3.951121165674841e-05, -1.162118049951956e+03, -5.427178518382570e+03, -4.046239182836623e+02, 4.341154553843766e+03
70, 2.500000000000000e-04, 5.799999999988694e-03, 3.726975243497157e-04, -4.019250929379002e-05, -1.109673283827564e+03, -5.181949788259100e+03, -3.880912245110920e+02, 4.145587427942535e+03
71, 2.500000000000000e-04, 5.899999999989099e-03, 3.830073733137154e-04, -4.087305419393029e-05, -1.058417928972624e+03, -4.942525153888307e+03, -3.716822707923619e+02, 3.954602353755390e+03
72, 2.500000000000000e-04, 5.999999999989505e-03, 3.933752662582698e-04, -4.155276068865296e-05, -1.008356355071079e+03, -4.708898926095312e+03, -3.554233750953094e+02, 3.768198299216644e+03
73, 2.500000000000000e-04, 6.099999999989911e-03, 4.037985000106291e-04, -4.223154517771404e-05, -9.594895082857313e+02, -4.481062888912313e+03, -3.393394340886487e+02, 3.586374782597066e+03
74, 2.500000000000000e-04, 6.199999999990317e-03, 4.142744368997306e-04, -4.290932646833348e-05, -9.118235535031781e+02, -4.259012796709662e+03, -3.234534372486152e+02, 3.409129556662372e+03
75, 2.500000000000000e-04, 6.299999999990723e-03, 4.248005049449160e-04, -4.358602611720602e-05, -8.653516774406716e+02, -4.042733015032208e+03, -3.077883356190471e+02, 3.236462081138531e+03
76, 2.500000000000000e-04, 6.399999999990975e-03, 4.353741972511527e-04, -4.426156868607542e-05, -8.200878039626166e+02, -3.832224213856676e+03, -2.923655361132165e+02, 3.068367021501265e+03
77, 2.500000000000000e-04, 6.499999999990961e-03, 4.459930726458328e-04, -4.493588207108137e-05, -7.760302331346149e+02, -3.627473504879343e+03, -2.772039326544454e+02, 2.904840238824614e+03
78, 2.500000000000000e-04, 6.599999999990934e-03, 4.566547555112245e-04, -4.560889772823933e-05, -7.331713735252935e+02, -3.428463910707317e+03, -2.623222793416500e+02, 2.745879417225947e+03
79, 2.500000000000000e-04, 6.699999999991035e-03, 4.673569351620940e-04, -4.628055100325174e-05, -6.915255962509419e+02, -3.235196018280511e+03, -2.477392975408529e+02, 2.591478005712614e+03
80, 2.500000000000000e-04, 6.799999999991401e-03, 4.780973663824057e-04, -4.695078133169062e-05, -6.510873237469195e+02, -3.047654230573098e+03, -2.334713157579426e+02, 2.441632314666026e+03
81, 2.500000000000000e-04, 6.899999999991809e-03, 4.888738691013571e-04, -4.761953253259717e-05, -6.118614294512142e+02, -2.865832974782817e+03, -2.195332485750112e+02, 2.296337761759826e+03
82, 2.500000000000000e-04, 6.999999999992214e-03, 4.996843286848656e-04, -4.828675307665773e-05, -5.738345864738945e+02, -2.689712387174354e+03, -2.059402594332805e+02, 2.155593753312251e+03
83, 2.500000000000000e-04, 7.099999999992620e-03, 5.105266950525390e-04, -4.895239626761631e-05, -5.370185451946411e+02, -2.519292846125974e+03, -1.927076541978774e+02, 2.019395049037855e+03
84, 2.500000000000000e-04, 7.199999999993026e-03, 5.213989831574631e-04, -4.961642045043449e-05, -5.014277385035466e+02, -2.354575922116336e+03, -1.798466873398112e+02, 1.887733433039685e+03
85, 2.500000000000000e-04, 7.299999999993359e-03, 5.322992737449888e-04, -5.027878917443906e-05, -4.670323594015625e+02, -2.195527503746277e+03, -1.673687399237031e+02, 1.760609168565769e+03
86, 2.500000000000000e-04, 7.399999999993427e-03, 5.432257117304831e-04, -5.093947135052285e-05, -4.338549385477179e+02, -2.042155195378060e+03, -1.552858087094688e+02, 1.638012346005597e+03
87, 2.500000000000000e-04, 7.499999999993399e-03, 5.541765072862401e-04, -5.159844135230788e-05, -4.018871294647494e+02, -1.894437587964748e+03, -1.436072799658667e+02, 1.519933904683139e+03
88, 2.500000000000000e-04, 7.599999999993372e-03, 5.651499353477356e-04, -5.225567898126982e-05, -3.711342405586041e+02, -1.752362758090485e+03, -1.323397212884571e+02, 1.406359635714188e+03
89, 2.500000000000000e-04, 7.699999999993440e-03, 5.761443360328465e-04, -5.291116961726269e-05, -3.415751974100456e+02, -1.615897985287520e+03, -1.214898364524421e+02, 1.297280882904232e+03
90, 2.500000000000000e-04, 7.799999999993771e-03, 5.871581133412228e-04, -5.356490431072201e-05, -3.132041243073127e+02, -1.485026402477019e+03, -1.110671492750274e+02, 1.192690696789057e+03
91, 2.500000000000000e-04, 7.899999999994177e-03, 5.981897346779789e-04, -5.421688007636342e-05, -2.860458255834975e+02, -1.359755484236568e+03, -1.010802616128952e+02, 1.092575538915191e+03
92, 2.500000000000000e-04, 7.999999999994584e-03, 6.092377321109615e-04, -5.486709986300671e-05, -2.600840396871367e+02, -1.240058323963869e+03, -9.153404901300715e+01, 9.969270416427458e+02
93, 2.500000000000000e-04, 8.099999999994990e-03, 6.203007015197551e-04, -5.551557268680848e-05, -2.353143120452827e+02, -1.125919297821863e+03, -8.243360913901665e+01, 9.057364077659900e+02
94, 2.500000000000000e-04, 8.199999999995398e-03, 6.313773026270357e-04, -5.616231373368237e-05, -2.117372827108845e+02, -1.017324590373115e+03, -7.378324513797722e+01, 8.189913182194573e+02
95, 2.500000000000000e-04, 8.299999999995804e-03, 6.424662588835444e-04, -5.680734425408307e-05, -1.893519948119440e+02, -9.142550518949389e+02, -6.558594633417769e+01, 7.366753067630748e+02
96, 2.500000000000000e-04, 8.399999999996209e-03, 6.535663573950005e-04, -5.745069150620907e-05, -1.681523196212803e+02, -8.166837546993481e+02, -5.784276054465703e+01, 6.587686711389092e+02
97, 2.500000000000000e-04, 8.499999999996616e-03, 6.646764488297398e-04, -5.809238865081562e-05, -1.481166875455648e+02, -7.245692283736144e+02, -5.055414868247384e+01, 5.852524409373725e+02
98, 2.500000000000000e-04, 8.599999999997021e-03, 6.757954463129909e-04, -5.873247470979983e-05, -1.292376768013753e+02, -6.378822659305608e+02, -4.372192454765946e+01, 5.161063308999444e+02
99, 2.500000000000000e-04, 8.699999999997429e-03, 6.869223249503870e-04, -5.937099464261509e-05, -1.115237394759861e+02, -5.566042378537338e+02, -3.734778465936515e+01, 4.513048616091273e+02
100, 2.500000000000000e-04, 8.799999999997834e-03, 6.980561221342843e-04, -6.000799919682198e-05, -9.496558715799422e+01, -4.807017023663508e+02, -3.143004224448899e+01, 3.908244373091273e+02
101, 2.500000000000000e-04, 8.899999999997930e-03, 7.091959371632681e-04, -6.064354502527445e-05, -7.954061373802526e+01, -4.101351221327727e+02, -2.596759309260053e+01, 3.346490587837597e+02
102, 2.500000000000000e-04, 8.999999999997496e-03, 7.203409302937645e-04, -6.127769484402646e-05, -6.523411011102247e+01, -3.448713736898833e+02, -2.096175945964346e+01, 2.827624101970577e+02
103, 2.500000000000000e-04, 9.099999999997034e-03, 7.314903222971409e-04, -6.191051725831316e-05, -5.204915241104997e+01, -2.848853247220903e+02, -1.641030681024017e+01, 2.351379931335668e+02
104, 2.500000000000000e-04, 9.199999999996832e-03, 7.426433951214888e-04, -6.254208648113394e-05, -3.996254234045936e+01, -2.301156200778497e+02, -1.230554868546299e+01, 1.917391433349049e+02
105, 2.500000000000000e-04, 9.299999999997156e-03, 7.537994916193882e-04, -6.317248154601846e-05, -2.891303896687745e+01, -1.804505717508026e+02, -8.635728160301866e+00, 1.525186121287291e+02
106, 2.500000000000000e-04, 9.399999999997563e-03, 7.649580132335659e-04, -6.380178541255046e-05, -1.886787325059233e+01, -1.357853496005173e+02, -5.386329200597913e+00, 1.174127184127176e+02
107, 2.500000000000000e-04, 9.499999999997968e-03, 7.761184183816493e-04, -6.443008426478805e-05, -9.736701545773588e+00, -9.594872447052390e+01, -2.548327853071951e+00, 8.636254278426871e+01
108, 2.500000000000000e-04, 9.599999999998375e-03, 7.872802176344140e-04, -6.505746634070630e-05, -1.561418853242664e+00, -6.088754577152265e+01, -1.132358664738407e-01, 5.932655918363789e+01
109, 2.500000000000000e-04, 9.699999999998783e-03, 7.984429713499441e-04, -6.568402304477883e-05, 5.597920226597894e+00, -3.083358705724164e+01, 1.889814378971074e+00, 3.662704351323372e+01
110, 2.500000000000000e-04, 9.799999999999188e-03, 8.096062745488601e-04, -6.630986537109004e-05, 1.085718790580824e+01, -7.235948456192427e+00, 3.232465707588969e+00, 1.921345678468363e+01
111, 2.500000000000000e-04, 9.899999999999593e-03, 8.207697681597575e-04, -6.693514994210232e-05, 1.327998174447861e+01, 7.204035576485323e+00, 3.508511794041100e+00, 9.282011736259243e+00
112, 2.000000000000817e-04, 1.000000000000000e-02, 8.322455996759081e-04, -6.197863882599650e-05, 1.903662309635407e+01, 1.636251927965322e+01, 4.338631122350341e+00, 9.079962075130151e+00
113, 1.500000000001972e-04, 1.000000000000000e-02, 8.325580442417449e-04, -5.639728152073513e-05, 1.667602312463611e+01, 1.696422913856200e+01, 6.882748975906095e+00, 1.376851468270302e+01
114, 1.000000000003456e-04, 1.000000000000000e-02, 8.328705685440995e-04, -5.081605085240187e-05, 1.108078003936491e+01, 1.706170795937372e+01, 9.121985457180426e+00, 1.919932221481752e+01
115, 5.000000000047588e-05, 1.000000000000000e-02, 8.331832155899831e-04, -4.523489427536542e-05, 3.584071057639813e+00, 1.709895650691402e+01, 1.071387157054922e+01, 2.533377794226307e+01
116, 6.410887445906788e-16, 1.000000000000000e-02, 8.334960103140529e-04, -3.965374075202573e-05, -3.994061612800294e+00, 1.800222762954596e+01, 1.135592920711589e+01, 3.161748334483737e+01
117, -4.999999999945738e-05, 1.000000000000000e-02, 8.338089587133767e-04, -3.407250566259283e-05, -9.271540317662332e+00, 2.131101897255058e+01, 1.082509184833815e+01, 3.747030006337308e+01
118, -9.999999999958566e-05, 1.000000000000000e-02, 8.341220450678969e-04, -2.849110920533403e-05, -9.329118879671562e+00, 2.891607114439701e+01, 9.173268161110066e+00, 4.241803808522568e+01
119, -1.499999999997626e-04, 1.000000000000000e-02, 8.344352240498142e-04, -2.290951115735486e-05, -3.189214272922569e-01, 4.273164784602871e+01, 7.107693281002080e+00, 4.533683634600253e+01
120, -1.999999999998909e-04, 1.000000000000000e-02, 8.347483945654826e-04, -1.732778523395867e-05, 2.566910958203799e+01, 6.534294710884600e+01, 6.199743198956918e+00, 4.156634031323434e+01
121, -2.500000000000000e-04, 9.899999999999590e-03, 8.238979250692951e-04, -1.112224395519477e-05, -1.821547268165784e+01, 3.354004842588513e+01, -1.250990885777524e+00, 5.181596161317976e+01
122, -2.500000000000000e-04, 9.799999999999181e-03, 8.127341911025215e-04, -1.049931035828826e-05, 5.292115862843183e+00, 7.718968426438857e+01, 3.265693769287997e+00, 7.219362413145612e+01
123, -2.500000000000000e-04, 9.699999999999055e-03, 8.015706384799189e-04, -9.877130038572616e-06, 1.373649423157820e+01, 1.051688407429165e+02, 7.485914021697573e+00, 9.265003844322149e+01
124, -2.500000000000000e-04, 9.599999999999458e-03, 7.904075396438991e-04, -9.255826107308129e-06, 2.002417922294424e+01, 1.351446237127566e+02, 1.183253794772813e+01, 1.175276671965783e+02
125, -2.500000000000000e-04, 9.499999999999916e-03, 7.792452015670347e-04, -8.635600013409864e-06, 2.724755716673921e+01, 1.705043924815537e+02, 1.650853585074898e+01, 1.470124072592437e+02
126, -2.500000000000000e-04, 9.400000000000373e-03, 7.680840047439134e-04, -8.016652065639728e-06, 3.552669738539159e+01, 2.111404449023184e+02, 2.152631157398872e+01, 1.808140389374141e+02
127, -2.500000000000000e-04, 9.300000000000832e-03, 7.569243877095452e-04, -7.399184807337858e-06, 4.532887081247546e+01, 2.572901732346958e+02, 2.690523962780073e+01, 2.186850735698289e+02
128, -2.500000000000000e-04, 9.200000000001289e-03, 7.457668669961926e-04, -6.783404584616417e-06, 5.603759942629557e+01, 3.083408699231524e+02, 3.267382215791426e+01, 2.606285765625829e+02
129, -2.500000000000000e-04, 9.100000000001746e-03, 7.346120032789538e-04, -6.169520835075124e-06, 6.805691604880332e+01, 3.645995239285543e+02, 3.884980366489477e+01, 3.065530089027463e+02
130, -2.500000000000000e-04, 9.000000000002204e-03, 7.234604239399872e-04, -5.557751272898719e-06, 8.130443076331956e+01, 4.260419747832590e+02, 4.542350934669050e+01, 3.565068794039959e+02
131, -2.500000000000000e-04, 8.900000000002661e-03, 7.123128183756134e-04, -4.948322320868034e-06, 9.571200122234450e+01, 4.926593718443578e+02, 5.240908256673808e+01, 4.105533616786967e+02
132, -2.500000000000000e-04, 8.800000000003118e-03, 7.011699349730516e-04, -4.341468691194376e-06, 1.112933506926932e+02, 5.644994167498774e+02, 5.982108130849684e+01, 4.687323174122943e+02
133, -2.500000000000000e-04, 8.700000000003576e-03, 6.900325832477910e-04, -3.737432976190495e-06, 1.279973489703923e+02, 6.415489633937461e+02, 6.766844434862082e+01, 5.310850535640055e+02
134, -2.500000000000000e-04, 8.600000000004033e-03, 6.789016321559220e-04, -3.136465337890741e-06, 1.458336060106699e+02, 7.238463851939612e+02, 7.595789772087295e+01, 5.976430220490245e+02
135, -2.500000000000000e-04, 8.500000000004490e-03, 6.677780111294429e-04, -2.538823752600133e-06, 1.648152619274675e+02, 8.114306406940706e+02, 8.469483083857666e+01, 6.684342193070145e+02
136, -2.500000000000000e-04, 8.400000000004949e-03, 6.566627107459694e-04, -1.944773680242493e-06, 1.849997431528165e+02, 9.043849389946480e+02, 9.387326338265218e+01, 7.434808795852288e+02
137, -2.500000000000000e-04, 8.300000000005149e-03, 6.455567856020573e-04, -1.354588936764213e-06, 2.063375904668095e+02, 1.002697479224065e+03, 1.034978048513175e+02, 8.228221283227832e+02
138, -2.500000000000000e-04, 8.200000000005172e-03, 6.344613514869478e-04, -7.685504686911572e-07, 2.289129017601073e+02, 1.106472442188404e+03, 1.135594064029012e+02, 9.064732219580674e+02
139, -2.500000000000000e-04, 8.100000000005195e-03, 6.233775900467441e-04, -1.869477749418969e-07, 2.526557389543368e+02, 1.215684534985407e+03, 1.240608478325246e+02, 9.944791791911749e+02
140, -2.500000000000000e-04, 8.000000000005220e-03, 6.123067450378281e-04, 3.899224983631523e-07, 2.775688317299839e+02, 1.330347821581175e+03, 1.350080014972094e+02, 1.086854288000547e+03
141, -2.500000000000000e-04, 7.900000000005243e-03, 6.012501225919943e-04, 9.617569584103567e-07, 3.037807134930089e+02, 1.450599137865624e+03, 1.463816011455798e+02, 1.183597394005352e+03
142, -2.500000000000000e-04, 7.800000000005240e-03, 5.902090984327140e-04, 1.528243713000076e-06, 3.311114861330538e+02, 1.576308641417116e+03, 1.581856963007114e+02, 1.284759438021019e+03
143, -2.500000000000000e-04, 7.700000000005121e-03, 5.791851085548178e-04, 2.089064961035161e-06, 3.596403173593033e+02, 1.707554855755126e+03, 1.704164845362442e+02, 1.390338345736603e+03
144, -2.500000000000000e-04, 7.600000000005145e-03, 5.681796541297353e-04, 2.643895487588326e-06, 3.893600902227120e+02, 1.844346864291736e+03, 1.830695597193454e+02, 1.500348082112657e+03
145, -2.500000000000000e-04, 7.500000000005337e-03, 5.571943015027751e-04, 3.192403811372497e-06, 4.201953429042466e+02, 1.986625134874022e+03, 1.961431599117910e+02, 1.614803656761776e+03
146, -2.500000000000000e-04, 7.400000000005796e-03, 5.462306782053311e-04, 3.734252535880597e-06, 4.522949484523116e+02, 2.134536504010263e+03, 2.096198291916692e+02, 1.733695054618146e+03
147, -2.500000000000000e-04, 7.300000000006254e-03, 5.352904808090425e-04, 4.269096646824060e-06, 4.855890700284396e+02, 2.288051872429800e+03, 2.234888355334919e+02, 1.857057132258733e+03
148, -2.500000000000000e-04, 7.200000000006711e-03, 5.243754708727838e-04, 4.796584752739173e-06, 5.200618140533376e+02, 2.447168162438163e+03, 2.377473908208083e+02, 1.984901550544386e+03
149, -2.500000000000000e-04, 7.100000000007169e-03, 5.134874744724036e-04, 5.316359654836153e-06, 5.557627172616774e+02, 2.611939040757494e+03, 2.523806503826272e+02, 2.117225789578193e+03
150, -2.500000000000000e-04, 7.000000000007627e-03, 5.026283853632011e-04, 5.828057908469100e-06, 5.926297781435096e+02, 2.782328979415753e+03, 2.673773440703195e+02, 2.254050835394067e+03
151, -2.500000000000000e-04, 6.900000000008085e-03, 4.918001618889696e-04, 6.331310403336123e-06, 6.306913792601035e+02, 2.958372005451650e+03, 2.827271682183473e+02, 2.395377987738581e+03
152, -2.500000000000000e-04, 6.800000000008542e-03, 4.810048289487200e-04, 6.825742536667602e-06, 6.699178151450176e+02, 3.140051364142340e+03, 2.984178284401464e+02, 2.541214778645410e+03
153, -2.500000000000000e-04, 6.700000000009001e-03, 4.702444766366972e-04, 7.310974675005123e-06, 7.103458649861626e+02, 3.327412458275032e+03, 3.144314641235214e+02, 2.691562025336228e+03
154, -2.500000000000000e-04, 6.600000000009459e-03, 4.595212624152799e-04, 7.786621641207177e-06, 7.519605006969252e+02, 3.520456931065709e+03, 3.307519771966225e+02, 2.846429336316396e+03
155, -2.500000000000000e-04, 6.500000000009916e-03, 4.488374107912823e-04, 8.252293550750048e-06, 7.946991802719579e+02, 3.719140268239104e+03, 3.473667878316210e+02, 3.005829406028276e+03
156, -2.500000000000000e-04, 6.400000000010177e-03, 4.381952103844863e-04, 8.707596233877528e-06, 8.386217906119216e+02, 3.923522175824482e+03, 3.642594937535927e+02, 3.169755558689518e+03
157, -2.500000000000000e-04, 6.300000000010201e-03, 4.275970173212882e-04, 9.152131075060151e-06, 8.837279760474192e+02, 4.133616777121815e+03, 3.814076164659654e+02, 3.338212740216203e+03
158, -2.500000000000000e-04, 6.200000000010225e-03, 4.170452552922988e-04, 9.585495280775523e-06, 9.300027128183418e+02, 4.349424618194143e+03, 3.987900286464088e+02, 3.511207785756219e+03
159, -2.500000000000000e-04, 6.100000000010248e-03, 4.065424151730215e-04, 1.000728230462934e-05, 9.774137066005468e+02, 4.570928149534265e+03, 4.163886984367398e+02, 3.688748330303465e+03
160, -2.500000000000000e-04, 6.000000000010509e-03, 3.960910536995156e-04, 1.041708241076898e-05, 1.025988958834411e+03, 4.798160576586934e+03, 4.341815450095428e+02, 3.870831069665166e+03
161, -2.500000000000000e-04, 5.900000000010967e-03, 3.856937952486543e-04, 1.081448270194795e-05, 1.075735737005926e+03, 5.031141108508652e+03, 4.521417095269472e+02, 4.057457350963583e+03
162, -2.500000000000000e-04, 5.800000000011424e-03, 3.753533325627203e-04, 1.119906743713500e-05, 1.126622307623318e+03, 5.269855954642527e+03, 4.702431797301330e+02, 4.248635033292800e+03
163, -2.500000000000000e-04, 5.700000000011876e-03, 3.650724256485361e-04, 1.157041853208472e-05, 1.178622261049788e+03, 5.514293080153251e+03, 4.884630949096531e+02, 4.444370172699408e+03
164, -2.500000000000000e-04, 5.600000000012062e-03, 3.548539009625660e-04, 1.192811610235293e-05, 1.231739545358069e+03, 5.764464111859041e+03, 5.067772290379656e+02, 4.644661950588763e+03
165, -2.500000000000000e-04, 5.500000000012085e-03, 3.447006519455501e-04, 1.227173884172869e-05, 1.285999932802675e+03, 6.020400900262852e+03, 5.251550950248650e+02, 4.849505543455967e+03
166, -2.500000000000000e-04, 5.400000000012110e-03, 3.346156406429325e-04, 1.260086423767738e-05, 1.341387717908932e+03, 6.282102784505720e+03, 5.435641089874043e+02, 5.058904341022233e+03
167, -2.500000000000000e-04, 5.300000000012160e-03, 3.246018972326111e-04, 1.291506906645413e-05, 1.397884070470107e+03, 6.549565519875194e+03, 5.619730796102326e+02, 5.272862289589112e+03
168, -2.500000000000000e-04, 5.200000000012475e-03, 3.146625195493934e-04, 1.321392992941302e-05, 1.455483109196955e+03, 6.822795215505430e+03, 5.803499555494939e+02, 5.491380840021089e+03
169, -2.500000000000000e-04, 5.100000000012934e-03, 3.048006732741656e-04, 1.349702371822925e-05, 1.514183735826002e+03, 7.101802255745328e+03, 5.986603726190688e+02, 5.714460402445978e+03
170, -2.500000000000000e-04, 5.000000000013221e-03, 2.950195923320701e-04, 1.376392810058876e-05, 1.573978720334782e+03, 7.386592532009317e+03, 6.168678911866266e+02, 5.942102599617219e+03
171, -2.500000000000000e-04, 4.900000000012981e-03, 2.853225789764412e-04, 1.401422202270970e-05, 1.634850919970205e+03, 7.677162580130023e+03, 6.349366458069761e+02, 6.174310356246902e+03
172, -2.500000000000000e-04, 4.800000000012570e-03, 2.757130032802690e-04, 1.424748638247150e-05, 1.696810174577840e+03, 7.973530668276261e+03, 6.528278890754093e+02, 6.411080811145058e+03
173, -2.500000000000000e-04, 4.700000000012160e-03, 2.661943040814898e-04, 1.446330450368247e-05, 1.759858974127865e+03, 8.275710820725646e+03, 6.704981126535290e+02, 6.652412807628484e+03
174, -2.500000000000000e-04, 4.600000000011960e-03, 2.567699896705502e-04, 1.466126264638920e-05, 1.823956719573121e+03, 8.583681085525730e+03, 6.879055712858622e+02, 6.898313547793978e+03
175, -2.500000000000000e-04, 4.500000000011985e-03, 2.474436361852043e-04, 1.484095079242095e-05, 1.889103451156055e+03, 8.897451563987634e+03, 7.050091778964936e+02, 7.148782765919180e+03
176, -2.500000000000000e-04, 4.400000000012010e-03, 2.382188880842022e-04, 1.500196325732593e-05, 1.955312757520448e+03, 9.217043705245744e+03, 7.217629691687282e+02, 7.403816819168634e+03
177, -2.500000000000000e-04, 4.300000000011870e-03, 2.290994592814965e-04, 1.514389930008925e-05, 2.022569569175818e+03, 9.542455418180183e+03, 7.381183508993686e+02, 7.663416860760853e+03
178, -2.500000000000000e-04, 4.200000000011467e-03, 2.200891327756567e-04, 1.526636384339531e-05, 2.090861949287877e+03, 9.873686509889882e+03, 7.540266117677281e+02, 7.927583658727637e+03
179, -2.500000000000000e-04, 4.100000000011056e-03, 2.111917605229654e-04, 1.536896821995939e-05, 2.160187959918036e+03, 1.021074523759131e+04, 7.694365105142061e+02, 8.196316407749715e+03
180, -2.500000000000000e-04, 4.000000000010646e-03, 2.024112638792991e-04, 1.545133085472360e-05, 2.230533082422599e+03, 1.055362976166980e+04, 7.842954228552608e+02, 8.469617203471629e+03
181, -2.500000000000000e-04, 3.900000000010236e-03, 1.937516333005319e-04, 1.551307805860532e-05, 2.301889860068011e+03, 1.090234338704179e+04, 7.985501325589903e+02, 8.747487074953333e+03
182, -2.500000000000000e-04, 3.800000000009824e-03, 1.852169283530117e-04, 1.555384483235446e-05, 2.374264620111749e+03, 1.125690003271427e+04, 8.121443154557477e+02, 9.029923888368534e+03
183, -2.500000000000000e-04, 3.700000000009415e-03, 1.768112784730702e-04, 1.557327567345567e-05, 2.447645370363330e+03, 1.161729831670668e+04, 8.250188973064637e+02, 9.316928672048231e+03
184, -2.500000000000000e-04, 3.600000000009160e-03, 1.685388827582492e-04, 1.557102542505352e-05, 2.522023734643566e+03, 1.198353936240077e+04, 8.371138004920314e+02, 9.608502278408982e+03
185, -2.500000000000000e-04, 3.500000000009170e-03, 1.604040099789057e-04, 1.554676016484763e-05, 2.597393582690495e+03, 1.235562582443736e+04, 8.483670991412946e+02, 9.904645547594815e+03
186, -2.500000000000000e-04, 3.400000000009196e-03, 1.524109986429065e-04, 1.550015808976915e-05, 2.673754004826535e+03, 1.273356358370700e+04, 8.587149499888964e+02, 1.020535811349473e+04
187, -2.500000000000000e-04, 3.300000000009092e-03, 1.445642572793157e-04, 1.543091048667857e-05, 2.751101543079734e+03, 1.311735490763892e+04, 8.680907660728757e+02, 1.051063913997615e+04
188, -2.500000000000000e-04, 3.200000000008720e-03, 1.368682646136643e-04, 1.533872271368907e-05, 2.829427773536747e+03, 1.350699746937518e+04, 8.764258058507894e+02, 1.082048905466532e+04
189, -2.500000000000000e-04, 3.100000000008311e-03, 1.293275694802106e-04, 1.522331517364778e-05, 2.908727638791390e+03, 1.390249114725255e+04, 8.836498981125588e+02, 1.113490838084040e+04
190, -2.500000000000000e-04, 3.000000000007901e-03, 1.219467908579635e-04, 1.508442434507915e-05, 2.989000519020948e+03, 1.430383816335530e+04, 8.896906066177684e+02, 1.145389664785138e+04
191, -2.500000000000000e-04, 2.900000000007490e-03, 1.147306181099946e-04, 1.492180385226923e-05, 3.070244047690838e+03, 1.471103811149248e+04, 8.944727071192262e+02, 1.177745355036327e+04
192, -2.500000000000000e-04, 2.800000000007079e-03, 1.076838111186167e-04, 1.473522554957332e-05, 3.152450974511400e+03, 1.512408586837781e+04, 8.979192237409596e+02, 1.210558043885109e+04
193, -2.500000000000000e-04, 2.700000000006744e-03, 1.008112000883685e-04, 1.452448062750417e-05, 3.235623255850206e+03, 1.554298231259023e+04, 8.999516737973092e+02, 1.243827717218921e+04
194, -2.500000000000000e-04, 2.600000000006672e-03, 9.411768576546857e-05, 1.428938079638018e-05, 3.319765414278345e+03, 1.596772804853952e+04, 9.004883080591615e+02, 1.277554208515129e+04
195, -2.500000000000000e-04, 2.500000000006697e-03, 8.760823979937241e-05, 1.402975950214255e-05, 3.404870521403841e+03, 1.639831289023971e+04, 8.994448581440715e+02, 1.311737583526622e+04
196, -2.500000000000000e-04, 2.400000000006722e-03, 8.128790443638654e-05, 1.374547312742607e-05, 3.490941786667863e+03, 1.683473395438801e+04, 8.967354239657323e+02, 1.346377833662191e+04
197, -2.500000000000000e-04, 2.300000000006651e-03, 7.516179269809340e-05, 1.343640222867175e-05, 3.577981994396251e+03, 1.727698560198274e+04, 8.922717113527782e+02, 1.381474918585891e+04
198, -2.500000000000000e-04, 2.200000000006315e-03, 6.923508848295477e-05, 1.310245288226202e-05, 3.665992788297677e+03, 1.772505948751849e+04, 8.859626368198932e+02, 1.417028848077918e+04
199, -2.500000000000000e-04, 2.100000000005904e-03, 6.351304652032642e-05, 1.274355795760200e-05, 3.754980875594166e+03, 1.817894924025020e+04, 8.777152408338038e+02, 1.453039571245621e+04
200, -2.500000000000000e-04, 2.000000000005494e-03, 5.800099252932474e-05, 1.235967853215497e-05, 3.844950352607329e+03, 1.863864368641873e+04, 8.674336850321456e+02, 1.489507056870057e+04
201, -2.500000000000000e-04, 1.900000000005083e-03, 5.270432317912476e-05, 1.195080527576387e-05, 3.935908720387278e+03, 1.910413215685985e+04, 8.550198129237244e+02, 1.526431255382057e+04
202, -2.500000000000000e-04, 1.800000000004675e-03, 4.762850615742000e-05, 1.151695989587710e-05, 4.027863212492724e+03, 1.957540144211771e+04, 8.403729469717806e+02, 1.563812174660559e+04
203, -2.500000000000000e-04, 1.700000000004264e-03, 4.277908011791986e-05, 1.105819659000636e-05, 4.120824551534757e+03, 2.005243785380370e+04, 8.233903531828124e+02, 1.601649740448550e+04
204, -2.500000000000000e-04, 1.600000000003854e-03, 3.816165474323263e-05, 1.057460361721636e-05, 4.214803303752663e+03, 2.053522438942763e+04, 8.039662282995131e+02, 1.639943874645498e+04
205, -2.500000000000000e-04, 1.500000000003443e-03, 3.378191069805719e-05, 1.006630481583836e-05, 4.309812666816479e+03, 2.102374353483540e+04, 7.819924976881008e+02, 1.678694534829603e+04
206, -2.500000000000000e-04, 1.400000000003032e-03, 2.964559961473441e-05, 9.533461194716845e-06, 4.405867829446443e+03, 2.151797592919752e+04, 7.573585136937736e+02, 1.717901659847340e+04
207, -2.500000000000000e-04, 1.300000000002622e-03, 2.575854408918590e-05, 8.976272572527408e-06, 4.502984698717893e+03, 2.201789902882701e+04, 7.299510139882816e+02, 1.757565184914494e+04
208, -2.500000000000000e-04, 1.200000000002211e-03, 2.212663759564668e-05, 8.394979256945137e-06, 4.601184471362567e+03, 2.252349158117481e+04, 6.996543699221157e+02, 1.797685058868296e+04
209, -2.500000000000000e-04, 1.100000000002113e-03, 1.875584438976037e-05, 7.789863697447468e-06, 4.700505076357246e+03, 2.303474904928458e+04, 6.663518208385613e+02, 1.838261681740011e+04
210, -2.500000000000000e-04, 1.000000000002544e-03, 1.565219948080828e-05, 7.161251793565487e-06, 4.801037629374328e+03, 2.355173820133449e+04, 6.299290673704451e+02, 1.879297779647972e+04
211, -2.500000000000000e-04, 9.000000000030026e-04, 1.282180947225242e-05, 6.509512833690013e-06, 4.902964100192617e+03, 2.407467881592974e+04, 5.902821000730111e+02, 1.920802897155973e+04
212, -2.500000000000000e-04, 8.000000000032027e-04, 1.027085730256739e-05, 5.835057164759234e-06, 5.006499568487776e+03, 2.460391499758645e+04, 5.473015041181666e+02, 1.962796085298508e+04
213, -2.500000000000000e-04, 7.000000000028719e-04, 8.005619429706701e-06, 5.138334727437273e-06, 5.110701823937474e+03, 2.513838267192638e+04, 5.007772420498279e+02, 2.005270833412588e+04
214, -2.500000000000000e-04, 6.000000000024631e-04, 6.032502417486491e-06, 4.419871979221528e-06, 5.210424353029458e+03, 2.567056926389517e+04, 4.497802204798790e+02, 2.047991061407650e+04
215, -2.500000000000000e-04, 5.000000000020526e-04, 4.358082938210962e-06, 3.680451370166094e-06, 5.278096608791777e+03, 2.616063819131432e+04, 3.917374279932083e+02, 2.089723368763785e+04
216, -2.500000000000000e-04, 4.000000000016421e-04, 2.988841588658174e-06, 2.921922126439430e-06, 5.255738005766287e+03, 2.650943795889282e+04, 3.162774701758995e+02, 2.126311095418763e+04
217, -2.500000000000000e-04, 3.000000000012316e-04, 1.929794029308592e-06, 2.148835659116312e-06, 4.807845334836793e+03, 2.626278589170792e+04, 2.207658442592740e+02, 2.145948332394887e+04
218, -2.500000000000000e-04, 2.000000000008210e-04, 1.174660695675777e-06, 1.375802527529813e-06, 4.513253460084903e+03, 2.587811586862909e+04, 4.649717698483516e+01, 2.136506479479748e+04
219, -2.500000000000000e-04, 1.000000000004105e-04, 6.840093224724686e-07, 6.087899672728652e-07, -2.321294649419695e+03, 1.790462819267933e+04, 1.554820457992907e+03, 2.046357303700691e+04
220, -1.999999999998928e-04, 9.899999999999593e-03, 8.235845893497038e-04, -1.670428176590583e-05, -2.605850821619611e+00, 4.928231272647539e+01, 4.221062214163811e+00, 5.257043828290973e+01
221, -1.499999999997670e-04, 9.899999999999591e-03, 8.232713124787665e-04, -2.228595880278518e-05, -4.266853798899817e-02, 4.522677403735572e+01, 9.685358190314295e+00, 4.923969013084045e+01
222, -9.999999999959327e-05, 9.899999999999591e-03, 8.229581703248283e-04, -2.786736902865086e-05, 3.379431477901503e+00, 3.913532896530870e+01, 1.324778511705850e+01, 4.450280268883072e+01
223, -4.999999999946756e-05, 9.899999999999593e-03, 8.226451860244236e-04, -3.344853925626313e-05, 6.779065893944364e+00, 3.261707570964042e+01, 1.563635317540093e+01, 4.056580966453756e+01
224, 6.282680539010377e-16, 9.899999999999593e-03, 8.223323536154228e-04, -3.902953552059122e-05, 9.439302745206644e+00, 2.602900087349312e+01, 1.659312433413856e+01, 3.710182185096032e+01
225, 5.000000000046569e-05, 9.899999999999590e-03, 8.220196581633182e-04, -4.461045000394253e-05, 1.139032926659956e+01, 1.981039875629616e+01, 1.599901861269217e+01, 3.308733831072546e+01
226, 1.000000000003380e-04, 9.899999999999590e-03, 8.217070804136694e-04, -5.019138259837994e-05, 1.269919348595318e+01, 1.434424250611028e+01, 1.392207013509444e+01, 2.789269319489736e+01
227, 1.500000000001929e-04, 9.899999999999593e-03, 8.213945958946181e-04, -5.577242758390494e-05, 1.339095696833179e+01, 1.009763606681737e+01, 1.055601184978676e+01, 2.136734675273713e+01
228, 2.000000000000797e-04, 9.899999999999593e-03, 8.210821726953381e-04, -6.135366543688987e-05, 1.322743974310210e+01, 7.430321577128355e+00, 6.229515487927960e+00, 1.374168955724150e+01
229, -1.999999999998947e-04, 9.799999999999184e-03, 8.124206374633522e-04, -1.608118041809295e-05, 7.660509518078227e-01, 6.461116950543827e+01, 8.069287942251647e+00, 6.585326715286794e+01
230, -1.499999999997712e-04, 9.799999999999181e-03, 8.121072595948618e-04, -2.166261798051031e-05, 4.482365918409573e+00, 5.594352434414358e+01, 1.468874796812867e+01, 5.925612283978180e+01
231, -9.999999999960086e-05, 9.799999999999184e-03, 8.117940675721035e-04, -2.724370941232424e-05, 6.816821179705503e+00, 4.512466141100023e+01, 1.935832607317175e+01, 5.446530800984576e+01
232, -4.999999999947776e-05, 9.799999999999184e-03, 8.114810709632989e-04, -3.282454989009006e-05, 9.510143426168455e+00, 3.479218617582716e+01, 2.217136674527565e+01, 5.104370381359126e+01
233, 6.154473632113966e-16, 9.799999999999184e-03, 8.111682641122689e-04, -3.840523079867737e-05, 1.212360480781767e+01, 2.531945321529963e+01, 2.312578095721013e+01, 4.809716618176890e+01
234, 5.000000000045551e-05, 9.799999999999184e-03, 8.108556306220061e-04, -4.398585326720763e-05, 1.420262158665989e+01, 1.675051720621921e+01, 2.212614650257127e+01, 4.432558187211035e+01
235, 1.000000000003303e-04, 9.799999999999184e-03, 8.105431476942569e-04, -4.956652434190092e-05, 1.549086468239500e+01, 9.184955237865770e+00, 1.916680334103887e+01, 3.884880815647809e+01
236, 1.500000000001885e-04, 9.799999999999188e-03, 8.102307868956432e-04, -5.514735058690261e-05, 1.577887340949710e+01, 2.814254410708274e+00, 1.435171114739068e+01, 3.149552027219598e+01
237, 2.000000000000778e-04, 9.799999999999188e-03, 8.099185122599034e-04, -6.072843234725184e-05, 1.465530664135549e+01, -2.151615232716069e+00, 7.834724366097165e+00, 2.297834298751787e+01
238, -1.999999999998966e-04, 9.699999999999027e-03, 8.012568506297278e-04, -1.545864564779247e-05, 2.768199325086325e+00, 8.250901703604433e+01, 1.273375636596542e+01, 8.370897331805767e+01
239, -1.499999999997756e-04, 9.699999999998999e-03, 8.009432978543365e-04, -2.103968055727858e-05, 5.782082511304962e+00, 6.845589424734374e+01, 2.018519121022094e+01, 7.455048258929753e+01
240, -9.999999999960846e-05, 9.699999999998973e-03, 8.006299945306909e-04, -2.662033664409434e-05, 8.797311676887135e+00, 5.408407018504254e+01, 2.538779384547549e+01, 6.803712811059444e+01
241, -4.999999999948794e-05, 9.699999999998947e-03, 8.003169429885362e-04, -3.220072427173971e-05, 1.146859924637620e+01, 3.967083521448049e+01, 2.828868249890028e+01, 6.321680428252431e+01
242, 6.026266725217555e-16, 9.699999999998920e-03, 8.000041373105276e-04, -3.778095924369402e-05, 1.384496604413786e+01, 2.589284296222531e+01, 2.886824369019467e+01, 5.898010947140774e+01
243, 5.000000000044535e-05, 9.699999999998892e-03, 7.996915621666175e-04, -4.336115925375504e-05, 1.566764248480096e+01, 1.305816617319901e+01, 2.711981517032237e+01, 5.430236519812559e+01
244, 1.000000000003228e-04, 9.699999999998864e-03, 7.993791938563323e-04, -4.894144455691327e-05, 1.665301542550446e+01, 1.382472512998733e+00, 2.305119829038306e+01, 4.856563035041256e+01
245, 1.500000000001842e-04, 9.699999999998836e-03, 7.990670008982841e-04, -5.452193625939936e-05, 1.653974991766077e+01, -8.888885889007092e+00, 1.670365278578821e+01, 4.198408727769167e+01
246, 2.000000000000759e-04, 9.699999999998809e-03, 7.987549432013970e-04, -6.010275540369024e-05, 1.516934888634253e+01, -1.733247256343314e+01, 8.132845705459573e+00, 3.634475360527770e+01
247, -1.999999999998985e-04, 9.599999999999352e-03, 7.900934677321429e-04, -1.483684908939106e-05, 3.920585264141167e+00, 1.035614678091011e+02, 1.774508644577603e+01, 1.057726706016765e+02
248, -1.499999999997800e-04, 9.599999999999241e-03, 7.897797013429620e-04, -2.041732696631197e-05, 6.863221575254614e+00, 8.433962457810992e+01, 2.598072469439859e+01, 9.328764786854354e+01
249, -9.999999999961608e-05, 9.599999999999132e-03, 7.894662553867649e-04, -2.599738871420857e-05, 9.865141560610812e+00, 6.484451725630761e+01, 3.149932470900695e+01, 8.361555824356134e+01
250, -4.999999999949810e-05, 9.599999999999024e-03, 7.891531335894915e-04, -3.157716544941835e-05, 1.263304788837005e+01, 4.547251639598553e+01, 3.429339626679992e+01, 7.604326927420819e+01
251, 5.898059818321144e-16, 9.599999999998917e-03, 7.888403293771923e-04, -3.715679133279644e-05, 1.490748826226426e+01, 2.658396036189011e+01, 3.435857016598622e+01, 6.970211887810395e+01
252, 5.000000000043517e-05, 9.599999999998809e-03, 7.885278270913373e-04, -4.273640276714812e-05, 1.650401022823802e+01, 8.581259356214797e+00, 3.170507614820951e+01, 6.390318767976444e+01
253, 1.000000000003152e-04, 9.599999999998698e-03, 7.882156021751948e-04, -4.831613727440510e-05, 1.720190393096690e+01, -8.193771463283909e+00, 2.635571592044987e+01, 5.851013053692476e+01
254, 1.500000000001798e-04, 9.599999999998591e-03, 7.879036214073497e-04, -5.389613328232193e-05, 1.680364301566756e+01, -2.339036939222152e+01, 1.834162814765337e+01, 5.441709222177074e+01
255, 2.000000000000740e-04, 9.599999999998483e-03, 7.875918431612596e-04, -5.947652974246238e-05, 1.515326547324251e+01, -3.662391863563870e+01, 7.694640613792084e+00, 5.401580112288122e+01
256, -1.999999999999004e-04, 9.499999999999719e-03, 7.789308043746971e-04, -1.421595348741606e-05, 4.623778240840736e+00, 1.278080134474982e+02, 2.299728564366420e+01, 1.314908985114720e+02
257, -1.499999999997843e-04, 9.499999999999528e-03, 7.786167982445510e-04, -1.979569490616481e-05, 7.745192581610617e+00, 1.027402824694031e+02, 3.195555325136262e+01, 1.144932165553595e+02
258, -9.999999999962368e-05, 9.499999999999330e-03, 7.783031976158565e-04, -2.537497662355391e-05, 1.079363228351230e+01, 7.731632440723607e+01, 3.772087734004821e+01, 1.005819413045880e+02
259, -4.999999999950831e-05, 9.499999999999136e-03, 7.779900060244071e-04, -3.095395224912113e-05, 1.353688535561714e+01, 5.198949527626573e+01, 4.031911917927979e+01, 8.933716301339231e+01
260, 5.769988436696294e-16, 9.499999999998942e-03, 7.776772167887144e-04, -3.653277636060545e-05, 1.573847071428177e+01, 2.716574988259659e+01, 3.977499297521001e+01, 8.036655382621943e+01
261, 5.000000000042495e-05, 9.499999999998747e-03, 7.773648135430312e-04, -4.211160451027931e-05, 1.717524019769775e+01, 3.230150791903118e+00, 3.611602019948717e+01, 7.356584247281253e+01
262, 1.000000000003075e-04, 9.499999999998551e-03, 7.770527707308723e-04, -4.769059295140489e-05, 1.765019517387675e+01, -1.942948912655182e+01, 2.937604249423192e+01, 6.947453114855203e+01
263, 1.500000000001755e-04, 9.499999999998359e-03, 7.767410539170807e-04, -5.326989822107289e-05, 1.697648874514540e+01, -4.043640161376071e+01, 1.959547260933465e+01, 6.951381277484721e+01
264, 2.000000000000721e-04, 9.499999999998164e-03, 7.764296201206662e-04, -5.884967681868447e-05, 1.499269473250471e+01, -5.941509033799942e+01, 6.825104562032061e+00, 7.564949892913384e+01
265, -1.999999999999023e-04, 9.400000000000087e-03, 7.677692483747617e-04, -1.359612466306011e-05, 5.102236977058189e+00, 1.552642655808702e+02, 2.850437320120356e+01, 1.606195255900914e+02
266, -1.499999999997887e-04, 9.399999999999811e-03, 7.674549838178018e-04, -1.917491567466078e-05, 8.464150219786204e+00, 1.234257998491139e+02, 3.811207427275387e+01, 1.379358608447561e+02
267, -9.999999999963125e-05, 9.399999999999530e-03, 7.671412239709663e-04, -2.475320114787839e-05, 1.164190581613435e+01, 9.124110024113946e+01, 4.406170300342742e+01, 1.187508586889322e+02
268, -4.999999999951849e-05, 9.399999999999249e-03, 7.668279712672336e-04, -3.033115660036679e-05, 1.440603786753499e+01, 5.914351213076273e+01, 4.640438264361005e+01, 1.030286781318254e+02
269, 5.641646004528322e-16, 9.399999999998968e-03, 7.665152180809968e-04, -3.590895759054298e-05, 1.654243662251488e+01, 2.756015865398966e+01, 4.518414428407799e+01, 9.103745260880467e+01
270, 5.000000000041476e-05, 9.399999999998687e-03, 7.662029470512043e-04, -4.148677975692412e-05, 1.784093564301551e+01, -3.099199860685088e+00, 4.044480077212778e+01, 8.355607047307677e+01
271, 1.000000000003000e-04, 9.399999999998406e-03, 7.658911313874760e-04, -4.706479870860662e-05, 1.809878970976556e+01, -3.243763227403655e+01, 3.223351605303387e+01, 8.191415125294094e+01
272, 1.500000000001711e-04, 9.399999999998125e-03, 7.655797351685330e-04, -5.264318977362151e-05, 1.712356286037526e+01, -6.006671216164970e+01, 2.060412993844868e+01, 8.750119564930390e+01
273, 2.000000000000702e-04, 9.399999999997844e-03, 7.652687136187391e-04, -5.822212754508198e-05, 1.471893002911829e+01, -8.561818577418941e+01, 5.619794312938131e+00, 1.009646728326562e+02
274, -1.999999999999042e-04, 9.300000000000464e-03, 7.566092468432994e-04, -1.297752910323391e-05, 5.797873960392035e+00, 1.861892765979629e+02, 3.428345077978609e+01, 1.929831032371235e+02
275, -1.499999999997930e-04, 9.300000000000100e-03, 7.562947119138929e-04, -1.855512328326907e-05, 9.350450599815758e+00, 1.466130390713766e+02, 4.445655115013731e+01, 1.635437493595282e+02
276, -9.999999999963886e-05, 9.299999999999729e-03, 7.559807938447235e-04, -2.413216517380215e-05, 1.261052255366339e+01, 1.067289738973560e+02, 5.052890852353426e+01, 1.380976656922694e+02
277, -4.999999999952863e-05, 9.299999999999361e-03, 7.556674936464361e-04, -2.970885184304035e-05, 1.537787831339743e+01, 6.698203528007221e+01, 5.255964556880241e+01, 1.171027514002713e+02
278, 5.513303572360351e-16, 9.299999999998993e-03, 7.553548023649847e-04, -3.528537987589951e-05, 1.743921965777226e+01, 2.779727510327446e+01, 5.060435359769330e+01, 1.017373664135926e+02
279, 5.000000000040461e-05, 9.299999999998625e-03, 7.550427012571748e-04, -4.086194540734365e-05, 1.858450836621194e+01, -1.040938215760636e+01, 4.471869158494054e+01, 9.401963197111169e+01
280, 1.000000000002923e-04, 9.299999999998258e-03, 7.547311619874685e-04, -4.643874403212017e-05, 1.860757804803588e+01, -4.723125719667168e+01, 3.496104731250058e+01, 9.604088474773316e+01
281, 1.500000000001668e-04, 9.299999999997890e-03, 7.544201468167697e-04, -5.201597060203008e-05, 1.730471652084599e+01, -8.227116387817284e+01, 2.139490561673799e+01, 1.083804590442217e+02
282, 2.000000000000683e-04, 9.299999999997520e-03, 7.541096087453791e-04, -5.759381894984273e-05, 1.447638984533830e+01, -1.151368168858189e+02, 4.090948929044971e+00, 1.298711931557338e+02
283, -1.999999999999061e-04, 9.200000000000841e-03, 7.454513177207008e-04, -1.236034081602844e-05, 6.342027283139998e+00, 2.202717876471229e+02, 4.037634055256261e+01, 2.286633723950060e+02
284, -1.499999999997973e-04, 9.200000000000397e-03, 7.451365017637168e-04, -1.793645952799270e-05, 1.013688994033653e+01, 1.720983663168316e+02, 5.102973423844981e+01, 1.914357723515676e+02
285, -9.999999999964642e-05, 9.199999999999951e-03, 7.448224282382117e-04, -2.351197927612347e-05, 1.354288890866317e+01, 1.236787369266541e+02, 5.715343208799468e+01, 1.587323666313524e+02
286, -4.999999999953884e-05, 9.199999999999505e-03, 7.445090962951311e-04, -2.908711834676009e-05, 1.635425499411007e+01, 7.544913044899420e+01, 5.880582266162487e+01, 1.316233391943472e+02
287, 5.385367716007061e-16, 9.199999999999058e-03, 7.441964951981429e-04, -3.466209435175780e-05, 1.836410788365730e+01, 2.783933008381648e+01, 5.604864340141923e+01, 1.124970290465495e+02
288, 5.000000000039439e-05, 9.199999999998614e-03, 7.438846043980315e-04, -4.023712416848998e-05, 1.936451434796471e+01, -1.872842481094651e+01, 4.894489772640483e+01, 1.050403925523768e+02
289, 1.000000000002848e-04, 9.199999999998171e-03, 7.435733936348334e-04, -4.581242384030670e-05, 1.914819407911930e+01, -6.383832833673183e+01, 3.756007642482964e+01, 1.119365903841668e+02
290, 1.500000000001625e-04, 9.199999999997726e-03, 7.432628230320834e-04, -5.138820843049295e-05, 1.750909805794354e+01, -1.070795606471672e+02, 2.196358732281953e+01, 1.321057551747351e+02
291, 2.000000000000664e-04, 9.199999999997280e-03, 7.429528431697050e-04, -5.696469182226267e-05, 1.424242021424603e+01, -1.480445221044151e+02, 2.230068967026991e+00, 1.623482198163295e+02
292, -1.999999999999080e-04, 9.100000000001274e-03, 7.342960274426275e-04, -1.174474003617341e-05, 7.076311979661011e+00, 2.577752015547430e+02, 4.681206487571124e+01, 2.676105582855249e+02
293, -1.499999999998017e-04, 9.100000000000802e-03, 7.339809246901994e-04, -1.731907362860922e-05, 1.105713100134138e+01, 2.000814781906682e+02, 5.786946674904534e+01, 2.216431919947614e+02
294, -9.999999999965405e-05, 9.100000000000334e-03, 7.336667023713062e-04, -2.289276192743102e-05, 1.457565092617337e+01, 1.422286008904251e+02, 6.396431770900480e+01, 1.807235773065865e+02
295, -4.999999999954905e-05, 9.099999999999862e-03, 7.333533577478604e-04, -2.846604441254471e-05, 1.741259991860603e+01, 8.464259545475198e+01, 6.516098968376443e+01, 1.466413673083446e+02
296, 5.257025283839090e-16, 9.099999999999390e-03, 7.330408781316652e-04, -3.403915979317684e-05, 1.935704236504282e+01, 2.775223988926744e+01, 6.152442420806315e+01, 1.233349035675043e+02
297, 5.000000000038422e-05, 9.099999999998916e-03, 7.327292409558895e-04, -3.961234589285951e-05, 2.019941786102087e+01, -2.801662302719424e+01, 5.312154179532677e+01, 1.166721021057932e+02
298, 1.000000000002772e-04, 9.099999999998446e-03, 7.324184138307658e-04, -4.518583955872911e-05, 1.973067158174774e+01, -8.224135603114956e+01, 4.002153129581064e+01, 1.296348189512821e+02
299, 1.500000000001581e-04, 9.099999999997978e-03, 7.321083545885063e-04, -5.075987654954231e-05, 1.774185729112929e+01, -1.345020167303992e+02, 2.229653870580567e+01, 1.586402840709793e+02
300, 2.000000000000645e-04, 9.099999999997506e-03, 7.317990113063393e-04, -5.633469140299437e-05, 1.402332425955305e+01, -1.843805880287405e+02, 2.256203165852799e-02, 1.984039174196970e+02
301, -1.999999999999099e-04, 9.000000000001736e-03, 7.231440058860288e-04, -1.113091306256163e-05, 7.910743193111863e+00, 2.986477757193563e+02, 5.358370142606584e+01, 3.098594428385838e+02
302, -1.499999999998060e-04, 9.000000000001264e-03, 7.228286133921483e-04, -1.670312172958685e-05, 1.208110148329777e+01, 2.305672319266615e+02, 6.496930287662539e+01, 2.542050952699676e+02
303, -9.999999999966160e-05, 9.000000000000792e-03, 7.225142517627097e-04, -2.227463910615642e-05, 1.569562998552538e+01, 1.624041389405272e+02, 7.095955149487193e+01, 2.041186380348776e+02
304, -4.999999999955923e-05, 9.000000000000320e-03, 7.222009162576338e-04, -2.784572609898540e-05, 1.854132950836178e+01, 9.459220437473044e+01, 7.162203293142716e+01, 1.621807570979424e+02
305, 5.128818376942679e-16, 8.999999999999852e-03, 7.218885921279109e-04, -3.341664266137212e-05, 2.040428041638382e+01, 2.756097623978864e+01, 6.702487643531684e+01, 1.342406590410920e+02
306, 5.000000000037403e-05, 8.999999999999380e-03, 7.215772546666257e-04, -3.898764776867707e-05, 2.107250041043728e+01, -3.826071616329796e+01, 5.723737345215272e+01, 1.289375750810855e+02
307, 1.000000000002695e-04, 8.999999999998908e-03, 7.212668692423385e-04, -4.455899934902267e-05, 2.033466093537996e+01, -1.024453241576683e+02, 4.233062466238277e+01, 1.491390353887247e+02
308, 1.500000000001538e-04, 8.999999999998436e-03, 7.209573913188476e-04, -5.013095420520894e-05, 1.797947190136542e+01, -1.645663563249834e+02, 2.237786888750328e+01, 1.879522691180631e+02
309, 2.000000000000626e-04, 8.999999999997964e-03, 7.206487664585339e-04, -5.570376792981252e-05, 1.379450688237248e+01, -2.241981676264591e+02, -2.545475193225639e+00, 2.380471190661713e+02
310, -1.999999999999118e-04, 8.900000000002187e-03, 7.119959447453571e-04, -1.051905533425720e-05, 8.792820882790814e+00, 3.429017994940459e+02, 6.070262438163248e+01, 3.554828322379667e+02
311, -1.499999999998104e-04, 8.900000000001712e-03, 7.116802618249880e-04, -1.608876849620102e-05, 1.315354995920992e+01, 2.635604341735516e+02, 7.233554515354420e+01, 2.891942807743204e+02
312, -9.999999999966923e-05, 8.900000000001240e-03, 7.113657727770631e-04, -2.165774515476727e-05, 1.686446424798772e+01, 1.842210844182241e+02, 7.814044456673415e+01, 2.289802494171761e+02
313, -4.999999999956943e-05, 8.900000000000770e-03, 7.110524707171138e-04, -2.722626765066995e-05, 1.971192679787517e+01, 1.053170993599054e+02, 7.818656984668569e+01, 1.782717150501941e+02
314, 5.000475944774707e-16, 8.900000000000293e-03, 7.107403387322134e-04, -3.279461732044904e-05, 2.148315443989488e+01, 2.728195818641185e+01, 7.254356736774075e+01, 1.452029710117613e+02
315, 5.000000000036387e-05, 8.899999999999823e-03, 7.104293498901222e-04, -3.836307446779654e-05, 2.196505828288244e+01, -4.945204421833068e+01, 6.128208957025946e+01, 1.418533769004390e+02
316, 1.000000000002620e-04, 8.899999999999349e-03, 7.101194672515808e-04, -4.393191831908387e-05, 2.094478786317626e+01, -1.244531308240506e+02, 4.447417729207550e+01, 1.704475419060225e+02
317, 1.500000000001494e-04, 8.899999999998874e-03, 7.098106438773708e-04, -4.950142696583375e-05, 1.820960811940215e+01, -1.972897996474086e+02, 2.219343926584816e+01, 2.200231572667608e+02
318, 2.000000000000606e-04, 8.899999999998404e-03, 7.095028228282789e-04, -5.507187731035600e-05, 1.354733049371167e+01, -2.675299876317935e+02, -5.485053686710495e+00, 2.812913116689011e+02
319, -1.999999999999137e-04, 8.800000000002590e-03, 7.008525952898873e-04, -9.909370676387735e-06, 9.737391161960524e+00, 3.905915407897057e+02, 6.818090321762337e+01, 4.045298821384604e+02
320, -1.499999999998147e-04, 8.800000000002060e-03, 7.005366240082304e-04, -1.547618707806730e-05, 1.427785286949825e+01, 2.991089447687610e+02, 7.997649398967644e+01, 3.266706434255293e+02
321, -9.999999999967683e-05, 8.800000000001532e-03, 7.002220221149758e-04, -2.104222269930058e-05, 1.807418862742508e+01, 2.077145596191244e+02, 8.551168203178830e+01, 2.553673067671193e+02
322, -4.999999999957961e-05, 8.800000000001001e-03, 6.999087805576332e-04, -2.660778134989802e-05, 2.091419842109898e+01, 1.168445775340367e+02, 8.485564863958400e+01, 1.949475879843865e+02
323, 4.872540088421418e-16, 8.800000000000474e-03, 6.995968802141538e-04, -3.217316584350756e-05, 2.258415889729893e+01, 2.693461773405753e+01, 7.807834237474030e+01, 1.562172739617453e+02
324, 5.000000000035368e-05, 8.799999999999947e-03, 6.992862918867531e-04, -3.773867795832995e-05, 2.287004891206640e+01, -6.157983554165210e+01, 6.525088357588265e+01, 1.554428969556987e+02
325, 1.000000000002544e-04, 8.799999999999419e-03, 6.989769763006315e-04, -4.330461838992549e-05, 2.155772576753143e+01, -1.482635183638450e+02, 4.644572055676369e+01, 1.935667192222787e+02
326, 1.500000000001451e-04, 8.799999999998892e-03, 6.986688841053616e-04, -4.887128669951001e-05, 1.843335214766289e+01, -2.326810455613193e+02, 2.173672292098986e+01, 2.548497228370485e+02
327, 2.000000000000587e-04, 8.799999999998365e-03, 6.983619558782291e-04, -5.443898125934188e-05, 1.328392520980515e+01, -3.143965681045463e+02, -8.800791056029862e+00, 3.281528933158815e+02
328, -1.999999999999156e-04, 8.700000000002964e-03, 6.897147696524851e-04, -9.302071037132191e-06, 1.071009347377802e+01, 4.417248155978087e+02, 7.602790091099844e+01, 4.570499508318383e+02
329, -1.499999999998191e-04, 8.700000000002345e-03, 6.893985146784309e-04, -1.486555876788003e-05, 1.542397230599044e+01, 3.372237167878949e+02, 8.790090035194827e+01, 3.666897171715503e+02
330, -9.999999999968445e-05, 8.700000000001731e-03, 6.890838171992277e-04, -2.042822238995502e-05, 1.930139220285942e+01, 2.328976836761989e+02, 9.308028656649611e+01, 2.833357279277852e+02
331, -4.999999999958977e-05, 8.700000000001117e-03, 6.887706659882570e-04, -2.599038725964306e-05, 2.212884344484683e+01, 1.291853611069007e+02, 9.163397719362145e+01, 2.122457092127193e+02
332, 4.743926605710325e-16, 8.700000000000502e-03, 6.884590396943761e-04, -3.155237777532042e-05, 2.369168823598992e+01, 2.652528025367214e+01, 8.363167749451362e+01, 1.672873550687798e+02
333, 5.000000000034347e-05, 8.699999999999888e-03, 6.881489068293037e-04, -3.711451731939369e-05, 2.377474587177188e+01, -7.464413631805857e+01, 6.914455691132468e+01, 1.697355454032814e+02
334, 1.000000000002468e-04, 8.699999999999274e-03, 6.878402257636906e-04, -4.267712820079643e-05, 2.216275664699418e+01, -1.738844279971280e+02, 4.824522758681347e+01, 2.185060789692137e+02
335, 1.500000000001407e-04, 8.699999999998657e-03, 6.875329447263421e-04, -4.824053159879753e-05, 1.864048029326948e+01, -2.707571520891254e+02, 2.100776555672419e+01, 2.924316919953802e+02
336, 2.000000000000568e-04, 8.699999999998044e-03, 6.872270018051239e-04, -5.380504750364714e-05, 1.299286754931707e+01, -3.648238323569781e+02, -1.249212827352628e+01, 3.786418780368759e+02
337, -1.999999999999175e-04, 8.600000000003331e-03, 6.785833396957194e-04, -8.697376192165367e-06, 1.171625444513953e+01, 4.963340127443914e+02, 8.425159147625567e+01, 5.130766943880025e+02
338, -1.499999999998235e-04, 8.600000000002632e-03, 6.782668086447016e-04, -1.425707262955364e-05, 1.659321506432675e+01, 3.779305486636179e+02, 9.611795516565016e+01, 4.092912335654761e+02
339, -9.999999999969208e-05, 8.600000000001931e-03, 6.779520358172755e-04, -1.981590252080548e-05, 2.054389380271189e+01, 2.597897334157427e+02, 1.008541331098174e+02, 3.129293793070173e+02
340, -4.999999999959999e-05, 8.600000000001230e-03, 6.776390078305033e-04, -2.537421290097507e-05, 2.335166148684191e+01, 1.423525647759802e+02, 9.852761587397151e+01, 2.301998682511925e+02
341, 4.615584173542353e-16, 8.600000000000526e-03, 6.773277010982158e-04, -3.093234988749838e-05, 2.479979609013809e+01, 2.606014854739733e+01, 8.920781050955094e+01, 1.784200726150180e+02
342, 5.000000000033329e-05, 8.599999999999825e-03, 6.770180818294845e-04, -3.649065860014355e-05, 2.467166024136278e+01, -8.864619359146306e+01, 7.296583815595987e+01, 1.847619824219382e+02
343, 1.000000000002392e-04, 8.599999999999124e-03, 6.767101060265745e-04, -4.204948309727382e-05, 2.275059347758312e+01, -2.013250866109830e+02, 4.987435862185795e+01, 2.452747785625751e+02
344, 1.500000000001364e-04, 8.599999999998423e-03, 6.764037194845201e-04, -4.760916631533632e-05, 1.881990366289545e+01, -3.115351545879694e+02, 2.000751266665841e+01, 3.327696902729548e+02
345, 2.000000000000548e-04, 8.599999999997722e-03, 6.760988577902582e-04, -5.317005001235953e-05, 1.266216725017397e+01, -4.188355563155362e+02, -1.655907761055437e+01, 4.327667936055624e+02
346, -1.999999999999195e-04, 8.500000000003703e-03, 6.674592378395249e-04, -8.095513365984130e-06, 1.275790877112221e+01, 5.544410163968769e+02, 9.285654477562188e+01, 5.726342119693543e+02
347, -1.499999999998278e-04, 8.500000000002915e-03, 6.671424414290933e-04, -1.365092507943334e-05, 1.779103574968676e+01, 4.212496356812714e+02, 1.046320887242901e+02, 4.545000966138350e+02
348, -9.999999999969967e-05, 8.500000000002127e-03, 6.668276166599585e-04, -1.920542861989382e-05, 2.180710951404181e+01, 2.884073333312190e+02, 1.088373478406234e+02, 3.441772108656998e+02
349, -4.999999999961013e-05, 8.500000000001340e-03, 6.665147479904015e-04, -2.475939289647844e-05, 2.458641171514995e+01, 1.563577208944497e+02, 1.055398523395268e+02, 2.488339198144480e+02
350, 4.487512791917503e-16, 8.500000000000552e-03, 6.662038095992141e-04, -3.031318589619474e-05, 2.591060654277987e+01, 2.554514039904787e+01, 9.480906309226719e+01, 1.896184783802365e+02
351, 5.000000000032310e-05, 8.499999999999765e-03, 6.658947653888332e-04, -3.586717461934681e-05, 2.556143866132965e+01, -1.035861436739876e+02, 7.671605302756114e+01, 2.005505153111501e+02
352, 1.000000000002316e-04, 8.499999999998977e-03, 6.655875689876719e-04, -4.142172501264974e-05, 2.332074990516352e+01, -2.305918305478464e+02, 5.133346141404769e+01, 2.738833612238909e+02
353, 1.500000000001320e-04, 8.499999999998190e-03, 6.652821637508580e-04, -4.697720190855180e-05, 1.897045893467485e+01, -3.550275519905721e+02, 1.873541459913838e+01, 3.758704234398439e+02
354, 2.000000000000531e-04, 8.499999999997402e-03, 6.649784827610279e-04, -5.253396896829576e-05, 1.229275124870482e+01, -4.764486611790900e+02, -2.100271055259260e+01, 4.905431924144293e+02
355, -1.999999999999213e-04, 8.400000000004074e-03, 6.563434578669995e-04, -7.496717079533385e-06, 1.386965279337341e+01, 6.160982968624753e+02, 1.018383994696470e+02, 6.357386083631122e+02
356, -1.499999999998322e-04, 8.400000000003200e-03, 6.560264100805803e-04, -1.304731963570461e-05, 1.904326497931750e+01, 4.672193176553070e+02, 1.134405411277260e+02, 5.023313644175890e+02
357, -9.999999999970726e-05, 8.400000000002326e-03, 6.557115600593886e-04, -1.859697320703375e-05, 2.310882973287951e+01, 3.187767748854975e+02, 1.170281199536562e+02, 3.770966152464391e+02
358, -4.999999999962035e-05, 8.400000000001451e-03, 6.553988901158366e-04, -2.414606873798358e-05, 2.584598118934662e+01, 1.712182065482745e+02, 1.126696763222428e+02, 2.681620923173945e+02
359, 4.359305885021092e-16, 8.400000000000581e-03, 6.550883722025073e-04, -2.969499625022139e-05, 2.703393717545308e+01, 2.499024994665577e+01, 1.004348765769743e+02, 2.008801493169930e+02
360, 5.000000000031294e-05, 8.399999999999703e-03, 6.547799679251413e-04, -3.524414477224583e-05, 2.645252556276984e+01, -1.194602714598724e+02, 8.039490089732108e+01, 2.171264716614055e+02
361, 1.000000000002240e-04, 8.399999999998832e-03, 6.544736285478578e-04, -4.079390228202800e-05, 2.388184944534503e+01, -2.616863945030371e+02, 5.262237275368651e+01, 3.043446704127977e+02
362, 1.500000000001277e-04, 8.399999999997958e-03, 6.541692949957448e-04, -4.634465564787214e-05, 1.910225333521723e+01, -4.012409511933013e+02, 1.719138447119927e+01, 4.217470621041127e+02
363, 2.000000000000511e-04, 8.399999999997083e-03, 6.538668978569455e-04, -5.189679056959727e-05, 1.189501979592376e+01, -5.376760661500840e+02, -2.582238935673397e+01, 5.519923565378757e+02
364, -1.999999999999233e-04, 8.300000000004210e-03, 6.452370570472948e-04, -6.901229561545186e-06, 1.500692294454025e+01, 6.812944135513144e+02, 1.111988119683371e+02, 7.024241761725962e+02
365, -1.499999999998365e-04, 8.300000000003279e-03, 6.449197747072293e-04, -1.244646723806737e-05, 2.032075243702602e+01, 5.158347257584368e+02, 1.225421218502787e+02, 5.528113460006462e+02
366, -9.999999999971485e-05, 8.300000000002344e-03, 6.446049291436922e-04, -1.799071595445185e-05, 2.443298644707610e+01, 3.508982911648178e+02, 1.254249020451161e+02, 4.117101157326060e+02
367, -4.999999999963053e-05, 8.300000000001409e-03, 6.442925004774793e-04, -2.353438886250589e-05, 2.712138530664421e+01, 1.869348972756893e+02, 1.199155648348789e+02, 2.882001550425542e+02
368, 4.231098978124681e-16, 8.300000000000474e-03, 6.439824584184733e-04, -2.907789815369028e-05, 2.816482015687674e+01, 2.439458415701780e+01, 1.060841830505357e+02, 2.122018620405884e+02
369, 5.000000000030276e-05, 8.299999999999542e-03, 6.436747622716948e-04, -3.462165502277721e-05, 2.734221194401737e+01, -1.362727602441022e+02, 8.400200175010794e+01, 2.345105633361101e+02
370, 1.000000000002164e-04, 8.299999999998609e-03, 6.433693609413969e-04, -4.016606961451089e-05, 2.443247353977526e+01, -2.946173054913215e+02, 5.374159450636132e+01, 3.366680819741252e+02
371, 1.500000000001233e-04, 8.299999999997672e-03, 6.430661929322421e-04, -4.571155097008065e-05, 1.921451515701634e+01, -4.501890909216846e+02, 1.537693445531755e+01, 4.704099763532453e+02
372, 2.000000000000492e-04, 8.299999999996739e-03, 6.427651863479587e-04, -5.125850696883866e-05, 1.146677520060144e+01, -6.025383048217416e+02, -3.101638566819461e+01, 6.171307017260742e+02
373, -1.999999999999252e-04, 8.200000000004194e-03, 6.341411545387260e-04, -6.309300490602485e-06, 1.622864444326034e+01, 7.501039721833376e+02, 1.209313427184670e+02, 7.727034070536838e+02
374, -1.499999999998408e-04, 8.200000000003217e-03, 6.338236577902937e-04, -1.184858606091397e-05, 2.166077551983018e+01, 5.671473132555022e+02, 1.319324456495584e+02, 6.059539947150654e+02
375, -9.999999999972244e-05, 8.200000000002240e-03, 6.335088496543319e-04, -1.738684363255378e-05, 2.579992140634018e+01, 3.848044348424530e+02, 1.340233349554103e+02, 4.480326527361378e+02
376, -4.999999999964069e-05, 8.200000000001265e-03, 6.331967080741798e-04, -2.292450864823660e-05, 2.842301379796849e+01, 2.035270676072260e+02, 1.272737839312107e+02, 3.089593726772331e+02
377, 4.102892071228270e-16, 8.200000000000287e-03, 6.328872005247617e-04, -2.846201559903165e-05, 2.930735412998747e+01, 2.376735406881162e+01, 1.117539531707864e+02, 2.235765546694712e+02
378, 5.000000000029257e-05, 8.199999999999309e-03, 6.325802840186826e-04, -3.399979797073074e-05, 2.823010982800238e+01, -1.540229022731658e+02, 8.753517135873005e+01, 2.527168085410179e+02
379, 1.000000000002088e-04, 8.199999999998328e-03, 6.322759051112561e-04, -3.953828820046744e-05, 2.496854818948038e+01, -3.293917455910616e+02, 5.468989666316322e+01, 3.708573270091099e+02
380, 1.500000000001190e-04, 8.199999999997352e-03, 6.319739999005029e-04, -4.507791763184181e-05, 1.929973927059840e+01, -5.018870468807620e+02, 1.329178322019645e+01, 5.218643042625876e+02
381, 2.000000000000473e-04, 8.199999999996377e-03, 6.316744940209080e-04, -5.061911646841632e-05, 1.100016023230182e+01, -6.710564294923026e+02, -3.658429479419646e+01, 6.859699950355789e+02
382, -1.999999999999271e-04, 8.100000000004175e-03, 6.230569345102491e-04, -5.721187196312491e-06, 1.747320935252942e+01, 8.225051446904417e+02, 1.310358415481786e+02, 8.466156058063552e+02
383, -1.499999999998452e-04, 8.100000000003150e-03, 6.227392461937350e-04, -1.125390178704186e-05, 2.302209058711570e+01, 6.211468741369531e+02, 1.416080989938679e+02, 6.617889931837550e+02
384, -9.999999999973005e-05, 8.100000000002133e-03, 6.224245113375111e-04, -1.678555027739360e-05, 2.718275582551760e+01, 4.204906094732262e+02, 1.428200522837635e+02, 4.860877874194282e+02
385, -4.999999999965090e-05, 8.100000000001112e-03, 6.221127056749543e-04, -2.231659053748752e-05, 2.973353386641335e+01, 2.209926750984466e+02, 1.347407631038875e+02, 3.304547655460374e+02
386, 3.974685164331859e-16, 8.100000000000092e-03, 6.218037944213198e-04, -2.784747946271640e-05, 3.045002771659053e+01, 2.310631455715096e+01, 1.174407345000885e+02, 2.349962438054048e+02
387, 5.000000000028236e-05, 8.099999999999071e-03, 6.214977322873431e-04, -3.337867293663334e-05, 2.910845631179476e+01, -1.727147328100146e+02, 9.099132023328025e+01, 2.717540820272605e+02
388, 1.000000000002012e-04, 8.099999999998051e-03, 6.211944634819734e-04, -3.891062579690210e-05, 2.548501582688944e+01, -3.660164827911648e+02, 5.546475872037832e+01, 4.069137270476647e+02
389, 1.500000000001146e-04, 8.099999999997031e-03, 6.208939217103464e-04, -4.444379180122580e-05, 1.935573948854137e+01, -5.563445354886262e+02, 1.093420183839309e+01, 5.761154690582065e+02
390, 2.000000000000454e-04, 8.099999999996011e-03, 6.205960301662944e-04, -4.997862359620655e-05, 1.049631801227845e+01, -7.432439309199681e+02, -4.252627788452286e+01, 7.585237637037430e+02
391, -1.999999999999291e-04, 8.000000000004158e-03, 6.119856438132687e-04, -5.137154698640068e-06, 1.874435338594178e+01, 8.985149283308378e+02, 1.415168599107258e+02, 9.241776620838879e+02
392, -1.499999999998495e-04, 8.000000000003093e-03, 6.116677898764524e-04, -1.066264745577292e-05, 2.440285769985626e+01, 6.778430465907611e+02, 1.515722150927367e+02, 7.203336907366313e+02
393, -9.999999999973761e-05, 8.000000000002028e-03, 6.113531673058853e-04, -1.618703708207112e-05, 2.858181368975040e+01, 4.579671930764122e+02, 1.518149582952253e+02, 5.258925082939968e+02
394, -4.999999999966106e-05, 8.000000000000966e-03, 6.110417495753095e-04, -2.171080395115741e-05, 3.105289915695509e+01, 2.393395071570918e+02, 1.423147971569261e+02, 3.527000383207674e+02
395, 3.846478257435448e-16, 7.999999999999901e-03, 6.107334996263774e-04, -2.723442743626474e-05, 3.159272744002197e+01, 2.241603794422573e+01, 1.231421985412909e+02, 2.464553019848287e+02
396, 5.000000000027218e-05, 7.999999999998840e-03, 6.104283698681884e-04, -3.275838589771526e-05, 2.997738538020565e+01, -1.923473671105525e+02, 9.436819433300178e+01, 2.916328513332502e+02
397, 1.000000000001936e-04, 7.999999999997775e-03, 6.101263021760386e-04, -3.828315665806778e-05, 2.598268605890718e+01, -4.044945890856378e+02, 5.606453488643563e+01, 4.448411095031592e+02
398, 1.500000000001103e-04, 7.999999999996709e-03, 6.098272278857161e-04, -4.380921597689723e-05, 1.938415920845287e+01, -6.135690463334638e+02, 8.303741744941938e+00, 6.331710423840105e+02
399, 2.000000000000435e-04, 7.999999999995648e-03, 6.095310677860973e-04, -4.933703902428885e-05, 9.957170502787633e+00, -8.191134680682985e+02, -4.884092828289475e+01, 8.348052879820586e+02
400, -1.999999999999309e-04, 7.900000000004136e-03, 6.009285922843339e-04, -4.557474439613360e-06, 2.012961452200511e+01, 9.782209703027265e+02, 1.523582506666450e+02, 1.005381117888406e+03
401, -1.499999999998538e-04, 7.900000000003030e-03, 6.006106022887559e-04, -1.007506270831150e-05, 2.586921517149202e+01, 7.373057938874558e+02, 1.618116852386462e+02, 7.815843469864009e+02
402, -9.999999999974523e-05, 7.900000000001926e-03, 6.002961344130509e-04, -1.559151192168410e-05, 3.003478937710672e+01, 4.972784991554294e+02, 1.609980464593405e+02, 5.674488242848911e+02
403, -4.999999999967128e-05, 7.900000000000816e-03, 5.999851599386498e-04, -2.110732499075666e-05, 3.240295394936621e+01, 2.585958172296212e+02, 1.499884488621877e+02, 3.756984835839247e+02
404, 3.718271350539037e-16, 7.899999999999709e-03, 5.996776395786749e-04, -2.662300383462066e-05, 3.274787395346341e+01, 2.171329751316577e+01, 1.288530079583688e+02, 2.579421495546911e+02
405, 5.000000000026201e-05, 7.899999999998603e-03, 5.993735234820674e-04, -3.213904935959833e-05, 3.084413741301125e+01, -2.129125413054271e+02, 9.766234326216423e+01, 3.123604513789656e+02
406, 1.000000000001860e-04, 7.899999999997496e-03, 5.990727512293978e-04, -3.765596144690431e-05, 2.646623661968189e+01, -4.448245160691126e+02, 5.648763051092454e+01, 4.846425313289428e+02
407, 1.500000000001060e-04, 7.899999999996389e-03, 5.987752518268859e-04, -4.317423893320181e-05, 1.938837383268080e+01, -6.735648777774263e+02, 5.400720452224292e+00, 6.930374304773391e+02
408, 2.000000000000416e-04, 7.899999999995286e-03, 5.984809436979231e-04, -4.869437958728596e-05, 9.384788896759687e+00, -8.986749487637604e+02, -5.552572695561283e+01, 9.148250721181014e+02
409, -1.999999999999328e-04, 7.800000000004094e-03, 5.898871576740688e-04, -3.982425551833930e-06, 2.149227314729134e+01, 1.061539604248653e+03, 1.635602794541190e+02, 1.090278088833992e+03
410, -1.499999999998583e-04, 7.800000000002947e-03, 5.895690633739168e-04, -9.491394635630883e-06, 2.732080777691574e+01, 7.994774449011071e+02, 1.723223877878318e+02, 8.455802112079845e+02
411, -9.999999999975283e-05, 7.800000000001799e-03, 5.892547951270048e-04, -1.499918986875372e-05, 3.147888238805318e+01, 5.383926716532038e+02, 1.703658616656585e+02, 6.107861303529105e+02
412, -4.999999999968147e-05, 7.800000000000654e-03, 5.889443219736039e-04, -2.050633675235808e-05, 3.374326108742547e+01, 2.787430710259810e+02, 1.577589945966392e+02, 3.994702847202756e+02
413, 3.590064443642627e-16, 7.799999999999507e-03, 5.886376023892939e-04, -2.601335978347454e-05, 3.388930310959891e+01, 2.098624928359951e+01, 1.345714858171977e+02, 2.694520884651473e+02
414, 5.000000000025183e-05, 7.799999999998360e-03, 5.883345842677784e-04, -3.152078246943857e-05, 3.169171419065623e+01, -2.344194885645650e+02, 1.008733120802667e+02, 3.339414208989385e+02
415, 1.000000000001784e-04, 7.799999999997211e-03, 5.880352049099698e-04, -3.702912731137670e-05, 2.692471564241130e+01, -4.870152486693140e+02, 5.673502628565627e+01, 5.263171474950002e+02
416, 1.500000000001016e-04, 7.799999999996065e-03, 5.877393910150891e-04, -4.253891578605459e-05, 1.936211583818907e+01, -7.363415569029651e+02, 2.227780476104989e+00, 7.557168074205233e+02
417, 2.000000000000397e-04, 7.799999999994919e-03, 5.874470586721197e-04, -4.805066832960946e-05, 8.776416177014774e+00, -9.819391129493370e+02, -6.257659101522491e+01, 9.985892942668943e+02
418, -1.999999999999347e-04, 7.700000000003952e-03, 5.788627793771699e-04, -3.412294476541085e-06, 2.289818647053988e+01, 1.148539346786365e+03, 1.751231584485315e+02, 1.178872556427162e+03
419, -1.499999999998626e-04, 7.700000000002785e-03, 5.785446157936868e-04, -8.911897444527536e-06, 2.879551437373114e+01, 8.644032061845542e+02, 1.831085442616133e+02, 9.123350100373437e+02
420, -9.999999999976044e-05, 7.700000000001617e-03, 5.782305952318004e-04, -1.441029300738148e-05, 3.293203637727906e+01, 5.813374966580973e+02, 1.799208167596165e+02, 6.559226708077761e+02
421, -4.999999999969162e-05, 7.700000000000449e-03, 5.779206845483550e-04, -1.990802919671700e-05, 3.508134817078007e+01, 2.997976095693883e+02, 1.656284129928381e+02, 4.240351209640079e+02
422, 3.461857536746216e-16, 7.699999999999279e-03, 5.776148400172853e-04, -2.540565312505137e-05, 3.501882890061923e+01, 2.024292979311107e+01, 1.402995537507508e+02, 2.809878757617036e+02
423, 5.000000000024164e-05, 7.699999999998113e-03, 5.773130073051759e-04, -3.090371094852085e-05, 3.251852613126695e+01, -2.568668956030746e+02, 1.040032854258054e+02, 3.563855438002626e+02
424, 1.000000000001708e-04, 7.699999999996944e-03, 5.770151214568728e-04, -3.640274784473074e-05, 2.735385921093761e+01, -5.310716149957167e+02, 5.680936637648237e+01, 5.698668499529660e+02
425, 1.500000000000973e-04, 7.699999999995776e-03, 5.767211068856125e-04, -4.190330798901593e-05, 1.929784106720605e+01, -8.019103822710673e+02, -1.211731808633076e+00, 8.212117992663692e+02
426, 2.000000000000377e-04, 7.699999999994609e-03, 5.764308773665397e-04, -4.740593453194861e-05, 8.123456398952577e+00, -1.068921502472949e+03, -6.998916340567921e+01, 1.086103022465311e+03
427, -1.999999999999367e-04, 7.600000000003967e-03, 5.678569615329725e-04, -2.847373917728565e-06, 2.433820702076379e+01, 1.239224738418308e+03, 1.870414474546518e+02, 1.271175556890111e+03
428, -1.499999999998669e-04, 7.600000000002791e-03, 5.675387666618991e-04, -8.336831931086599e-06, 3.029252189986319e+01, 9.320955304316924e+02, 1.941648460241565e+02, 9.818597740631784e+02
429, -9.999999999976803e-05, 7.600000000001615e-03, 5.672250448290471e-04, -1.382505001445696e-05, 3.439246046318667e+01, 6.261215665532429e+02, 1.896615360235633e+02, 7.028721988963617e+02
430, -4.999999999970180e-05, 7.600000000000435e-03, 5.669157607880785e-04, -1.931259882859321e-05, 3.641655912749405e+01, 3.217657744983742e+02, 1.735972760483976e+02, 4.494087579458940e+02
431, 3.333650629849805e-16, 7.599999999999259e-03, 5.666108686600428e-04, -2.480004815702175e-05, 3.613775115863446e+01, 1.948777004410609e+01, 1.460391947929170e+02, 2.925525722569678e+02
432, 5.000000000023146e-05, 7.599999999998081e-03, 5.663103119219128e-04, -3.028796686824976e-05, 3.332876365171911e+01, -2.802517244889982e+02, 1.070553649412561e+02, 3.797053162564262e+02
433, 1.000000000001632e-04, 7.599999999996904e-03, 5.660140233956457e-04, -3.577692288033958e-05, 2.776192893487102e+01, -5.769912208456926e+02, 5.671473125864283e+01, 6.152988015074246e+02
434, 1.500000000000929e-04, 7.599999999995727e-03, 5.657219252400080e-04, -4.126748312985050e-05, 1.920941372623133e+01, -8.702684042214331e+02, -4.912937742039482e+00, 8.895320884880811e+02
435, 2.000000000000358e-04, 7.599999999994550e-03, 5.654339289457571e-04, -4.676021354305310e-05, 7.444200076436871e+00, -1.159619653547216e+03, -7.775686462610624e+01, 1.177379530321816e+03
436, -1.999999999999386e-04, 7.500000000004145e-03, 5.568712730723360e-04, -2.287963655531802e-06, 2.576310369635659e+01, 1.333566668831461e+03, 1.993162139434396e+02, 1.367208095917764e+03
437, -1.499999999998712e-04, 7.500000000002950e-03, 5.565530875688427e-04, -7.766465624555485e-06, 3.177001995943685e+01, 1.002526233507450e+03, 2.054950821674505e+02, 1.054172918131606e+03
438, -9.999999999977570e-05, 7.500000000001755e-03, 5.562397183483766e-04, -1.324369614383249e-05, 3.583729876164314e+01, 6.727303835063192e+02, 1.995914108367273e+02, 7.516513330758950e+02
439, -4.999999999971198e-05, 7.500000000000564e-03, 5.559311280615509e-04, -1.872024858661305e-05, 3.773575268856435e+01, 3.446391082674403e+02, 1.816692708796820e+02, 4.756096777751638e+02
440, 3.205443722953394e-16, 7.499999999999370e-03, 5.556272686921696e-04, -2.419671548518793e-05, 3.723851869924066e+01, 1.871478480718369e+01, 1.517947684649399e+02, 3.041541314047906e+02
441, 5.000000000022125e-05, 7.499999999998177e-03, 5.553280815487996e-04, -2.967368848508955e-05, 3.411803042024688e+01, -3.045798578372758e+02, 1.100350166419202e+02, 4.039146927999227e+02
442, 1.000000000001556e-04, 7.499999999996980e-03, 5.550334972565714e-04, -3.515175830876930e-05, 2.814625075575130e+01, -6.247814126104921e+02, 5.645803771655918e+01, 6.626194787961792e+02
443, 1.500000000000885e-04, 7.499999999995787e-03, 5.547434357476589e-04, -4.063151472199927e-05, 1.909468109743469e+01, -9.414257737027930e+02, -8.867190227836041e+00, 9.606841584723787e+02
444, 2.000000000000339e-04, 7.499999999994593e-03, 5.544578062525528e-04, -4.611354649458441e-05, 6.733912823605664e+00, -1.254048558936816e+03, -8.587055949799486e+01, 1.272425814361023e+03
445, -1.999999999999404e-04, 7.400000000004559e-03, 5.459073451224421e-04, -1.734369316560121e-06, 2.727315683700451e+01, 1.431652252088738e+03, 2.119341936679625e+02, 1.466950937476382e+03
446, -1.499999999998756e-04, 7.400000000003323e-03, 5.455892132243258e-04, -7.201072006199457e-06, 3.330550055800634e+01, 1.075761576255891e+03, 2.170912739460399e+02, 1.129260445890802e+03
447, -9.999999999978329e-05, 7.400000000002085e-03, 5.452762538754918e-04, -1.266647264772910e-05, 3.731413028925122e+01, 7.212047261496948e+02, 2.097053075987228e+02, 8.022540814770917e+02
448, -4.999999999972218e-05, 7.400000000000849e-03, 5.449684277006920e-04, -1.813118744214299e-05, 3.906781524269866e+01, 3.684423532867512e+02, 1.898417023633744e+02, 5.026401039875640e+02
449, 3.077507866600104e-16, 7.399999999999613e-03, 5.446656846068209e-04, -2.359583175511236e-05, 3.833725875369448e+01, 1.793723114569619e+01, 1.575658222800821e+02, 3.157912515089687e+02
450, 5.000000000021107e-05, 7.399999999998373e-03, 5.443679637876340e-04, -2.906102008167759e-05, 3.489339678266123e+01, -3.298468549748557e+02, 1.129438669970888e+02, 4.290229826258276e+02
451, 1.000000000001480e-04, 7.399999999997137e-03, 5.440751937180700e-04, -3.452736601794735e-05, 2.850682258335257e+01, -6.744453106512931e+02, 5.604285384373466e+01, 7.118320781525230e+02
452, 1.500000000000842e-04, 7.399999999995899e-03, 5.437872921445535e-04, -3.999548223205623e-05, 1.894744367032018e+01, -1.015392831426210e+03, -1.306934043652248e+01, 1.034670496015301e+03
453, 2.000000000000320e-04, 7.399999999994663e-03, 5.435041660699101e-04, -4.546598043526952e-05, 5.984080800473336e+00, -1.352223447118446e+03, -9.432390080798116e+01, 1.371246032610544e+03
454, -1.999999999999424e-04, 7.300000000004963e-03, 5.349668765819078e-04, -1.186902896308994e-06, 2.880094706118157e+01, 1.533446130751531e+03, 2.248829566293051e+02, 1.570428764870256e+03
455, -1.499999999998800e-04, 7.300000000003675e-03, 5.346488450582268e-04, -6.640930762194028e-06, 3.485793349742637e+01, 1.151782671309096e+03, 2.289396810694836e+02, 1.207134781293479e+03
456, -9.999999999979085e-05, 7.300000000002383e-03, 5.343363555510627e-04, -1.209362690029011e-05, 3.879980410171500e+01, 7.715359458972210e+02, 2.199930943771651e+02, 8.546871356162586e+02
457, -4.999999999973237e-05, 7.300000000001096e-03, 5.340293666566203e-04, -1.754563043658560e-05, 4.039919127304540e+01, 3.931712882106277e+02, 1.981076696197098e+02, 5.305042388391889e+02
458, 2.949029909160572e-16, 7.299999999999806e-03, 5.337278262324518e-04, -2.299757964248369e-05, 3.942626369472048e+01, 1.715273749001551e+01, 1.633483192558205e+02, 3.274550405542682e+02
459, 5.000000000020089e-05, 7.299999999998517e-03, 5.334316713942999e-04, -2.845011193248611e-05, 3.565099549720682e+01, -3.560547490984832e+02, 1.157803832873991e+02, 4.550316241383362e+02
460, 1.000000000001404e-04, 7.299999999997227e-03, 5.331408285090648e-04, -3.390386384556436e-05, 2.884296918750238e+01, -7.259852727032155e+02, 5.546982991822492e+01, 7.629372732279235e+02
461, 1.500000000000799e-04, 7.299999999995936e-03, 5.328552131835171e-04, -3.935947102479764e-05, 1.877127956315283e+01, -1.092171865318365e+03, -1.751669864334199e+01, 1.111495393640785e+03
462, 2.000000000000302e-04, 7.299999999994650e-03, 5.325747302498536e-04, -4.481756819899694e-05, 5.204210561443261e+00, -1.454146561170017e+03, -1.031119486620436e+02, 1.473849711056302e+03
463, -1.999999999999443e-04, 7.200000000005343e-03, 5.240516317055851e-04, -6.458832794526160e-07, 3.034076406855169e+01, 1.638960852295932e+03, 2.381594064637989e+02, 1.677658546843613e+03
464, -1.499999999998843e-04, 7.200000000003976e-03, 5.237337499592477e-04, -6.086328114036509e-06, 3.641308485798025e+01, 1.230592259511446e+03, 2.410368770966825e+02, 1.287811712036397e+03
465, -9.999999999979844e-05, 7.200000000002606e-03, 5.234217929490436e-04, -1.152541259765492e-05, 4.028322966560002e+01, 8.237264431831136e+02, 2.304505018016577e+02, 9.089625976514060e+02
466, -4.999999999974257e-05, 7.200000000001237e-03, 5.231157172478702e-04, -1.696379877246418e-05, 4.172191288203769e+01, 4.188276538177580e+02, 2.064636650339210e+02, 5.592116949453356e+02
467, 2.821094052807283e-16, 7.199999999999870e-03, 5.228154686845810e-04, -2.240214785804874e-05, 4.049988380957346e+01, 1.636163861773123e+01, 1.691401741834461e+02, 3.391404561124601e+02
468, 5.000000000019069e-05, 7.199999999998501e-03, 5.225209823302591e-04, -2.784112023848906e-05, 3.638687803374957e+01, -3.832052823989925e+02, 1.185442654945751e+02, 4.819424785420031e+02
469, 1.000000000001328e-04, 7.199999999997132e-03, 5.222321824855861e-04, -3.328137545134778e-05, 2.915190100278269e+01, -7.794058717644251e+02, 5.474066842193071e+01, 8.159361709223257e+02
470, 1.500000000000756e-04, 7.199999999995762e-03, 5.219489826665198e-04, -3.872357217338981e-05, 1.856322367143190e+01, -1.171771885671053e+03, -2.220530463231677e+01, 1.191163286350214e+03
471, 2.000000000000282e-04, 7.199999999994395e-03, 5.216712855885931e-04, -4.416836820308007e-05, 4.389076354082093e+00, -1.559833405228410e+03, -1.122277669853456e+02, 1.580244366741473e+03
472, -1.999999999999461e-04, 7.100000000005715e-03, 5.131634395890638e-04, -1.116351843300848e-07, 3.193114042836703e+01, 1.748238690484684e+03, 2.517515963624693e+02, 1.788638328859281e+03
473, -1.499999999998886e-04, 7.100000000004259e-03, 5.128457599499388e-04, -5.537556273408747e-06, 3.799757319545625e+01, 1.312223698399789e+03, 2.533738914961125e+02, 1.371293379886589e+03
474, -9.999999999980600e-05, 7.100000000002804e-03, 5.125344009205671e-04, -1.096208940482527e-05, 4.177842880366883e+01, 8.777978847626364e+02, 2.410710491151582e+02, 9.650852468190881e+02
475, -4.999999999975274e-05, 7.100000000001348e-03, 5.122293171191841e-04, -1.638591956600778e-05, 4.304387651788434e+01, 4.454258522087237e+02, 2.149054015545954e+02, 5.887686989219372e+02
476, 2.692616095367750e-16, 7.099999999999895e-03, 5.119304524027028e-04, -2.180973095085233e-05, 4.156354586784501e+01, 1.557345683102544e+01, 1.749394546695801e+02, 3.508428935128971e+02
477, 5.000000000018050e-05, 7.099999999998441e-03, 5.116377398540916e-04, -2.723420695158534e-05, 3.710657832977715e+01, -4.112921109099207e+02, 1.212361070484408e+02, 5.097589225515559e+02
478, 1.000000000001252e-04, 7.099999999996985e-03, 5.113511017672412e-04, -3.266003014866693e-05, 2.944138484433658e+01, -8.347025492409114e+02, 5.385871549743541e+01, 8.708316621233199e+02
479, 1.500000000000712e-04, 7.099999999995530e-03, 5.110704496318357e-04, -3.808788229878415e-05, 1.833567704670085e+01, -1.254188376193621e+03, -2.712886171103585e+01, 1.273680245048231e+03
480, 2.000000000000263e-04, 7.099999999994075e-03, 5.107956841170277e-04, -4.351844432319848e-05, 3.556136065052101e+00, -1.669279210583886e+03, -1.216620123092559e+02, 1.690439196763558e+03
481, -1.999999999999481e-04, 7.000000000006086e-03, 5.023041962492948e-04, 4.155106171536626e-07, 3.352065610818443e+01, 1.861252060095707e+03, 2.656497220011727e+02, 1.903386766876191e+03
482, -1.499999999998929e-04, 7.000000000004546e-03, 5.019867734239971e-04, -4.994913418543554e-06, 3.957722709108370e+01, 1.396661899115907e+03, 2.659426592613151e+02, 1.457594181898598e+03
483, -9.999999999981362e-05, 7.000000000003004e-03, 5.016760803325840e-04, -1.040392289435775e-05, 4.326305469729439e+01, 9.337430211718070e+02, 2.518490426692618e+02, 1.023067119922317e+03
484, -4.999999999976293e-05, 7.000000000001462e-03, 5.013720696727742e-04, -1.581222576055142e-05, 4.434887082942996e+01, 4.729612179907929e+02, 2.234295490009868e+02, 6.191862382242601e+02
485, 2.564544713742900e-16, 6.999999999999921e-03, 5.010746833741337e-04, -2.122052921080661e-05, 4.260442917558672e+01, 1.478356892450354e+01, 1.807452228370685e+02, 3.625594331675794e+02
486, 5.000000000017032e-05, 6.999999999998381e-03, 5.007838525776168e-04, -2.662953967705755e-05, 3.779837725109181e+01, -4.403218709346244e+02, 1.238574999058521e+02, 5.384809122493421e+02
487, 1.000000000001176e-04, 6.999999999996837e-03, 5.004994976190196e-04, -3.203996281795538e-05, 2.969854342222092e+01, -8.918858570049878e+02, 5.282827269454953e+01, 9.276212118609278e+02
488, 1.500000000000668e-04, 6.999999999995296e-03, 5.002215280121021e-04, -3.745250350845904e-05, 1.807192144136357e+01, -1.339437956848716e+03, -3.228008014180807e+01, 1.359044180279285e+03
489, 2.000000000000244e-04, 6.999999999993755e-03, 4.999498424312381e-04, -4.286786582835858e-05, 2.684151139327440e+00, -1.782506853817035e+03, -1.314048546808295e+02, 1.804432283991801e+03
490, -1.999999999999499e-04, 6.900000000006458e-03, 4.914758627505260e-04, 9.352175662311329e-07, 3.513306855071806e+01, 1.978032288123495e+03, 2.798450314636690e+02, 2.021907600251830e+03
491, -1.499999999998973e-04, 6.900000000004828e-03, 4.911587540750884e-04, -4.458703472025126e-06, 4.116344454353572e+01, 1.483927102961563e+03, 2.787367522083715e+02, 1.546720298624950e+03
492, -9.999999999982122e-05, 6.900000000003202e-03, 4.908487974671604e-04, -9.851184330124338e-06, 4.474187586228416e+01, 9.915748317300970e+02, 2.627800201837198e+02, 1.082915510253872e+03
493, -4.999999999977310e-05, 6.900000000001573e-03, 4.905459437763716e-04, -1.524295593030782e-05, 4.563920641708594e+01, 5.014426519551605e+02, 2.320337268229165e+02, 6.504731989080778e+02
494, 2.436337806846489e-16, 6.899999999999946e-03, 4.902501330640333e-04, -2.063474849552373e-05, 4.362410224300234e+01, 1.399789903061834e+01, 1.865572164934813e+02, 3.742887815844393e+02
495, 5.000000000016015e-05, 6.899999999998319e-03, 4.899612945878588e-04, -2.602729152721610e-05, 3.846448295029018e+01, -4.702907466327217e+02, 1.264103350778108e+02, 5.681110585844996e+02
496, 1.000000000001100e-04, 6.899999999996692e-03, 4.896793467845255e-04, -3.142131379530204e-05, 2.992746304585751e+01, -9.509532625992890e+02, 5.165337145070329e+01, 9.863058760197297e+02
497, 1.500000000000625e-04, 6.899999999995065e-03, 4.894041972520907e-04, -3.681754332742359e-05, 1.777933572676807e+01, -1.427518301650669e+03, -3.765292924694084e+01, 1.447258177704414e+03
498, 2.000000000000225e-04, 6.899999999993437e-03, 4.891357427321784e-04, -4.221670740092863e-05, 1.786281405148159e+00, -1.899512644942664e+03, -1.414473573909929e+02, 1.922229701930268e+03
499, -1.999999999999519e-04, 6.800000000006828e-03, 4.806804663400101e-04, 1.447143642503464e-06, 3.674610464408011e+01, 2.098569569100970e+03, 2.943275907659890e+02, 2.144208693511304e+03
500, -1.499999999999017e-04, 6.800000000005111e-03, 4.803637315372740e-04, -3.929235814557327e-06, 4.274081219620942e+01, 1.574013866168045e+03, 2.917489781183352e+02, 1.638678440314817e+03
501, -9.999999999982880e-05, 6.800000000003401e-03, 4.800545843982381e-04, -9.304150379801301e-06, 4.620624606321894e+01, 1.051292423414987e+03, 2.738594350620006e+02, 1.144637141016096e+03
502, -4.999999999978328e-05, 6.800000000001686e-03, 4.797529739720892e-04, -1.467835400215310e-05, 4.691003897547066e+01, 5.308710114785897e+02, 2.407158915773140e+02, 6.826381067136595e+02
503, 2.308130899950078e-16, 6.799999999999972e-03, 4.794588385101682e-04, -2.005259995613727e-05, 4.462056448167377e+01, 1.321772680341613e+01, 1.923760802851474e+02, 3.860315573599611e+02
504, 5.000000000014997e-05, 6.799999999998255e-03, 4.791721054492959e-04, -2.542764083968318e-05, 3.910549472864042e+01, -5.011977495270172e+02, 1.288980854563449e+02, 5.986538745305451e+02
505, 1.000000000001024e-04, 6.799999999996542e-03, 4.788926913926814e-04, -3.080422856367788e-05, 3.013160163507038e+01, -1.011904317562382e+03, 5.034044899431689e+01, 1.046888485043884e+03
506, 1.500000000000582e-04, 6.799999999994830e-03, 4.786205020906168e-04, -3.618311434131351e-05, 1.746484949435765e+01, -1.518429413151051e+03, -4.323777655995407e+01, 1.538326755703897e+03
507, 2.000000000000206e-04, 6.799999999993115e-03, 4.783554324229799e-04, -4.156504867484228e-05, 8.702817566290832e-01, -2.020299243903990e+03, -1.517768956503765e+02, 2.043837360376855e+03
508, -1.999999999999538e-04, 6.700000000007203e-03, 4.699200996472491e-04, 1.950941693939457e-06, 3.838159897364358e+01, 2.222889634139688e+03, 3.090828844385001e+02, 2.270287266738794e+03
509, -1.499999999999060e-04, 6.700000000005407e-03, 4.696038009940154e-04, -3.406824902448338e-06, 4.432753433382220e+01, 1.666944175668054e+03, 3.049691305724544e+02, 1.733467463537536e+03
510, -9.999999999983645e-05, 6.700000000003612e-03, 4.692955387915813e-04, -8.763102804607365e-06, 4.766642227054311e+01, 1.112910811158847e+03, 2.850802951948559e+02, 1.208233713687696e+03
511, -4.999999999979346e-05, 6.700000000001816e-03, 4.689952603665990e-04, -1.411866898794116e-05, 4.816628204248289e+01, 5.612557130955454e+02, 2.494726028611103e+02, 7.156864415171943e+02
512, 2.179923993053667e-16, 6.700000000000018e-03, 4.687029022402340e-04, -1.947429980357994e-05, 4.559524469657651e+01, 1.244788004039015e+01, 1.982018430272571e+02, 3.977871668383183e+02
513, 5.000000000013978e-05, 6.699999999998221e-03, 4.684183901054916e-04, -2.483077097248949e-05, 3.972035482087369e+01, -5.330422121599793e+02, 1.313242091464364e+02, 6.301120136660179e+02
514, 1.000000000000948e-04, 6.699999999996424e-03, 4.681416388056203e-04, -3.018885757745564e-05, 3.030764698573196e+01, -1.074742597717186e+03, 4.889637601989917e+01, 1.109368949299329e+03
515, 1.500000000000538e-04, 6.699999999994629e-03, 4.678725523133609e-04, -3.554933405135566e-05, 1.712209047245250e+01, -1.612179917893373e+03, -4.902442013861221e+01, 1.632249554922476e+03
516, 2.000000000000187e-04, 6.699999999992831e-03, 4.676110237099021e-04, -4.091297416258416e-05, -7.247518001842934e-02, -2.144879441249617e+03, -1.623803401441575e+02, 2.169254807799675e+03
517, -1.999999999999557e-04, 6.600000000007607e-03, 4.591969223262180e-04, 2.446259602037753e-06, 4.002762355989998e+01, 2.350997814774099e+03, 3.240958064193769e+02, 2.400153243364910e+03
518, -1.499999999999103e-04, 6.600000000005753e-03, 4.588811242411298e-04, -2.891790206553160e-06, 4.591238215991356e+01, 1.762723071900263e+03, 3.183839626375406e+02, 1.831095938247329e+03
519, -9.999999999984406e-05, 6.600000000003900e-03, 4.585738246077328e-04, -8.228328352651477e-06, 4.911297889460076e+01, 1.176433583454610e+03, 2.964341259067498e+02, 1.273712883452916e+03
520, -4.999999999980367e-05, 6.600000000002050e-03, 4.582749691166093e-04, -1.356415485531726e-05, 4.940074976810385e+01, 5.925993375712821e+02, 2.582995549333961e+02, 7.496261375556013e+02
521, 2.051717086157256e-16, 6.600000000000198e-03, 4.579844926390306e-04, -1.890006916550973e-05, 4.654300050679322e+01, 1.168984578428177e+01, 2.040340265790122e+02, 4.095537552047247e+02
522, 5.000000000012958e-05, 6.599999999998345e-03, 4.577023192006175e-04, -2.423687015984228e-05, 4.030585279649029e+01, -5.658237830682307e+02, 1.336917696873564e+02, 6.624855414286774e+02
523, 1.000000000000872e-04, 6.599999999996491e-03, 4.574283619588801e-04, -2.957535612833360e-05, 3.045440843799187e+01, -1.139468819645435e+03, 4.732753602405225e+01, 1.173746114913092e+03
524, 1.500000000000495e-04, 6.599999999994639e-03, 4.571625231816367e-04, -3.491632476205015e-05, 1.675280410528498e+01, -1.708770884403840e+03, -5.500338333642077e+01, 1.729026745981666e+03
525, 2.000000000000168e-04, 6.599999999992787e-03, 4.569046942253005e-04, -4.026057314276527e-05, -1.035979754944975e+00, -2.273254116970809e+03, -1.732451076286866e+02, 2.298484442488535e+03
526, -1.999999999999576e-04, 6.500000000008018e-03, 4.485131606957005e-04, 2.932739974031645e-06, 4.164310843551505e+01, 2.482874692227782e+03, 3.393574716679789e+02, 2.533824307250294e+03
527, -1.499999999999147e-04, 6.500000000006126e-03, 4.481979294363116e-04, -2.384456291864435e-06, 4.746012895050868e+01, 1.861333258077770e+03, 3.319884237408139e+02, 1.931579918761209e+03
528, -9.999999999985163e-05, 6.500000000004228e-03, 4.478916719475755e-04, -7.700118730805658e-06, 5.052242541008783e+01, 1.241850715667895e+03, 3.079177907904790e+02, 1.341087826620519e+03
529, -4.999999999981387e-05, 6.500000000002332e-03, 4.475943323451591e-04, -1.301507041331762e-05, 5.059787406789033e+01, 6.248958951232960e+02, 2.671959707611985e+02, 7.844698618508120e+02
530, 1.923510179260846e-16, 6.500000000000438e-03, 4.473058439103911e-04, -1.833013391778417e-05, 4.745355547105365e+01, 1.093947969415646e+01, 2.098744870128082e+02, 4.213341653906060e+02
531, 5.000000000011942e-05, 6.499999999998543e-03, 4.470261290655220e-04, -2.364613130563263e-05, 4.085521175992463e+01, -5.995463674467744e+02, 1.360054704673246e+02, 6.957759227212358e+02
532, 1.000000000000796e-04, 6.499999999996646e-03, 4.467550993501228e-04, -2.896388410726927e-05, 3.056742800119662e+01, -1.206087829099786e+03, 4.564158939400681e+01, 1.240019694861796e+03
533, 1.500000000000451e-04, 6.499999999994751e-03, 4.464926553974433e-04, -3.428421330942991e-05, 1.635367608261649e+01, -1.808209411173858e+03, -6.116391499672416e+01, 1.828659223958850e+03
534, 2.000000000000149e-04, 6.499999999992855e-03, 4.462386869113725e-04, -3.960793934079246e-05, -2.023387455340554e+00, -2.405433695670170e+03, -1.843572890385507e+02, 2.431528644643093e+03
535, -1.999999999999595e-04, 6.400000000008258e-03, 4.378711057185789e-04, 3.410021102101023e-06, 4.326949664320387e+01, 2.618557747485864e+03, 3.548547555773851e+02, 2.671291291707400e+03
536, -1.499999999999190e-04, 6.400000000006336e-03, 4.375565098663597e-04, -1.885152113609702e-06, 4.900283169129006e+01, 1.962804242436974e+03, 3.457740964541188e+02, 2.034913939921494e+03
537, -9.999999999985919e-05, 6.400000000004416e-03, 4.372513763247820e-04, -7.178770037547609e-06, 5.191475196167329e+01, 1.309181772226526e+03, 3.195261306924887e+02, 1.410357455763224e+03
538, -4.999999999982406e-05, 6.400000000002495e-03, 4.369556477308300e-04, -1.247167885113076e-05, 5.177037816469127e+01, 6.581584410878610e+02, 2.761598061793630e+02, 8.202215780213343e+02
539, 1.795438797635995e-16, 6.400000000000575e-03, 4.366692558652440e-04, -1.776472429032274e-05, 4.833560127133850e+01, 1.020530087714516e+01, 2.157244627262163e+02, 4.331305750950978e+02
540, 5.000000000010922e-05, 6.399999999998654e-03, 4.363921216345551e-04, -2.305875163084029e-05, 4.137553902697860e+01, -6.342045816788682e+02, 1.382699653616271e+02, 7.299882415336214e+02
541, 1.000000000000720e-04, 6.399999999996736e-03, 4.361241550474473e-04, -2.835460567548224e-05, 3.065416305140866e+01, -1.274596358883558e+03, 4.384672039518324e+01, 1.308193053249083e+03
542, 1.500000000000408e-04, 6.399999999994814e-03, 4.358652551902432e-04, -3.365313074145352e-05, 1.593425659180414e+01, -1.910493411149290e+03, -6.749429722545823e+01, 1.931151335258381e+03
543, 2.000000000000129e-04, 6.399999999992895e-03, 4.356153102018057e-04, -3.895517064834110e-05, -3.022474322224440e+00, -2.541417295780941e+03, -1.957013569048966e+02, 2.568393340979162e+03
544, -1.999999999999615e-04, 6.300000000008254e-03, 4.272731154197466e-04, 3.877737300076620e-06, 4.489924857159303e+01, 2.758048546591275e+03, 3.705677983214664e+02, 2.812554192536736e+03
545, -1.499999999999234e-04, 6.300000000006307e-03, 4.269592255115628e-04, -1.394210595832756e-06, 5.053991842934295e+01, 2.067141902219470e+03, 3.597248829779428e+02, 2.141095870520573e+03
546, -9.999999999986685e-05, 6.300000000004357e-03, 4.266552996773964e-04, -6.664582381835988e-06, 5.329077442234893e+01, 1.378432752095028e+03, 3.312482988535098e+02, 1.481520503727045e+03
547, -4.999999999983422e-05, 6.300000000002410e-03, 4.263612791581252e-04, -1.193424738960950e-05, 5.291859710712919e+01, 6.923912877956307e+02, 2.851852207713828e+02, 8.568825839764053e+02
548, 1.667096365468024e-16, 6.300000000000461e-03, 4.260770943285630e-04, -1.720407454561210e-05, 4.918887797445134e+01, 9.489503759916545e+00, 2.215828141830453e+02, 4.449402369736160e+02
549, 5.000000000009904e-05, 6.299999999998514e-03, 4.258026646734994e-04, -2.247493237179642e-05, 4.186594216169439e+01, -6.697987462871250e+02, 1.404886256924372e+02, 7.651240713640855e+02
550, 1.000000000000644e-04, 6.299999999996569e-03, 4.255378987633514e-04, -2.774768897648480e-05, 3.071293230475379e+01, -1.344997726551995e+03, 4.195070733883303e+01, 1.378266760927283e+03
551, 1.500000000000364e-04, 6.299999999994618e-03, 4.252826942286964e-04, -3.302321204385974e-05, 1.549177680845219e+01, -2.015629802909649e+03, -7.398232238320307e+01, 2.036503967022260e+03
552, 2.000000000000111e-04, 6.299999999992672e-03, 4.250369377341022e-04, -3.830236882155526e-05, -4.037280667269414e+00, -2.681215756335448e+03, -2.072612899500739e+02, 2.709079836370287e+03
553, -1.999999999999633e-04, 6.200000000008235e-03, 4.167216151718886e-04, 4.335518739464805e-06, 4.652297537057709e+01, 2.901354796766780e+03, 3.864783297302412e+02, 2.957621802371065e+03
554, -1.499999999999277e-04, 6.200000000006244e-03, 4.164085033786679e-04, -9.119686951811697e-07, 5.205919703955075e+01, 2.174349387609060e+03, 3.738259785201894e+02, 2.250133129806739e+03
555, -9.999999999987445e-05, 6.200000000004252e-03, 4.161058706750969e-04, -6.157859835117074e-06, 5.464073452425473e+01, 1.449605812600846e+03, 3.430738761200655e+02, 1.554582357727443e+03
556, -4.999999999984441e-05, 6.200000000002263e-03, 4.158136569949079e-04, -1.140304715975518e-05, 5.403546004633873e+01, 7.275959831601565e+02, 2.942663611594964e+02, 8.944576812446547e+02
557, 1.538618408028491e-16, 6.200000000000271e-03, 4.155317913960095e-04, -1.664842281259873e-05, 5.000838163386589e+01, 8.792650622487628e+00, 2.274481569929685e+02, 4.567596665214591e+02
558, 5.000000000008886e-05, 6.199999999998280e-03, 4.152601920324352e-04, -2.189487859253438e-05, 4.232301395742860e+01, -7.063296683357855e+02, 1.426644111717952e+02, 8.011824858075746e+02
559, 1.000000000000568e-04, 6.199999999996288e-03, 4.149987661283422e-04, -2.714330594646036e-05, 3.074159155882506e+01, -1.417294491473443e+03, 3.996073013203120e+01, 1.450239958618633e+03
560, 1.500000000000321e-04, 6.199999999994299e-03, 4.147474099513510e-04, -3.239459596076991e-05, 1.502503654823710e+01, -2.123623343849564e+03, -8.061677583438265e+01, 2.144717499616642e+03
561, 2.000000000000091e-04, 6.199999999992307e-03, 4.145060087843444e-04, -3.764963935341170e-05, -5.066746462098422e+00, -2.824835438546116e+03, -2.190214785215975e+02, 2.853590213936184e+03
562, -1.999999999999653e-04, 6.100000000008216e-03, 4.062190972908049e-04, 4.782991645229081e-06, 4.811909421519536e+01, 3.048471012323281e+03, 4.025717203075706e+02, 3.106504078938326e+03
563, -1.499999999999321e-04, 6.100000000006179e-03, 4.059068372333966e-04, -4.387672527153572e-07, 5.354258033453186e+01, 2.284422591102678e+03, 3.880667869480519e+02, 2.362034916544128e+03
564, -9.999999999988203e-05, 6.100000000004146e-03, 4.056055845799711e-04, -5.658910245982319e-06, 5.595193541955865e+01, 1.522699234506877e+03, 3.549956049573452e+02, 1.629550599869814e+03
565, -4.999999999985460e-05, 6.100000000002112e-03, 4.053152780418391e-04, -1.087835298060700e-05, 5.511281178315448e+01, 7.637723426484835e+02, 3.033995227271320e+02, 9.329541319113572e+02
566, 1.410275975860520e-16, 6.100000000000079e-03, 4.050358454438824e-04, -1.609801083480020e-05, 5.078970500137353e+01, 8.115255844825697e+00, 2.333206840609055e+02, 4.685885989366475e+02
567, 5.000000000007866e-05, 6.099999999998046e-03, 4.047672036988623e-04, -2.131879890713629e-05, 4.274577355770273e+01, -7.437966525746383e+02, 1.448016555106470e+02, 8.381641043737470e+02
568, 1.000000000000492e-04, 6.099999999996011e-03, 4.045092587798933e-04, -2.654163200961719e-05, 3.074280416473832e+01, -1.491485924994802e+03, 3.788542511273111e+01, 1.524113357208892e+03
569, 1.500000000000277e-04, 6.099999999993980e-03, 4.042619056917387e-04, -3.176742466152416e-05, 1.454123459189105e+01, -2.234472948084904e+03, -8.738455267479651e+01, 2.255794546067099e+03
570, 2.000000000000072e-04, 6.099999999991945e-03, 4.040250284417010e-04, -3.699709108241439e-05, -6.099859987923736e+00, -2.972275968548161e+03, -2.309642521811073e+02, 3.001929154749636e+03
571, -1.999999999999672e-04, 6.000000000008407e-03, 3.957681201301126e-04, 5.219778981442273e-06, 4.970568630321713e+01, 3.199417714212047e+03, 4.188297627395365e+02, 3.259196118581909e+03
572, -1.499999999999365e-04, 6.000000000006308e-03, 3.954567870412711e-04, 2.504962036094510e-08, 5.500428015901909e+01, 2.397378445205507e+03, 4.024342476063790e+02, 2.476798341339739e+03
573, -9.999999999988962e-05, 6.000000000004209e-03, 3.951570029110305e-04, -5.168044736718105e-06, 5.723283715128710e+01, 1.597725220381350e+03, 3.670045710944748e+02, 1.706424977432878e+03
574, -4.999999999986476e-05, 6.000000000002106e-03, 3.948687053286254e-04, -1.036044293026765e-05, 5.615500645500217e+01, 8.009285003702350e+02, 3.125800881069426e+02, 9.723748264750993e+02
575, 1.282204594235670e-16, 6.000000000000007e-03, 3.945918209892879e-04, -1.555308358890365e-05, 5.153463867918424e+01, 7.461963602104845e+00, 2.392002711201031e+02, 4.804263518003286e+02
576, 5.000000000006848e-05, 5.999999999997906e-03, 3.943262656693783e-04, -2.074690512720855e-05, 4.313441193680273e+01, -7.821983351071442e+02, 1.469049082894989e+02, 8.760698326396657e+02
577, 1.000000000000416e-04, 5.999999999995806e-03, 3.940719441967546e-04, -2.594284574315268e-05, 3.071556236557285e+01, -1.567574097286986e+03, 3.573417409329765e+01, 1.599886733786118e+03
578, 1.500000000000234e-04, 5.999999999993707e-03, 3.938287504198845e-04, -3.114184341378152e-05, 1.403780659669243e+01, -2.348184817741561e+03, -9.427130019875715e+01, 2.369735014532249e+03
579, 2.000000000000053e-04, 5.999999999991606e-03, 3.935965671762531e-04, -3.634483588927052e-05, -7.140817217854277e+00, -3.123547875820380e+03, -2.430703826146949e+02, 3.154096669178905e+03
580, -1.999999999999690e-04, 5.900000000008779e-03, 3.853713094173888e-04, 5.645500893900277e-06, 5.128385223760904e+01, 3.354204890475557e+03, 4.352289200568300e+02, 3.415696742430478e+03
581, -1.499999999999408e-04, 5.900000000006594e-03, 3.850609798762251e-04, 4.791349688023168e-07, 5.644703149929262e+01, 2.513227922327376e+03, 4.169093830056868e+02, 2.594422109081474e+03
582, -9.999999999989724e-05, 5.900000000004408e-03, 3.847627540582887e-04, -4.685577311476992e-06, 5.848475642859466e+01, 1.674692771515926e+03, 3.790877311141495e+02, 1.785205416627909e+03
583, -4.999999999987495e-05, 5.900000000002220e-03, 3.844765685396925e-04, -9.849597989578873e-06, 5.716222749393674e+01, 8.390711854719567e+02, 3.218008013378620e+02, 1.012721403710336e+03
584, 1.153862162067698e-16, 5.900000000000033e-03, 3.842023490035589e-04, -1.501388895473427e-05, 5.224299676024975e+01, 6.837346180267133e+00, 2.450852225391286e+02, 4.922689695002196e+02
585, 5.000000000005830e-05, 5.899999999997847e-03, 3.839400102069989e-04, -2.017941195406339e-05, 4.348910240702099e+01, -8.215321118548621e+02, 1.489778347841158e+02, 9.148985092079646e+02
586, 1.000000000000340e-04, 5.899999999995659e-03, 3.836894559483158e-04, -2.534712859259985e-05, 3.066102893958617e+01, -1.645558178009841e+03, 3.351585264355555e+01, 1.677558964465889e+03
587, 1.500000000000191e-04, 5.899999999993472e-03, 3.834505790343386e-04, -3.051800033017845e-05, 1.351769744817028e+01, -2.464759485624719e+03, -1.012630659639019e+02, 2.486538684648468e+03
588, 2.000000000000034e-04, 5.899999999991286e-03, 3.832232612475950e-04, -3.569298847772705e-05, -8.183493694085996e+00, -3.278652269855133e+03, -2.553207842461404e+02, 3.310093779232938e+03
589, -1.999999999999710e-04, 5.800000000009150e-03, 3.750313588461870e-04, 6.059774662825982e-06, 5.283203398155649e+01, 3.512830838844695e+03, 4.517471739130856e+02, 3.576016466154510e+03
590, -1.499999999999452e-04, 5.800000000006880e-03, 3.747221103457297e-04, 9.231390373630166e-07, 5.785077193014229e+01, 2.631969319783831e+03, 4.314749664355775e+02, 2.714915999629954e+03
591, -9.999999999990477e-05, 5.800000000004606e-03, 3.744255335742887e-04, -4.211824724738463e-06, 5.969236869066674e+01, 1.753601592888549e+03, 3.912333755289682e+02, 1.865899964181851e+03
592, -4.999999999988512e-05, 5.800000000002332e-03, 3.741415642109817e-04, -9.346101839489734e-06, 5.812329442559252e+01, 8.782007010836476e+02, 3.310555688829667e+02, 1.054001001737996e+03
593, 1.025655255171287e-16, 5.800000000000059e-03, 3.738701270424548e-04, -1.448067746256015e-05, 5.290696774549212e+01, 6.241560670518879e+00, 2.509749416936693e+02, 5.041144172209677e+02
594, 5.000000000004811e-05, 5.799999999997786e-03, 3.736111359219192e-04, -1.961653668972285e-05, 4.380480631832972e+01, -8.617985733664068e+02, 1.510252260208232e+02, 9.546475563656883e+02
595, 1.000000000000264e-04, 5.799999999995513e-03, 3.733644937333961e-04, -2.475466455461961e-05, 3.057654244698045e+01, -1.725439968829407e+03, 3.124055922617156e+01, 1.757127735265239e+03
596, 1.500000000000147e-04, 5.799999999993240e-03, 3.731300923574830e-04, -2.989604602483753e-05, 1.298031968977710e+01, -2.584200390695676e+03, -1.083444610351924e+02, 2.606204468445696e+03
597, 2.000000000000015e-04, 5.799999999990969e-03, 3.729078126380035e-04, -3.504166599723310e-05, -9.227238136108753e+00, -3.437595090126152e+03, -2.676947418495253e+02, 3.469920464191414e+03
598, -1.999999999999729e-04, 5.700000000009518e-03, 3.647510292033260e-04, 6.462214994861785e-06, 5.433391814012185e+01, 3.675295831381800e+03, 4.683662158003734e+02, 3.740164812619824e+03
599, -1.499999999999495e-04, 5.700000000007160e-03, 3.644429399902642e-04, 1.356709516420402e-06, 5.919948656693470e+01, 2.753602151355352e+03, 4.461182761837989e+02, 2.838290292658547e+03
600, -9.999999999991239e-05, 5.700000000004800e-03, 3.641481037767555e-04, -3.747106204750648e-06, 6.084272905214823e+01, 1.834451629613280e+03, 4.034335317371628e+02, 1.948518152409504e+03
601, -4.999999999989533e-05, 5.700000000002444e-03, 3.638664554710778e-04, -8.850240555338375e-06, 5.902865617787643e+01, 9.183173749841452e+02, 3.403411520744027e+02, 1.096223289959233e+03
602, 8.974483482748763e-17, 5.700000000000083e-03, 3.635979190787391e-04, -1.395370196529307e-05, 5.352001846615047e+01, 5.674807521222192e+00, 2.568710871821966e+02, 5.159652952777147e+02
603, 5.000000000003792e-05, 5.699999999997726e-03, 3.633424076638113e-04, -1.905849889423773e-05, 4.407769230547143e+01, -9.029981020539062e+02, 1.530537820386288e+02, 9.953162316805440e+02
604, 1.000000000000188e-04, 5.699999999995369e-03, 3.630998233121234e-04, -2.416563982442300e-05, 3.046079887628886e+01, -1.807220794231852e+03, 2.892014237961855e+01, 1.838591617567508e+03
605, 1.500000000000104e-04, 5.699999999993010e-03, 3.628700570955022e-04, -2.927613325486573e-05, 1.242677436450720e+01, -2.706510105001441e+03, -1.154984338752828e+02, 2.728731812928272e+03
606, 1.999999999999996e-04, 5.699999999990651e-03, 3.626529890367537e-04, -3.439098769508146e-05, -1.026855720355366e+01, -3.600380256416324e+03, -2.801699961303495e+02, 3.633577152029543e+03
607, -1.999999999999748e-04, 5.600000000009672e-03, 3.545331477117201e-04, 6.852434703028654e-06, 5.579104808570588e+01, 3.841607280892534e+03, 4.850664517285887e+02, 3.908140529581035e+03
608, -1.499999999999538e-04, 5.600000000007281e-03, 3.542262968135911e-04, 1.779492188267854e-06, 6.049532200948636e+01, 2.878133650979402e+03, 4.608259723696947e+02, 2.964545169182328e+03
609, -9.999999999991998e-05, 5.600000000004890e-03, 3.539332934305659e-04, -3.291742877985911e-06, 6.193693139277195e+01, 1.917248890299361e+03, 4.156799665199560e+02, 2.033062173944991e+03
610, -4.999999999990553e-05, 5.600000000002499e-03, 3.536540718286204e-04, -8.362302086956983e-06, 5.987855921582087e+01, 9.594256678086990e+02, 3.496543442437082e+02, 1.139393541482397e+03
611, 7.692414413784654e-17, 5.600000000000110e-03, 3.533885553574585e-04, -1.343321715989712e-05, 5.408215894352747e+01, 5.139940856578875e+00, 2.627756129484087e+02, 5.278251905251568e+02
612, 5.000000000002774e-05, 5.599999999997718e-03, 3.531366564165459e-04, -1.850551993631034e-05, 4.430805144942269e+01, -9.451295507880845e+02, 1.550707696786446e+02, 1.036906236434335e+03
613, 1.000000000000112e-04, 5.599999999995330e-03, 3.528982764183218e-04, -2.358024236634339e-05, 3.031476871363196e+01, -1.890901359018107e+03, 2.656729414265767e+01, 1.921950752212134e+03
614, 1.500000000000060e-04, 5.599999999992939e-03, 3.526733057507971e-04, -2.865841650426267e-05, 1.185903237558841e+01, -2.831691338886469e+03, -1.227068147769463e+02, 2.854120979123941e+03
615, 1.999999999999977e-04, 5.599999999990549e-03, 3.524616237401626e-04, -3.374107450134853e-05, -1.130425797311193e+01, -3.767012668285610e+03, -2.927229747279358e+02, 3.801064669671685e+03
616, -1.999999999999767e-04, 5.500000000009695e-03, 3.443806085179421e-04, 7.230045372204669e-06, 5.721893582305859e+01, 4.011783273262160e+03, 5.018220513061698e+02, 4.079936345539436e+03
617, -1.499999999999582e-04, 5.500000000007305e-03, 3.440750756584496e-04, 2.191131583048883e-06, 6.175136455643752e+01, 3.005579089025405e+03, 4.755785906931745e+02, 3.093674458480556e+03
618, -9.999999999992762e-05, 5.500000000004914e-03, 3.437839980240388e-04, -2.846057170027039e-06, 6.298373157558615e+01, 2.002004724116384e+03, 4.279598582507831e+02, 2.119528478367304e+03
619, -4.999999999991570e-05, 5.500000000002524e-03, 3.435073093747617e-04, -7.882575716000070e-06, 6.067852199216304e+01, 1.001533584066876e+03, 3.589888038118304e+02, 1.183511762882232e+03
620, 6.410345344820545e-17, 5.500000000000133e-03, 3.432449325450570e-04, -1.291947908921876e-05, 5.459693598081157e+01, 4.642139636589718e+00, 2.686884903442189e+02, 5.396938956960828e+02
621, 5.000000000001756e-05, 5.499999999997745e-03, 3.429967794092386e-04, -1.795782252875204e-05, 4.449852498184430e+01, -9.881902244808350e+02, 1.570823545998323e+02, 1.079419064948041e+03
622, 1.000000000000036e-04, 5.499999999995354e-03, 3.427627508440589e-04, -2.299866147435901e-05, 3.014103042021458e+01, -1.976481267522170e+03, 2.419428842703486e+01, 2.007205644912732e+03
623, 1.500000000000017e-04, 5.499999999992964e-03, 3.425427366900356e-04, -2.804305156138948e-05, 1.128030986267498e+01, -2.959745917520530e+03, -1.299513028774340e+02, 2.982372580392506e+03
624, 1.999999999999958e-04, 5.499999999990576e-03, 3.423366157119949e-04, -3.309204861484103e-05, -1.232970518906100e+01, -3.937496273098535e+03, -3.053294399390627e+02, 3.972384278164469e+03
625, -1.999999999999786e-04, 5.400000000009719e-03, 3.342963739248191e-04, 7.594657551035418e-06, 5.860449855541043e+01, 4.185824549289941e+03, 5.186051172863552e+02, 4.255555242020425e+03
626, -1.499999999999625e-04, 5.400000000007331e-03, 3.339922390821310e-04, 2.591271241754151e-06, 6.295742424092015e+01, 3.135940023826136e+03, 4.903541927247322e+02, 3.225679927495039e+03
627, -9.999999999993521e-05, 5.400000000004939e-03, 3.337031803830936e-04, -2.410372482700221e-06, 6.397604379566394e+01, 2.088721409899232e+03, 4.402582510196575e+02, 2.207918274737863e+03
628, -4.999999999992589e-05, 5.400000000002551e-03, 3.334291312145536e-04, -7.411351694696022e-06, 6.142369165306616e+01, 1.044643327137946e+03, 3.683365808645685e+02, 1.228579748659005e+03
629, 5.128276275856436e-17, 5.400000000000158e-03, 3.331700140354289e-04, -1.241274475795389e-05, 5.506120246180745e+01, 4.182920133029597e+00, 2.746086235674217e+02, 5.515688390066126e+02
630, 5.000000000000737e-05, 5.399999999997771e-03, 3.329257403366365e-04, -1.741563033124107e-05, 4.464744258012746e+01, -1.032179747608976e+03, 1.590941333741065e+02, 1.122853761906149e+03
631, 9.999999999999598e-05, 5.399999999995381e-03, 3.326962106013067e-04, -2.242108736717163e-05, 2.993935933752573e+01, -2.063961634903798e+03, 2.181328352123958e+01, 2.094355426148274e+03
632, 1.499999999999973e-04, 5.399999999992991e-03, 3.324813142644672e-04, -2.743019510897803e-05, 1.069196301428281e+01, -3.090676713041079e+03, -1.372132655412870e+02, 3.113486403660597e+03
633, 1.999999999999938e-04, 5.399999999990601e-03, 3.322809296721735e-04, -3.244403308658508e-05, -1.334174113210321e+01, -4.111835996374001e+03, -3.179643146856725e+02, 4.147536664323168e+03
634, -1.999999999999805e-04, 5.300000000009745e-03, 3.242834741112074e-04, 7.945880972357038e-06, 5.993542732954370e+01, 4.363734461580527e+03, 5.353895477813986e+02, 4.435003269301385e+03
635, -1.499999999999669e-04, 5.300000000007331e-03, 3.239808172354014e-04, 2.979553947854540e-06, 6.410106121878715e+01, 3.269218415385888e+03, 5.051330041098163e+02, 3.360567609994946e+03
636, -9.999999999994280e-05, 5.300000000004915e-03, 3.236938706430910e-04, -1.985012913038746e-06, 6.490387004182338e+01, 2.177400871903760e+03, 4.525616678026825e+02, 2.298236679616147e+03
637, -4.999999999993605e-05, 5.300000000002501e-03, 3.234225674883779e-04, -6.948920918171581e-06, 6.210663257796330e+01, 1.088756600854543e+03, 3.776907068370494e+02, 1.274602384073787e+03
638, 3.846207206892327e-17, 5.300000000000087e-03, 3.231668299954674e-04, -1.191327176931486e-05, 5.546980982779644e+01, 3.763342528633757e+00, 2.805356485628623e+02, 5.634488079842769e+02
639, 4.999999999999720e-05, 5.299999999997673e-03, 3.229265694148936e-04, -1.687916756143155e-05, 4.475171322453184e+01, -1.077098114358258e+03, 1.611123696539132e+02, 1.167208558171817e+03
640, 9.999999999998842e-05, 5.299999999995259e-03, 3.227016859807761e-04, -2.184771078165350e-05, 2.970858824511799e+01, -2.153343883731189e+03, 1.943715899594466e+01, 2.183398568287796e+03
641, 1.499999999999930e-04, 5.299999999992844e-03, 3.224920688683028e-04, -2.682000430685434e-05, 1.009464413938900e+01, -3.224486964246054e+03, -1.444732155955006e+02, 3.247461812154744e+03
642, 1.999999999999920e-04, 5.299999999990430e-03, 3.222975961513403e-04, -3.179715140014025e-05, -1.433788804867396e+01, -4.290037193632606e+03, -3.306014677745228e+02, 4.326522145297490e+03
643, -1.999999999999824e-04, 5.200000000009989e-03, 3.143450067446459e-04, 8.283325121479662e-06, 6.120739830096386e+01, 4.545520267463100e+03, 5.521487811742686e+02, 4.618282691081401e+03
644, -1.499999999999712e-04, 5.200000000007502e-03, 3.140439076028286e-04, 3.355622232580266e-06, 6.517807318989225e+01, 3.405421051994345e+03, 5.198954933059906e+02, 3.498340814342131e+03
645, -9.999999999995044e-05, 5.200000000005017e-03, 3.137591660911851e-04, -1.570302780748959e-06, 6.576286938727122e+01, 2.268048562810830e+03, 4.648571564027787e+02, 2.390487602748359e+03
646, -4.999999999994625e-05, 5.200000000002529e-03, 3.134907152842284e-04, -6.495574465767650e-06, 6.272355886800705e+01, 1.133877517028496e+03, 3.870448257473597e+02, 1.321584499997673e+03
647, 2.564138137928218e-17, 5.200000000000042e-03, 3.132384773222467e-04, -1.142131786960531e-05, 5.582005224290464e+01, 3.386151739981642e+00, 2.864699030516385e+02, 5.753341075754254e+02
648, 4.999999999998700e-05, 5.199999999997556e-03, 3.130023633662791e-04, -1.634865853757316e-05, 4.481010427091422e+01, -1.122944015847106e+03, 1.631441670184132e+02, 1.212482479040889e+03
649, 9.999999999998081e-05, 5.199999999995069e-03, 3.127822735530288e-04, -2.127872251124501e-05, 2.944928518350076e+01, -2.244628242356827e+03, 1.707982607806721e+01, 2.274334074646766e+03
650, 1.499999999999887e-04, 5.199999999992581e-03, 3.125780969502356e-04, -2.621263632565378e-05, 9.491019083431524e+00, -3.361178544256306e+03, -1.517104230612577e+02, 3.384298674036705e+03
651, 1.999999999999900e-04, 5.199999999990096e-03, 3.123897115124147e-04, -3.115152700562606e-05, -1.531334559286756e+01, -4.472103664757678e+03, -3.432133188633379e+02, 4.509341579208868e+03
652, -1.999999999999843e-04, 5.100000000010360e-03, 3.044841371262236e-04, 8.606599823454764e-06, 6.241835640694791e+01, 4.731190128089140e+03, 5.688540265658056e+02, 4.805393789297293e+03
653, -1.499999999999755e-04, 5.100000000007788e-03, 3.041846750926641e-04, 3.719118955877695e-06, 6.618678414627283e+01, 3.544555793650690e+03, 5.346202085602087e+02, 3.639000691932414e+03
654, -9.999999999995803e-05, 5.100000000005215e-03, 3.039022312227967e-04, -1.166566079065495e-06, 6.655087176282285e+01, 2.360670916241766e+03, 4.771306122087437e+02, 2.484673270856116e+03
655, -4.999999999995644e-05, 5.100000000002642e-03, 3.036367386738129e-04, -6.051603076380731e-06, 6.327218979075161e+01, 1.180010856684695e+03, 3.963920844544861e+02, 1.369529842175318e+03
656, 1.282069068964109e-17, 5.100000000000066e-03, 3.033881196636794e-04, -1.093714043949898e-05, 5.611011467659279e+01, 3.054470790674543e+00, 2.924117401285464e+02, 5.872251735136766e+02
657, 4.999999999997683e-05, 5.099999999997495e-03, 3.031562854240216e-04, -1.582432717938802e-05, 4.482172482856407e+01, -1.169716046343963e+03, 1.651970827725958e+02, 1.258674819892347e+03
658, 9.999999999997324e-05, 5.099999999994921e-03, 3.029411361537749e-04, -2.071431291185790e-05, 2.916185214092854e+01, -2.337815128723784e+03, 1.475605985204375e+01, 2.367160956325712e+03
659, 1.499999999999843e-04, 5.099999999992348e-03, 3.027425609729230e-04, -2.560824785464600e-05, 8.883089375157112e+00, -3.500753834583272e+03, -1.589028827623382e+02, 3.523996572446277e+03
660, 1.999999999999881e-04, 5.099999999989774e-03, 3.025604378762172e-04, -3.050728282343120e-05, -1.626423978898794e+01, -4.658039866543548e+03, -3.557707352857489e+02, 4.695995340018529e+03
661, -1.999999999999862e-04, 5.000000000010596e-03, 2.947040985097154e-04, 8.915315711567936e-06, 6.356263884425078e+01, 4.920750906979712e+03, 5.854748282194651e+02, 4.996338756532347e+03
662, -1.499999999999799e-04, 5.000000000007969e-03, 2.944063522663395e-04, 4.069687796168177e-06, 6.712131673484487e+01, 3.686628067646507e+03, 5.492843406613459e+02, 3.782549704561485e+03
663, -9.999999999996564e-05, 5.000000000005344e-03, 2.941262979027406e-04, -7.741259710435361e-07, 6.726271316325341e+01, 2.455272325507851e+03, 4.893669903317285e+02, 2.580796410714245e+03
664, -4.999999999996662e-05, 5.000000000002718e-03, 2.938638688269122e-04, -5.617296641315306e-06, 6.374835613643654e+01, 1.227160013688991e+03, 4.057250930372189e+02, 1.418442134670788e+03
665, 0.000000000000000e+00, 5.000000000000093e-03, 2.936189874999658e-04, -1.046099598919343e-05, 5.633686259757405e+01, 2.770440908164289e+00, 2.983613428085453e+02, 5.991221286705080e+02
666, 4.999999999996663e-05, 4.999999999997467e-03, 2.933915653892770e-04, -1.530639650816434e-05, 4.478455067709308e+01, -1.217413597000075e+03, 1.672788347446223e+02, 1.305784437881593e+03
667, 9.999999999996559e-05, 4.999999999994841e-03, 2.931815029212221e-04, -2.015467140860913e-05, 2.884545779779700e+01, -2.432905762985660e+03, 1.248109412068921e+01, 2.461877775981302e+03
668, 1.499999999999799e-04, 4.999999999992216e-03, 2.929886894333705e-04, -2.500699461550947e-05, 8.271312191064510e+00, -3.643216179431094e+03, -1.660278708087342e+02, 3.666554502119696e+03
669, 1.999999999999863e-04, 4.999999999989590e-03, 2.928130031262016e-04, -2.986454076592301e-05, -1.718852845488232e+01, -4.847851459377560e+03, -3.682435099831417e+02, 4.886483140538734e+03
670, -1.999999999999881e-04, 4.900000000010410e-03, 2.850081921554680e-04, 9.209084673462917e-06, 6.462699417913541e+01, 5.114202407352042e+03, 6.019812175635128e+02, 5.191121015591654e+03
671, -1.499999999999843e-04, 4.900000000007836e-03, 2.847122393953020e-04, 4.406973726254102e-06, 6.797087505720202e+01, 3.831638262503318e+03, 5.638655282753228e+02, 3.928990905975008e+03
672, -9.999999999997321e-05, 4.900000000005265e-03, 2.844346654283465e-04, -3.933042860695754e-07, 6.789077753485628e+01, 2.551854420513844e+03, 5.015513841277457e+02, 2.678859933502174e+03
673, -4.999999999997681e-05, 4.900000000002690e-03, 2.841754040755051e-04, -5.192943687900597e-06, 6.414674499795854e+01, 1.275326935468355e+03, 4.150364855306441e+02, 1.468325097202394e+03
674, -1.282069068964109e-17, 4.900000000000120e-03, 2.839343782068006e-04, -9.993139636994700e-06, 5.649685132159368e+01, 2.535616835735823e+00, 3.043189971519520e+02, 6.110253864918517e+02
675, 4.999999999995644e-05, 4.899999999997547e-03, 2.837114996942973e-04, -1.479508812434471e-05, 4.469688671535113e+01, -1.266036009612419e+03, 1.693974228290416e+02, 1.353810427260874e+03
676, 9.999999999995801e-05, 4.899999999994974e-03, 2.835066693627836e-04, -1.959998597402467e-05, 2.850024066624843e+01, -2.529900741850519e+03, 1.027066808971422e+01, 2.558483444119738e+03
677, 1.499999999999756e-04, 4.899999999992402e-03, 2.833197769396650e-04, -2.440903084223936e-05, 7.657888829499143e+00, -3.788567685731304e+03, -1.730618920076892e+02, 3.811971968261391e+03
678, 1.999999999999843e-04, 4.899999999989829e-03, 2.831507010046870e-04, -2.922342121527308e-05, -1.808156780211101e+01, -5.041542210602865e+03, -3.806003635943552e+02, 5.080805386633185e+03
679, -1.999999999999901e-04, 4.800000000010084e-03, 2.753997870309861e-04, 9.487520541763837e-06, 6.561714359062029e+01, 5.311557087026103e+03, 6.183405639526409e+02, 5.389737108825341e+03
680, -1.499999999999886e-04, 4.800000000007600e-03, 2.751057043259530e-04, 4.730623675085761e-06, 6.873999557371121e+01, 3.979597567337664e+03, 5.783392669927058e+02, 4.078322225818612e+03
681, -9.999999999998080e-05, 4.800000000005114e-03, 2.748307004832184e-04, -2.442090002399499e-08, 6.843712314475204e+01, 2.650425900855447e+03, 5.136672214145349e+02, 2.778863455739933e+03
682, -4.999999999998701e-05, 4.800000000002629e-03, 2.745747099121822e-04, -4.778830786215469e-06, 6.446791884547281e+01, 1.324517994762697e+03, 4.243178163861655e+02, 1.519180249683986e+03
683, -2.564138137928218e-17, 4.800000000000143e-03, 2.743376560724731e-04, -9.533824532293694e-06, 5.659014747582836e+01, 2.354269943605345e+00, 3.102844545253817e+02, 6.229344277627822e+02
684, 4.999999999994627e-05, 4.799999999997659e-03, 2.741194514226257e-04, -1.429062163957849e-05, 4.455906985978243e+01, -1.315581030290510e+03, 1.715608181270681e+02, 1.402752133950458e+03
685, 9.999999999995042e-05, 4.799999999995174e-03, 2.739199973678816e-04, -1.905044256403612e-05, 2.812739833793592e+01, -2.628799856543210e+03, 8.140973128775784e+00, 2.656977143203193e+03
686, 1.499999999999713e-04, 4.799999999992687e-03, 2.737391842077181e-04, -2.381450871649109e-05, 7.045272262007757e+00, -3.936810362455840e+03, -1.799805523423244e+02, 3.960248636687034e+03
687, 1.999999999999824e-04, 4.799999999990203e-03, 2.735768910830769e-04, -2.858404246124900e-05, -1.893965808043657e+01, -5.239116821603951e+03, -3.928086758946534e+02, 5.278962420969185e+03
688, -1.999999999999919e-04, 4.700000000009747e-03, 2.658823205451411e-04, 9.750239725616971e-06, 6.653462670413995e+01, 5.512827477827908e+03, 6.345159839947336e+02, 5.592186330584943e+03
689, -1.499999999999929e-04, 4.700000000007334e-03, 2.655901829889081e-04, 5.040287111606809e-06, 6.942834506550878e+01, 4.130516651605711e+03, 5.926771724317178e+02, 4.230544073331962e+03
690, -9.999999999998839e-05, 4.700000000004922e-03, 2.653178374866171e-04, 3.322068312642205e-07, 6.889969040071702e+01, 2.750994665166092e+03, 5.256954557408507e+02, 2.880808272413838e+03
691, -4.999999999999717e-05, 4.700000000002511e-03, 2.650652192308210e-04, -4.375241989480555e-06, 6.470940427391633e+01, 1.374738919103248e+03, 4.335592016775611e+02, 1.571009756545487e+03
692, -3.846207206892327e-17, 4.700000000000096e-03, 2.648322524640708e-04, -9.083301297334373e-06, 5.661467911509067e+01, 2.230231857668230e+00, 3.162568061246282e+02, 6.348473342340644e+02
693, 4.999999999993608e-05, 4.699999999997685e-03, 2.646188504230769e-04, -1.379321411790501e-05, 4.437001752345441e+01, -1.366046615239550e+03, 1.737769488604636e+02, 1.452607582864532e+03
694, 9.999999999994281e-05, 4.699999999995272e-03, 2.644249152842221e-04, -1.850622455824468e-05, 2.772730075415393e+01, -2.729602850450116e+03, 6.108687656311446e+00, 2.757357217880863e+03
695, 1.499999999999669e-04, 4.699999999992859e-03, 2.642503381093353e-04, -2.322357780755341e-05, 6.435818265701641e+00, -4.087945683107913e+03, -1.867584736759968e+02, 4.111383561375612e+03
696, 1.999999999999805e-04, 4.699999999990447e-03, 2.640949987914957e-04, -2.794652013747577e-05, -1.975794851437911e+01, -5.440578480089969e+03, -4.048345124433894e+02, 5.480954220335413e+03
697, -1.999999999999939e-04, 4.600000000009572e-03, 2.564592989920932e-04, 9.996861480682476e-06, 6.735080412070170e+01, 5.718004851529910e+03, 6.504727540022171e+02, 5.798478281264747e+03
698, -1.499999999999973e-04, 4.600000000007185e-03, 2.561691796756486e-04, 5.335616399818398e-06, 7.001180268898634e+01, 4.284388979076707e+03, 6.068532139745006e+02, 4.385665089596157e+03
699, -9.999999999999598e-05, 4.600000000004799e-03, 2.558995787719105e-04, 6.762645027317604e-07, 6.926113114138263e+01, 2.853557604085023e+03, 5.376187571419987e+02, 2.984701419132243e+03
700, -5.000000000000737e-05, 4.600000000002412e-03, 2.556504324440585e-04, -3.982458349367631e-06, 6.485888478161905e+01, 1.425988375616825e+03, 4.427520258808732e+02, 1.623819853465210e+03
701, -5.126921023140829e-17, 4.600000000000025e-03, 2.554216659045805e-04, -8.641817507169084e-06, 5.656184976193657e+01, 2.162668576191606e+00, 3.222361775786045e+02, 6.467641668147357e+02
702, 4.999999999992590e-05, 4.599999999997638e-03, 2.552131933570425e-04, -1.330307953358159e-05, 4.412394927447042e+01, -1.417434092697419e+03, 1.760547024984386e+02, 1.503373853417691e+03
703, 9.999999999993524e-05, 4.599999999995251e-03, 2.550249179393796e-04, -1.796751220502167e-05, 2.729634821713728e+01, -2.832312364826004e+03, 4.191465348058301e+00, 2.859621000279461e+03
704, 1.499999999999625e-04, 4.599999999992864e-03, 2.548567316674174e-04, -2.263638451252933e-05, 5.827465959585538e+00, -4.241978473542538e+03, -1.933692282121307e+02, 4.265374770562013e+03
705, 1.999999999999786e-04, 4.599999999990477e-03, 2.547085153783747e-04, -2.731096666120159e-05, -2.053682997118267e+01, -5.645934424604440e+03, -4.166426230147177e+02, 5.686779615824406e+03
706, -1.999999999999958e-04, 4.500000000009600e-03, 2.471342964181794e-04, 1.022700861963785e-05, 6.806561682867624e+01, 5.927098695532561e+03, 6.661769293186170e+02, 6.008613435891167e+03
707, -1.500000000000016e-04, 4.500000000007212e-03, 2.468462663268178e-04, 5.616267480698595e-06, 7.048910655282572e+01, 4.441222422141900e+03, 6.208427957600079e+02, 4.543687139778517e+03
708, -1.000000000000036e-04, 4.500000000004825e-03, 2.465794941513161e-04, 1.007441321355631e-06, 6.951918055485942e+01, 2.958120921405569e+03, 5.494208763398035e+02, 3.090545779417891e+03
709, -5.000000000001756e-05, 4.500000000002437e-03, 2.463339172254580e-04, -3.600757268948153e-06, 6.491414656717916e+01, 1.478271253572924e+03, 4.518885463169700e+02, 1.677614778515469e+03
710, -6.409667718462742e-17, 4.500000000000053e-03, 2.461094619292498e-04, -8.209617052007504e-06, 5.643026019930340e+01, 2.155275434987232e+00, 3.282235344122571e+02, 6.586869728023040e+02
711, 4.999999999991571e-05, 4.499999999997665e-03, 2.459060436318011e-04, -1.282042813908041e-05, 4.382097349999981e+01, -1.469740884189317e+03, 1.784039147995752e+02, 1.555050264240739e+03
712, 9.999999999992765e-05, 4.499999999995279e-03, 2.457235666330626e-04, -1.743448199220696e-05, 2.683688869547933e+01, -2.936926825119897e+03, 2.408131286770697e+00, 2.963767627145200e+03
713, 1.499999999999582e-04, 4.499999999992891e-03, 2.455619241053007e-04, -2.205307142547041e-05, 5.225759466179170e+00, -4.398907852367263e+03, -1.997849529849346e+02, 4.422222176761119e+03
714, 1.999999999999767e-04, 4.499999999990504e-03, 2.454209980343891e-04, -2.667749060661939e-05, -2.126749287759236e+01, -5.855184976347333e+03, -4.281959097357269e+02, 5.896439616615397e+03
715, -1.999999999999977e-04, 4.400000000009622e-03, 2.379109549712453e-04, 1.044030844479966e-05, 6.868679627708218e+01, 6.140122431164092e+03, 6.815897185555525e+02, 6.222586989857062e+03
716, -1.500000000000059e-04, 4.400000000007235e-03, 2.376250827584812e-04, 5.881900738940029e-06, 7.086672226833326e+01, 4.601029214466209e+03, 6.346166953062872e+02, 4.704606849202423e+03
717, -1.000000000000112e-04, 4.400000000004850e-03, 2.373612210620495e-04, 1.325430905397887e-06, 6.967711995656919e+01, 3.064693864301928e+03, 5.610824476303886e+02, 3.198340093089648e+03
718, -5.000000000002772e-05, 4.400000000002464e-03, 2.371193085981954e-04, -3.230411755199508e-06, 6.487632671431896e+01, 1.531594156465370e+03, 4.609590974042961e+02, 1.732395552415431e+03
719, -7.691736787426851e-17, 4.400000000000076e-03, 2.368992731270209e-04, -7.786939425650129e-06, 5.621991108293980e+01, 2.212259101008897e+00, 3.342188546238266e+02, 6.706159837170984e+02
720, 4.999999999990552e-05, 4.399999999997690e-03, 2.367010313949258e-04, -1.234546577751201e-05, 4.346066048973199e+01, -1.522965161285806e+03, 1.808341960044056e+02, 1.607636115824538e+03
721, 9.999999999991999e-05, 4.399999999995304e-03, 2.365244890750500e-04, -1.690730597438577e-05, 2.634846592003271e+01, -3.043446974457857e+03, 7.779408164795001e-01, 3.069795834665970e+03
722, 1.499999999999539e-04, 4.399999999992917e-03, 2.363695407068851e-04, -2.147377667464195e-05, 4.630290480778172e+00, -4.558737579736872e+03, -2.059766759865042e+02, 4.581924473748621e+03
723, 1.999999999999748e-04, 4.399999999990530e-03, 2.362360696356582e-04, -2.604619603228064e-05, -2.195004352877237e+01, -6.068337039485990e+03, -4.394559876986252e+02, 6.109933057356458e+03
724, -1.999999999999997e-04, 4.300000000009517e-03, 2.287929857636224e-04, 1.063639326677817e-05, 6.920266072595916e+01, 6.357076926175205e+03, 6.966700981257757e+02, 6.440400583860386e+03
725, -1.500000000000103e-04, 4.300000000007164e-03, 2.285093372656831e-04, 6.132181593916613e-06, 7.113483872032947e+01, 4.763810769670683e+03, 6.481435633184196e+02, 4.868425588175827e+03
726, -1.000000000000188e-04, 4.300000000004808e-03, 2.282484649853270e-04, 1.629931908228467e-06, 6.972788877353656e+01, 3.173278938057685e+03, 5.725823260555655e+02, 3.308085729837960e+03
727, -5.000000000003792e-05, 4.300000000002456e-03, 2.280103092308892e-04, -2.871689778903782e-06, 6.474027885473305e+01, 1.585959702064016e+03, 4.699527580250992e+02, 1.788164117929552e+03
728, -8.973805856390960e-17, 4.300000000000101e-03, 2.277947993577798e-04, -7.374019079314057e-06, 5.592722376283132e+01, 2.335685771141016e+00, 3.402213496579227e+02, 6.825498663076191e+02
729, 4.999999999989533e-05, 4.299999999997747e-03, 2.276018537068141e-04, -1.187839323698715e-05, 4.304092456866732e+01, -1.577105891278597e+03, 1.833547955963568e+02, 1.661129624434155e+03
730, 9.999999999991241e-05, 4.299999999995395e-03, 2.274313795420474e-04, -1.638615113397307e-05, 2.583055405635753e+01, -3.151873192906682e+03, -6.799060502691816e-01, 3.177704037910372e+03
731, 1.499999999999495e-04, 4.299999999993039e-03, 2.272832729881667e-04, -2.089863329437559e-05, 4.042210032161961e+00, -4.721469777880016e+03, -2.119153786863545e+02, 4.744480588936668e+03
732, 1.999999999999729e-04, 4.299999999990687e-03, 2.271574189672957e-04, -2.541718188797149e-05, -2.258089213248445e+01, -6.285394411065077e+03, -4.503837900044292e+02, 6.327259707497383e+03
733, -2.000000000000014e-04, 4.200000000009198e-03, 2.197841686502020e-04, 1.081490098611352e-05, 6.960515964383984e+01, 6.577966346681421e+03, 7.113771897381063e+02, 6.662056391629837e+03
734, -1.500000000000147e-04, 4.200000000006931e-03, 2.195028065319922e-04, 6.366781082908843e-06, 7.128559312983060e+01, 4.929570940043987e+03, 6.613925811192903e+02, 5.035146184320705e+03
735, -1.000000000000264e-04, 4.200000000004664e-03, 2.192449994246607e-04, 1.920648631661585e-06, 6.966484278230911e+01, 3.283879863251123e+03, 5.838997094196793e+02, 3.419785619077441e+03
736, -5.000000000004811e-05, 4.200000000002396e-03, 2.190106894484731e-04, -2.524853635600744e-06, 6.450094315817654e+01, 1.641371297659942e+03, 4.788589297605147e+02, 1.844923741879882e+03
737, -1.025587492535507e-16, 4.200000000000129e-03, 2.187998077763182e-04, -6.971084761746292e-06, 5.554891577650432e+01, 2.528378071369332e+00, 3.462307139572812e+02, 6.944883055660594e+02
738, 4.999999999988515e-05, 4.199999999997860e-03, 2.186122745676442e-04, -1.141940557324370e-05, 4.256054256712054e+01, -1.632161036071967e+03, 1.859757337423925e+02, 1.715529148724522e+03
739, 9.999999999990481e-05, 4.199999999995591e-03, 2.184479989032352e-04, -1.587117868652130e-05, 2.528441678344581e+01, -3.262204327040997e+03, -1.945052564379381e+00, 3.287491045415991e+03
740, 1.499999999999452e-04, 4.199999999993324e-03, 2.183068787202155e-04, -2.032776851295179e-05, 3.465984340530440e+00, -4.887104076104979e+03, -2.175703236092190e+02, 4.909890314354046e+03
741, 1.999999999999710e-04, 4.199999999991056e-03, 2.181888007473743e-04, -2.479054126249998e-05, -2.315255510993148e+01, -6.506358150480262e+03, -4.609383078337717e+02, 6.548420518442276e+03
742, -2.000000000000034e-04, 4.100000000008875e-03, 2.108883521332855e-04, 1.097547589346891e-05, 6.989317418998178e+01, 6.802799830277474e+03, 7.256681238249755e+02, 6.887554641767272e+03
743, -1.500000000000190e-04, 4.100000000006694e-03, 2.106093355675240e-04, 6.585376609155798e-06, 7.131657378226339e+01, 5.098317812613488e+03, 6.743316586121390e+02, 5.204770330998002e+03
744, -1.000000000000340e-04, 4.100000000004513e-03, 2.103546658680635e-04, 2.197291746598739e-06, 6.948429410176902e+01, 3.396502810753714e+03, 5.950132230548223e+02, 3.533442394122940e+03
745, -5.000000000005830e-05, 4.100000000002334e-03, 2.101242872042080e-04, -2.190159234842669e-06, 6.415440738008408e+01, 1.697833462100419e+03, 4.876669135570356e+02, 1.902677936000970e+03
746, -1.153726636796137e-16, 4.100000000000152e-03, 2.099181328002202e-04, -6.578358811689436e-06, 5.508146628445888e+01, 2.793226946739310e+00, 3.522469289470627e+02, 7.064316356050222e+02
747, 4.999999999987496e-05, 4.099999999997971e-03, 2.097361248671651e-04, -1.096869140242514e-05, 4.201670304787780e+01, -1.688129513580868e+03, 1.887076930804348e+02, 1.770832658560859e+03
748, 9.999999999989721e-05, 4.099999999995790e-03, 2.095781745354523e-04, -1.536254337334893e-05, 2.470806119621938e+01, -3.374441442821205e+03, -2.996084394716917e+00, 3.399154785641381e+03
749, 1.499999999999408e-04, 4.099999999993610e-03, 2.094441817877415e-04, -1.976130304358222e-05, 2.900203141878023e+00, -5.055644300762096e+03, -2.229093385129023e+02, 5.078151907019142e+03
750, 1.999999999999691e-04, 4.099999999991429e-03, 2.093340353919377e-04, -2.416636068903386e-05, -2.366548330816670e+01, -6.731234859264056e+03, -4.710766017494013e+02, 6.773414175445373e+03
751, -2.000000000000054e-04, 4.000000000008551e-03, 2.021094536583215e-04, 1.111776937022951e-05, 7.005583101042043e+01, 7.031579174218636e+03, 7.394989424967529e+02, 7.116898341401832e+03
752, -1.500000000000234e-04, 4.000000000006458e-03, 2.018328378896297e-04, 6.787652662930547e-06, 7.121827516483154e+01, 5.270053686366784e+03, 6.869279375544331e+02, 5.377301330438766e+03
753, -1.000000000000416e-04, 4.000000000004365e-03, 2.015813739043687e-04, 2.459579021326959e-06, 6.917874228833659e+01, 3.511150684000374e+03, 6.059010997295616e+02, 3.649059525158078e+03
754, -5.000000000006849e-05, 4.000000000002271e-03, 2.013550081607923e-04, -1.867855370799074e-06, 6.369485954907668e+01, 1.755349043173323e+03, 4.963659262547102e+02, 1.961430704348283e+03
755, -1.282069068964109e-16, 4.000000000000177e-03, 2.011536761735470e-04, -6.196056429403710e-06, 5.452070166966803e+01, 3.132561902017358e+00, 3.582701710409742e+02, 7.183806809343463e+02
756, 4.999999999986478e-05, 3.999999999998083e-03, 2.009773024444403e-04, -1.052643217571712e-05, 4.140697095891147e+01, -1.745009857734153e+03, 1.915618075303498e+02, 1.827038256374224e+03
757, 9.999999999988963e-05, 3.999999999995989e-03, 2.008258003932791e-04, -1.486039274177296e-05, 2.410099855915229e+01, -3.488584194297003e+03, -3.810915468196839e+00, 3.512693461777971e+03
758, 1.499999999999365e-04, 3.999999999993896e-03, 2.006990722886986e-04, -1.919935037568517e-05, 2.346733797658260e+00, -5.227091303716659e+03, -2.278994112874621e+02, 5.249264210807291e+03
759, 1.999999999999672e-04, 3.999999999991804e-03, 2.005970091790087e-04, -2.354471944638157e-05, -2.411519319229802e+01, -6.960026860285238e+03, -4.807546738879714e+02, 7.002240418578650e+03
760, -2.000000000000072e-04, 3.900000000008219e-03, 1.934514594158575e-04, 1.124144063710347e-05, 7.008673572407304e+01, 7.264308146193193e+03, 7.528251683778129e+02, 7.350088750445441e+03
761, -1.500000000000277e-04, 3.900000000006203e-03, 1.931772954157919e-04, 6.973301597206347e-06, 7.098524054210975e+01, 5.444782601112469e+03, 6.991483249876468e+02, 5.552740908218668e+03
762, -1.000000000000492e-04, 3.900000000004186e-03, 1.929291011667959e-04, 2.707236103342707e-06, 6.874351528182058e+01, 3.627827522422400e+03, 6.165413170509132e+02, 3.766639318066882e+03
763, -5.000000000007867e-05, 3.900000000002170e-03, 1.927068256602503e-04, -1.558182940570332e-06, 6.311840952900286e+01, 1.813921647210036e+03, 5.049451174638569e+02, 2.021185361038602e+03
764, -1.410275975860520e-16, 3.900000000000153e-03, 1.925104069468796e-04, -5.824384896779829e-06, 5.386365552943778e+01, 3.549176946314788e+00, 3.643008393385207e+02, 7.303368763290638e+02
765, 4.999999999985460e-05, 3.899999999998138e-03, 1.923397720663736e-04, -1.009280139996003e-05, 4.072953734082751e+01, -1.802800408898434e+03, 1.945497869586455e+02, 1.884144670959094e+03
766, 9.999999999988204e-05, 3.899999999996121e-03, 1.921948369761094e-04, -1.436486636379957e-05, 2.346285390086683e+01, -3.604632342217492e+03, -4.366481940646963e+00, 3.628105706392147e+03
767, 1.499999999999321e-04, 3.899999999994104e-03, 1.920755064796859e-04, -1.864201598674812e-05, 1.806922365799892e+00, -5.401446544263623e+03, -2.325060843240030e+02, 5.423226377502013e+03
768, 1.999999999999652e-04, 3.899999999992088e-03, 1.919816741556633e-04, -2.292568875697005e-05, -2.449851727529852e+01, -7.192737703780739e+03, -4.899267395033367e+02, 7.234899161375620e+03
769, -2.000000000000091e-04, 3.800000000007874e-03, 1.849184244001454e-04, 1.134615766972259e-05, 6.998976468645992e+01, 7.500997626371098e+03, 7.655993577502325e+02, 7.587123786176759e+03
770, -1.500000000000321e-04, 3.800000000005924e-03, 1.846467585338738e-04, 7.142024503624705e-06, 7.061944458982850e+01, 5.622513940970901e+03, 7.109570333464462e+02, 5.731088213594828e+03
771, -1.000000000000568e-04, 3.800000000003971e-03, 1.844018934002253e-04, 2.939997369185811e-06, 6.817856125668800e+01, 3.746540702523414e+03, 6.269099715860575e+02, 3.886182251542053e+03
772, -5.000000000008884e-05, 3.800000000002021e-03, 1.841837807804950e-04, -1.261374114384611e-06, 6.242393595574003e+01, 1.873556923173675e+03, 5.133924647193068e+02, 2.081943800565044e+03
773, -1.538415120121150e-16, 3.800000000000070e-03, 1.839923615198967e-04, -5.463542761767228e-06, 5.310892519026322e+01, 4.047098047504733e+00, 3.703387906146146e+02, 7.423007087549946e+02
774, 4.999999999984441e-05, 3.799999999998119e-03, 1.838275654547586e-04, -9.667963832296954e-06, 3.998332952501016e+01, -1.861498809161762e+03, 1.976833568216574e+02, 1.942150653786142e+03
775, 9.999999999987444e-05, 3.799999999996168e-03, 1.836893113388916e-04, -1.387609503804542e-05, 2.279334120533019e+01, -3.722585369427203e+03, -4.639205656203501e+00, 3.745390203300038e+03
776, 1.499999999999278e-04, 3.799999999994218e-03, 1.835775067696125e-04, -1.808939655041970e-05, 1.281545838257784e+00, -5.578711655176289e+03, -2.366939552297680e+02, 5.600037521047320e+03
777, 1.999999999999633e-04, 3.799999999992265e-03, 1.834920481138171e-04, -2.230933100499875e-05, -2.481298736852148e+01, -7.429371147576725e+03, -4.985455733860946e+02, 7.471390252347777e+03
778, -2.000000000000110e-04, 3.700000000007529e-03, 1.765144729594961e-04, 1.143159795698451e-05, 6.975594226051078e+01, 7.741649398126508e+03, 7.777718507375035e+02, 7.828005199625130e+03
779, -1.500000000000364e-04, 3.700000000005644e-03, 1.762453464822617e-04, 7.293531992433858e-06, 7.011312000538658e+01, 5.803250368893881e+03, 7.223164852867496e+02, 5.912345315884446e+03
780, -1.000000000000644e-04, 3.700000000003758e-03, 1.760038647242528e-04, 3.157606714759732e-06, 6.747754746030728e+01, 3.867293440860575e+03, 6.369818447974682e+02, 4.007690645015358e+03
781, -5.000000000009902e-05, 3.700000000001873e-03, 1.757899825185514e-04, -9.776515368136727e-07, 6.160634345239941e+01, 1.934258032404649e+03, 5.216951399109022e+02, 2.143708847806142e+03
782, -1.666825314924902e-16, 3.699999999999988e-03, 1.756036437693698e-04, -5.113719034379661e-06, 5.225266820993215e+01, 4.628994960529099e+00, 3.763835660557936e+02, 7.542720791871258e+02
783, 4.999999999983423e-05, 3.699999999998102e-03, 1.754447813756372e-04, -9.252074672916260e-06, 3.916590934311216e+01, -1.921103239691580e+03, 2.009744102236511e+02, 2.001054219884153e+03
784, 9.999999999986681e-05, 3.699999999996217e-03, 1.753133171547795e-04, -1.339419997989485e-05, 2.209170321489376e+01, -3.842442603233980e+03, -4.604861172247070e+00, 3.864545280457449e+03
785, 1.499999999999234e-04, 3.699999999994331e-03, 1.752091617660891e-04, -1.754157912340641e-05, 7.718993064128199e-01, -5.758887372492973e+03, -2.404265117934567e+02, 5.779696753076004e+03
786, 1.999999999999614e-04, 3.699999999992445e-03, 1.751322146334222e-04, -2.169569891820363e-05, -2.505536367872605e+01, -7.669930054275464e+03, -5.065624013624630e+02, 7.711713875710314e+03
787, -2.000000000000130e-04, 3.600000000007325e-03, 1.682437986848170e-04, 1.149744928442723e-05, 6.937973641135170e+01, 7.986268280859437e+03, 7.892922800563608e+02, 8.072735189428648e+03
788, -1.500000000000407e-04, 3.600000000005489e-03, 1.679772473095443e-04, 7.427544976349218e-06, 6.945983373052138e+01, 5.986995953599475e+03, 7.331887999430626e+02, 6.096515151740501e+03
789, -1.000000000000720e-04, 3.600000000003653e-03, 1.677391976309441e-04, 3.359818355145345e-06, 6.663440427265596e+01, 3.990089502146341e+03, 6.467315150765234e+02, 4.131167693933969e+03
790, -5.000000000010923e-05, 3.600000000001818e-03, 1.675296078051037e-04, -7.072275150162322e-07, 6.066032669731385e+01, 1.996028344438605e+03, 5.298402515621340e+02, 2.206484111159099e+03
791, -1.794761171278192e-16, 3.599999999999982e-03, 1.673484250664769e-04, -4.775092366650688e-06, 5.129053327871543e+01, 5.297576023642137e+00, 3.824348811479940e+02, 7.662513330440530e+02
792, 4.999999999982404e-05, 3.599999999998146e-03, 1.671955856494936e-04, -8.845278739735321e-06, 3.827409175917251e+01, -1.981611927149710e+03, 2.044353409260317e+02, 2.060852921453093e+03
793, 9.999999999985923e-05, 3.599999999996311e-03, 1.670710147100144e-04, -1.291929199250988e-05, 2.135620574266420e+01, -3.964203459589964e+03, -4.238300415284584e+00, 3.985568679459428e+03
794, 1.499999999999191e-04, 3.599999999994474e-03, 1.669746262462939e-04, -1.699864031152659e-05, 2.781840539397535e-01, -5.941974449541654e+03, -2.436657703497547e+02, 5.962202478282194e+03
795, 1.999999999999595e-04, 3.599999999992638e-03, 1.669063230190996e-04, -2.108483472120783e-05, -2.522286639990705e+01, -7.914416631240103e+03, -5.139265016992871e+02, 7.955869534864740e+03
796, -2.000000000000149e-04, 3.500000000007369e-03, 1.601106644025030e-04, 1.154341063840403e-05, 6.885602763063787e+01, 8.234857953679337e+03, 8.001087829249843e+02, 8.321315023137020e+03
797, -1.500000000000451e-04, 3.500000000005565e-03, 1.598467178787983e-04, 7.543795565130716e-06, 6.865470220511804e+01, 6.173754758566718e+03, 7.435350715970549e+02, 6.283599629906871e+03
798, -1.000000000000796e-04, 3.500000000003764e-03, 1.596121430016956e-04, 3.546397708323609e-06, 6.564427404217577e+01, 4.114932788486673e+03, 6.561328365985688e+02, 4.256615870649319e+03
799, -5.000000000011939e-05, 3.500000000001962e-03, 1.594069015282556e-04, -4.503031427215887e-07, 5.958117006829775e+01, 2.058871215217445e+03, 5.378144519186952e+02, 2.270272720049929e+03
800, -1.923239128717724e-16, 3.500000000000160e-03, 1.592309443020579e-04, -4.447830183367595e-06, 5.021808766608854e+01, 6.055275107645912e+00, 3.884922560983722e+02, 7.782385792330556e+02
801, 4.999999999981385e-05, 3.499999999998358e-03, 1.590842111733562e-04, -8.447709606279350e-06, 3.730379288161816e+01, -2.043023800363231e+03, 2.080785987389740e+02, 2.121544180126496e+03
802, 9.999999999985163e-05, 3.499999999996555e-03, 1.589666309182153e-04, -1.245147061391334e-05, 2.058306620597398e+01, -4.087868764700953e+03, -3.514093011660606e+00, 4.108457842339539e+03
803, 1.499999999999148e-04, 3.499999999994753e-03, 1.588781211570440e-04, -1.646064543059669e-05, -2.033286672985923e-01, -6.127976324181389e+03, -2.463732453454753e+02, 6.147552438868657e+03
804, 1.999999999999576e-04, 3.499999999992950e-03, 1.588185882726032e-04, -2.047676931413622e-05, -2.531858778623939e+01, -8.162837010796137e+03, -5.205861456843433e+02, 8.203855546335481e+03
805, -2.000000000000167e-04, 3.400000000007423e-03, 1.521194022571101e-04, 1.156919315890840e-05, 6.818330582059968e+01, 8.487423595176413e+03, 8.101675440548746e+02, 8.573744388986168e+03
806, -1.500000000000494e-04, 3.400000000005649e-03, 1.518580839480716e-04, 7.642028016902777e-06, 6.769607936472812e+01, 6.363532355323833e+03, 7.533145968605986e+02, 6.473599148932193e+03
807, -1.000000000000872e-04, 3.400000000003875e-03, 1.516270201826328e-04, 3.717122334981094e-06, 6.450502260460007e+01, 4.241828584634420e+03, 6.651583688193216e+02, 4.384036355270224e+03
808, -5.000000000012958e-05, 3.400000000002102e-03, 1.514261766058944e-04, -2.070673701469845e-07, 5.836668265374897e+01, 2.122791450543364e+03, 5.456036226491970e+02, 2.335076631390885e+03
809, -2.051242747706794e-16, 3.400000000000329e-03, 1.512555079606070e-04, -4.132087757905036e-06, 4.903365837777289e+01, 6.906313106497350e+00, 3.945549343603183e+02, 7.902335718835955e+02
810, 4.999999999980369e-05, 3.399999999998554e-03, 1.511149580047714e-04, -8.059488680192497e-06, 3.625448810915259e+01, -2.105335288842380e+03, 2.119168158681142e+02, 2.183126592787060e+03
811, 9.999999999984403e-05, 3.399999999996781e-03, 1.510044594283600e-04, -1.199082319602008e-05, 1.977360461969874e+01, -4.213435613634882e+03, -2.406200218491165e+00, 4.233211953672237e+03
812, 1.499999999999104e-04, 3.399999999995008e-03, 1.509239337695855e-04, -1.592764758507681e-05, -6.686669326596757e-01, -6.316890667251057e+03, -2.485094878924572e+02, 6.335746855706628e+03
813, 1.999999999999557e-04, 3.399999999993234e-03, 1.508732913311224e-04, -1.987152136096330e-05, -2.533593032192607e+01, -8.415190044584004e+03, -5.264882138347751e+02, 8.455673327170820e+03
814, -2.000000000000187e-04, 3.300000000007353e-03, 1.442744139437064e-04, 1.157452108428114e-05, 6.735943107813546e+01, 8.743969700181669e+03, 8.194124724556857e+02, 8.830023383999425e+03
815, -1.500000000000538e-04, 3.300000000005614e-03, 1.440157403394079e-04, 7.721999679578908e-06, 6.658084310086406e+01, 6.556333170788950e+03, 7.624848773466124e+02, 6.666514683660574e+03
816, -1.000000000000948e-04, 3.300000000003875e-03, 1.437882170985784e-04, 3.871782879880505e-06, 6.321324078757652e+01, 4.370781225630632e+03, 6.737794882026993e+02, 4.513430750430944e+03
817, -5.000000000013977e-05, 3.300000000002137e-03, 1.435918140517551e-04, 2.230393850033133e-08, 5.701357400582356e+01, 2.187793081314788e+03, 5.531930908139374e+02, 2.400898101058215e+03
818, -2.179652942510546e-16, 3.300000000000398e-03, 1.434264901408764e-04, -3.828007266844111e-06, 4.773445842684566e+01, 7.854179853054120e+00, 4.006222420014033e+02, 8.022363490668114e+02
819, 4.999999999979350e-05, 3.299999999998659e-03, 1.432921933336198e-04, -7.680724252306207e-06, 3.512428156120666e+01, -2.168543691922132e+03, 2.159633753599995e+02, 2.245598640751214e+03
820, 9.999999999983644e-05, 3.299999999996922e-03, 1.431888605376468e-04, -1.153742394424435e-05, 1.892720933460521e+01, -4.340902345398326e+03, -8.871100533620222e-01, 4.359829915739802e+03
821, 1.499999999999061e-04, 3.299999999995182e-03, 1.431164175145572e-04, -1.539968669436590e-05, -1.116825472470055e+00, -6.508717153672716e+03, -2.500327593715962e+02, 6.526785392107501e+03
822, 1.999999999999538e-04, 3.299999999993444e-03, 1.430747787937595e-04, -1.926909629267197e-05, -2.527228063416658e+01, -8.671477142435286e+03, -5.315769652597476e+02, 8.711323366298164e+03
823, -2.000000000000206e-04, 3.200000000007042e-03, 1.365801708317627e-04, 1.155913267355391e-05, 6.637881287603284e+01, 9.004498050425866e+03, 8.277859104478330e+02, 9.090153659801475e+03
824, -1.500000000000580e-04, 3.200000000005365e-03, 1.363241510309572e-04, 7.783481913469460e-06, 6.530296861524664e+01, 6.752159462883408e+03, 7.710024582769221e+02, 6.862348645880105e+03
825, -1.000000000001024e-04, 3.200000000003689e-03, 1.361001903180348e-04, 4.010184001519535e-06, 6.176318166119620e+01, 4.501793420100428e+03, 6.819669578193405e+02, 4.644801852015241e+03
826, -5.000000000014997e-05, 3.200000000002012e-03, 1.359082630149803e-04, 2.376489392468627e-07, 5.551652160199001e+01, 2.253878886325493e+03, 5.605679107346414e+02, 2.467740386834546e+03
827, -2.307656561499616e-16, 3.200000000000335e-03, 1.357483325701151e-04, -3.535716855235912e-06, 4.631564041270883e+01, 8.901272698498019e+00, 4.066935951769341e+02, 8.142472329355588e+02
828, 4.999999999978330e-05, 3.199999999998658e-03, 1.356203514698605e-04, -7.311510565669115e-06, 3.390883782602964e+01, -2.232647459318123e+03, 2.202321211254238e+02, 2.308957816164129e+03
829, 9.999999999982882e-05, 3.199999999996980e-03, 1.355242611502722e-04, -1.109133299542401e-05, 1.804005166164382e+01, -4.470268753701820e+03, 1.071511255293444e+00, 4.488309316975456e+03
830, 1.499999999999017e-04, 3.199999999995303e-03, 1.354599919083105e-04, -1.487678858397425e-05, -1.551177778442138e+00, -6.703457436490341e+03, -2.509002161338462e+02, 6.720665976998542e+03
831, 1.999999999999519e-04, 3.199999999993626e-03, 1.354274628126223e-04, -1.866948542259388e-05, -2.512976306538917e+01, -8.931701694137169e+03, -5.357949731905528e+02, 8.970804232427588e+03
832, -2.000000000000225e-04, 3.100000000006703e-03, 1.290412139070087e-04, 1.152278119538451e-05, 6.523763257236794e+01, 9.269010717968677e+03, 8.352289532745934e+02, 9.354136444644058e+03
833, -1.500000000000624e-04, 3.100000000005093e-03, 1.287878491308676e-04, 7.826261076917812e-06, 6.385834694869936e+01, 6.951014165453114e+03, 7.788230040126009e+02, 7.061103055095292e+03
834, -1.000000000001100e-04, 3.100000000003483e-03, 1.285674650486133e-04, 4.132145354497156e-06, 6.015053822596246e+01, 4.634868541526137e+03, 6.896909518337612e+02, 4.778152283664071e+03
835, -5.000000000016015e-05, 3.100000000001875e-03, 1.283800407883244e-04, 4.388207873945790e-07, 5.387126464041444e+01, 2.321052331296109e+03, 5.677128421345999e+02, 2.535606726899942e+03
836, -2.436134518939148e-16, 3.100000000000265e-03, 1.282255446211129e-04, -3.255329661195349e-06, 4.477329315350300e+01, 1.005085437106970e+01, 4.127684251786289e+02, 8.262667481224096e+02
837, 4.999999999977311e-05, 3.099999999998656e-03, 1.281039338704331e-04, -6.951926844648319e-06, 3.260492320918854e+01, -2.297643802442003e+03, 2.247372214872133e+02, 2.373201718836006e+03
838, 9.999999999982122e-05, 3.099999999997047e-03, 1.280151548208185e-04, -1.065259545214519e-05, 1.710994281840647e+01, -4.601532764223713e+03, 3.498606264787838e+00, 4.618648007403956e+03
839, 1.499999999998973e-04, 3.099999999995438e-03, 1.279591426262842e-04, -1.435896402683112e-05, -1.972376895122238e+00, -6.901110313939301e+03, -2.510681050653716e+02, 6.917387154691189e+03
840, 1.999999999999499e-04, 3.099999999993829e-03, 1.279358212186019e-04, -1.807266498266923e-05, -2.490721501878375e+01, -9.195863785019208e+03, -5.390835861516373e+02, 9.234115488787564e+03
841, -2.000000000000244e-04, 3.000000000006373e-03, 1.216621538141798e-04, 1.146523599152184e-05, 6.393530004223692e+01, 9.537510984648718e+03, 8.416806406681727e+02, 9.621971807039839e+03
842, -1.500000000000668e-04, 3.000000000004845e-03, 1.214114369151882e-04, 7.850139582416901e-06, 6.224549812809164e+01, 7.152901349595174e+03, 7.859004972603460e+02, 7.262778997761162e+03
843, -1.000000000001176e-04, 3.000000000003318e-03, 1.211946351659507e-04, 4.237502632987089e-06, 5.837277496455692e+01, 4.770010761710505e+03, 6.969205069065026e+02, 4.913484027646237e+03
844, -5.000000000017031e-05, 3.000000000001789e-03, 1.210117328263026e-04, 6.256886721527995e-07, 5.207468148481098e+01, 2.389317470961212e+03, 5.746120512746214e+02, 2.604499931817919e+03
845, -2.564273663199779e-16, 3.000000000000262e-03, 1.208627033178338e-04, -2.986942786456481e-06, 4.310420631833938e+01, 1.130667692453164e+01, 4.188460899364497e+02, 8.382954557289215e+02
846, 4.999999999976296e-05, 2.999999999998735e-03, 1.207475091302539e-04, -6.602036267029658e-06, 3.120970434299022e+01, -2.363529486489284e+03, 2.294932879742217e+02, 2.438328211912599e+03
847, 9.999999999981362e-05, 2.999999999997206e-03, 1.206661017275168e-04, -1.022124035250199e-05, 1.613488440272135e+01, -4.734691896746069e+03, 6.424101357743893e+00, 4.750844154547020e+03
848, 1.499999999998930e-04, 2.999999999995678e-03, 1.206184214535681e-04, -1.384620770438349e-05, -2.381217292129918e+00, -7.101674398517714e+03, -2.504911377672823e+02, 7.116947865018814e+03
849, 1.999999999999481e-04, 2.999999999994151e-03, 1.206043974376831e-04, -1.747859508123949e-05, -2.460423425422130e+01, -9.463963741161051e+03, -5.413821064552936e+02, 9.501257087427550e+03
850, -2.000000000000263e-04, 2.900000000006043e-03, 1.144476710445969e-04, 1.138628353659087e-05, 6.247074497974495e+01, 9.810001514634936e+03, 8.470777192585211e+02, 9.893660533656468e+03
851, -1.500000000000711e-04, 2.900000000004594e-03, 1.141995859588834e-04, 7.854936950559394e-06, 6.046173542299209e+01, 7.357823964824689e+03, 7.921871436134993e+02, 7.467378213879659e+03
852, -1.000000000001252e-04, 2.900000000003146e-03, 1.139863633007891e-04, 4.326108623771782e-06, 5.642640765715953e+01, 4.907223382217853e+03, 7.036234767617134e+02, 5.050799469055185e+03
853, -5.000000000018052e-05, 2.900000000001698e-03, 1.138079927979845e-04, 7.981388678663584e-07, 5.012293673549846e+01, 2.458677816743791e+03, 5.812490686012159e+02, 2.674423027310916e+03
854, -2.692480570096190e-16, 2.900000000000249e-03, 1.136644533595635e-04, -2.730636247344969e-06, 4.130454086926193e+01, 1.267221704180781e+01, 4.249258425533029e+02, 8.503338736321737e+02
855, 4.999999999975274e-05, 2.899999999998802e-03, 1.135557129802648e-04, -6.261884917205133e-06, 2.971970102999364e+01, -2.430301326067346e+03, 2.345153627957415e+02, 2.504334896795938e+03
856, 9.999999999980604e-05, 2.899999999997354e-03, 1.134817286443084e-04, -9.797279625045225e-06, 1.511214070433311e+01, -4.869743519091934e+03, 9.878909849108055e+00, 4.884895616948518e+03
857, 1.499999999998886e-04, 2.899999999995905e-03, 1.134424462286712e-04, -1.333849716409343e-05, -2.779202983131881e+00, -7.305147808345746e+03, -2.491224366978468e+02, 7.319346637675429e+03
858, 1.999999999999462e-04, 2.899999999994458e-03, 1.134378004058046e-04, -1.688721865828451e-05, -2.422032874355966e+01, -9.736000416939569e+03, -5.426277150169669e+02, 9.772228600984456e+03
859, -2.000000000000283e-04, 2.800000000005697e-03, 1.074025160216976e-04, 1.128572847648914e-05, 6.083878138812861e+01, 1.008648095005212e+04, 8.513556168496439e+02, 1.016920480861013e+04
860, -1.500000000000755e-04, 2.800000000004316e-03, 1.071570371970744e-04, 7.840490863242891e-06, 5.850159098962524e+01, 7.565782011438907e+03, 7.976343054106482e+02, 7.674903338279436e+03
861, -1.000000000001328e-04, 2.800000000002934e-03, 1.069473808822490e-04, 4.397834269767954e-06, 5.430619284001034e+01, 5.046507799144018e+03, 7.097670757443196e+02, 5.190101548643041e+03
862, -5.000000000019071e-05, 2.800000000001552e-03, 1.067735426134266e-04, 9.560758021050989e-07, 4.801084486922048e+01, 2.529135565960551e+03, 5.876070456520858e+02, 2.745379398555038e+03
863, -2.820416426449479e-16, 2.800000000000171e-03, 1.066355071304406e-04, -2.486471906447006e-06, 3.936911895857077e+01, 1.414992852942919e+01, 4.310068713779766e+02, 8.623825718705289e+02
864, 4.999999999974258e-05, 2.799999999998790e-03, 1.065332482789727e-04, -5.931500720966930e-06, 2.812974060026829e+01, -2.497957147146545e+03, 2.398187632415759e+02, 2.571218995196103e+03
865, 9.999999999979847e-05, 2.799999999997408e-03, 1.064667289118780e-04, -9.380707030010097e-06, 1.403653537131527e+01, -5.006686298664420e+03, 1.389456144399273e+01, 5.020799738244766e+03
866, 1.499999999998843e-04, 2.799999999996027e-03, 1.064359007898031e-04, -1.283579177006496e-05, -3.171628982811058e+00, -7.511530726125367e+03, -2.469141832121853e+02, 7.524581236662194e+03
867, 1.999999999999443e-04, 2.799999999994645e-03, 1.064407044809777e-04, -1.629846044896546e-05, -2.376079826792625e+01, -1.001197605079914e+04, -5.427561477278734e+02, 1.004702845992200e+04
868, -2.000000000000301e-04, 2.700000000005420e-03, 1.005315089810104e-04, 1.116339477952309e-05, 5.904042152030775e+01, 1.036695058959768e+04, 8.544482213609634e+02, 1.044860464775563e+04
869, -1.500000000000799e-04, 2.700000000004097e-03, 1.002886008664757e-04, 7.806658309647479e-06, 5.636519043653198e+01, 7.776778316958786e+03, 8.021920195000682e+02, 7.885355222738891e+03
870, -1.000000000001404e-04, 2.700000000002773e-03, 1.000824881138450e-04, 4.452569806062969e-06, 5.201081082200960e+01, 5.187867461182903e+03, 7.153175283220544e+02, 5.331391956924131e+03
871, -5.000000000020087e-05, 2.700000000001450e-03, 9.991317241886184e-05, 1.099423183986163e-06, 4.573613821519427e+01, 2.600694618015646e+03, 5.936685515939699e+02, 2.817371510843212e+03
872, -2.948962146524792e-16, 2.700000000000125e-03, 9.978064470658853e-05, -2.254492350059146e-06, 3.729527691233375e+01, 1.574401728695398e+01, 4.370882173577322e+02, 8.744420482818064e+02
873, 4.999999999973239e-05, 2.699999999998801e-03, 9.968488503104582e-05, -5.610892327221935e-06, 2.643734671220977e+01, -2.566492565981323e+03, 2.454191090255793e+02, 2.638978531257981e+03
874, 9.999999999979085e-05, 2.699999999997478e-03, 9.962586247396099e-05, -8.971497044120832e-06, 1.290643892686683e+01, -5.145515750386381e+03, 1.850334950693713e+01, 5.158554931273989e+03
875, 1.499999999998800e-04, 2.699999999996155e-03, 9.960353504286342e-05, -1.233803158970518e-05, -3.558411999463260e+00, -7.720818481782851e+03, -2.438173226397502e+02, 7.732650938193832e+03
876, 1.999999999999424e-04, 2.699999999994831e-03, 9.961784956874721e-05, -1.571222587190001e-05, -2.322330535470053e+01, -1.029188602318947e+04, -5.417014513774094e+02, 1.032565716370379e+04
877, -2.000000000000321e-04, 2.600000000005380e-03, 9.383954015556416e-05, 1.101912694904141e-05, 5.707980823752155e+01, 1.065141310817051e+04, 8.562865461268971e+02, 1.073185932941635e+04
878, -1.500000000000841e-04, 2.600000000004088e-03, 9.359915663260387e-05, 7.753316775377878e-06, 5.405386761959301e+01, 7.990815980940695e+03, 8.058078905162145e+02, 8.098734362177957e+03
879, -1.000000000001480e-04, 2.600000000002797e-03, 9.339655405281418e-05, 4.490225934120549e-06, 4.953942625682168e+01, 5.331305770931393e+03, 7.202394185439721e+02, 5.474672136286813e+03
880, -5.000000000021105e-05, 2.600000000001504e-03, 9.323174063521310e-05, 1.228125168462254e-06, 4.329646402368064e+01, 2.673358623904542e+03, 5.994152232122942e+02, 2.890401599105522e+03
881, -3.077169053421203e-16, 2.600000000000212e-03, 9.310471385631677e-05, -2.034719729831547e-06, 3.507964691802545e+01, 1.745819242504581e+01, 4.431686408546877e+02, 8.865124322909480e+02
882, 4.999999999972220e-05, 2.599999999998920e-03, 9.301546034697002e-05, -5.300047952503428e-06, 2.463852852330456e+01, -2.635904103605442e+03, 2.513323627680753e+02, 2.707611294789725e+03
883, 9.999999999978321e-05, 2.599999999997628e-03, 9.296395578841369e-05, -8.569603705276376e-06, 1.171750273278190e+01, -5.286229023350279e+03, 2.373852563479875e+01, 5.298159252385005e+03
884, 1.499999999998756e-04, 2.599999999996335e-03, 9.295016480780355e-05, -1.184513623714497e-05, -3.944218614853526e+00, -7.933009436027472e+03, -2.397811972515618e+02, 7.943554324872726e+03
885, 1.999999999999405e-04, 2.599999999995043e-03, 9.297404087345701e-05, -1.512839986797143e-05, -2.261263333900808e+01, -1.057573026123714e+04, -5.393955446708864e+02, 1.060811396444710e+04
886, -2.000000000000340e-04, 2.500000000005436e-03, 8.733157001651214e-05, 1.085279114710235e-05, 5.495295499829285e+01, 1.093986424919642e+04, 8.567997839182359e+02, 1.101897079411009e+04
887, -1.500000000000885e-04, 2.500000000004174e-03, 8.709365374778499e-05, 7.680365381407926e-06, 5.156295288623812e+01, 8.207892963491622e+03, 8.084283736293514e+02, 8.315043294118079e+03
888, -1.000000000001556e-04, 2.500000000002911e-03, 8.689451671097498e-05, 4.510734972152380e-06, 4.688749235045759e+01, 5.476823017459426e+03, 7.244965216572184e+02, 5.619944897097662e+03
889, -5.000000000022121e-05, 2.500000000001650e-03, 8.673417401830347e-05, 1.342147513495150e-06, 4.068722186212096e+01, 2.747129504532453e+03, 6.048282761318310e+02, 2.964472769964367e+03
890, -3.205375960317614e-16, 2.500000000000388e-03, 8.661263007152881e-05, -1.827154602610693e-06, 3.271761106236033e+01, 1.929547808833968e+01, 4.492469026640639e+02, 8.985940528773780e+02
891, 4.999999999971200e-05, 2.499999999999127e-03, 8.652987845537608e-05, -4.998934220903726e-06, 2.272882203471431e+01, -2.706188071574737e+03, 2.575749243249155e+02, 2.777114829961303e+03
892, 9.999999999977564e-05, 2.499999999997865e-03, 8.648590183075009e-05, -8.174959455601870e-06, 1.046569876048216e+01, -5.428822132766807e+03, 2.963421271557138e+01, 5.439610726922831e+03
893, 1.499999999998713e-04, 2.499999999996604e-03, 8.648067182739359e-05, -1.135700372199882e-05, -4.332274770336198e+00, -8.148099610548598e+03, -2.347539237153554e+02, 8.157290238681470e+03
894, 1.999999999999386e-04, 2.499999999995341e-03, 8.651414893594536e-05, -1.454684576688164e-05, -2.193089653338166e+01, -1.086350517193554e+04, -5.357686167200677e+02, 1.089439878156249e+04
895, -2.000000000000358e-04, 2.400000000005491e-03, 8.101262906361597e-05, 1.066427641365201e-05, 5.266269082630276e+01, 1.123230346774532e+04, 8.559156903365690e+02, 1.130993963630256e+04
896, -1.500000000000929e-04, 2.400000000004260e-03, 8.077711092221654e-05, 7.587726095634429e-06, 4.889324903502688e+01, 8.428010430896516e+03, 8.099989232674835e+02, 8.534283670592649e+03
897, -1.000000000001632e-04, 2.400000000003029e-03, 8.058138296905938e-05, 4.514052062757577e-06, 4.405365633721578e+01, 5.624421333394884e+03, 7.280519592881861e+02, 5.767212674493932e+03
898, -5.000000000023145e-05, 2.400000000001797e-03, 8.042546759273514e-05, 1.441478785657505e-06, 3.790559372960354e+01, 2.822010330469174e+03, 6.098886590490451e+02, 3.039588112044506e+03
899, -3.333650629849805e-16, 2.400000000000566e-03, 8.030937650516510e-05, -1.631774726427546e-06, 3.020538183275812e+01, 2.125969725127766e+01, 4.553219301233268e+02, 9.106877980282585e+02
900, 4.999999999970184e-05, 2.399999999999334e-03, 8.023311063285089e-05, -4.707494961000684e-06, 2.070393238652741e+01, -2.777340118151294e+03, 2.641638482295906e+02, 2.847486727553960e+03
901, 9.999999999976805e-05, 2.399999999998102e-03, 8.019666000740691e-05, -7.787473937679871e-06, 9.146699293682559e+00, -5.573290431158905e+03, 3.622573191485461e+01, 5.582907265042721e+03
902, 1.499999999998670e-04, 2.399999999996872e-03, 8.020000365546406e-05, -1.087350924260559e-05, -4.726365990651743e+00, -8.366084249559603e+03, -2.286817692781129e+02, 8.373857358680129e+03
903, 1.999999999999366e-04, 2.399999999995640e-03, 8.024310948784743e-05, -1.396740406140121e-05, -2.118099492683393e+01, -1.115520630591983e+04, -5.307485784595157e+02, 1.118451142607400e+04
904, -2.000000000000378e-04, 2.300000000005451e-03, 7.488781795172111e-05, 1.045349595754126e-05, 5.021186279511346e+01, 1.152872853271209e+04, 8.535598164002496e+02, 1.160476636482850e+04
905, -1.500000000000972e-04, 2.300000000004251e-03, 7.465461639309204e-05, 7.475345006612759e-06, 4.604520887976889e+01, 8.651167940919435e+03, 8.104630913887903e+02, 8.756456984618821e+03
906, -1.000000000001708e-04, 2.300000000003051e-03, 7.446222860849828e-05, 4.500156434381934e-06, 4.103646013784748e+01, 5.774101904117271e+03, 7.308675812807256e+02, 5.916477758803758e+03
907, -5.000000000024163e-05, 2.300000000001851e-03, 7.431068465504160e-05, 1.526131610336573e-06, 3.494844950496429e+01, 2.898003534739191e+03, 6.145765913280072e+02, 3.115750626657881e+03
908, -3.461857536746216e-16, 2.300000000000652e-03, 7.420000394989330e-05, -1.448533819959160e-06, 2.753846405826926e+01, 2.335419149049915e+01, 4.613924307701602e+02, 9.227943480672765e+02
909, 4.999999999969163e-05, 2.299999999999453e-03, 7.413019515914705e-05, -4.425649974527393e-06, 1.855826272865670e+01, -2.849356376544204e+03, 2.711164541597583e+02, 2.918724191324049e+03
910, 9.999999999976044e-05, 2.299999999998253e-03, 7.410125608585158e-05, -7.407032772999956e-06, 7.754020962754225e+00, -5.719629959816255e+03, 4.354914733655090e+01, 5.728046209329929e+03
911, 1.499999999998626e-04, 2.299999999997052e-03, 7.411317355726706e-05, -1.039450397396145e-05, -5.133724776036388e+00, -8.586959816781919e+03, -2.215097944987648e+02, 8.593253483382676e+03
912, 1.999999999999347e-04, 2.299999999995853e-03, 7.416592331131738e-05, -1.338989121182146e-05, -2.037014302715920e+01, -1.145083060076825e+04, -5.242614086304476e+02, 1.147845052149023e+04
913, -2.000000000000396e-04, 2.200000000005174e-03, 6.896230755699800e-05, 1.022038842005043e-05, 4.760248565921370e+01, 1.182913499160984e+04, 8.496555865138032e+02, 1.190345187966699e+04
914, -1.500000000001016e-04, 2.200000000004032e-03, 6.873132797052723e-05, 7.343193604034148e-06, 4.301894990660162e+01, 8.877363526277548e+03, 8.097629900246501e+02, 8.981564924561277e+03
915, -1.000000000001784e-04, 2.200000000002889e-03, 6.854219833733224e-05, 4.469052681296330e-06, 3.783440303246300e+01, 5.925865021210638e+03, 7.329041372649799e+02, 6.067742451545233e+03
916, -5.000000000025179e-05, 2.200000000001748e-03, 6.839495678368593e-05, 1.596143949450574e-06, 3.181283196116101e+01, 2.975111237568344e+03, 6.188716276310125e+02, 3.192963180244398e+03
917, -3.590132206278407e-16, 2.200000000000606e-03, 6.828963083643602e-05, -1.277360288846482e-06, 2.471268712348831e+01, 2.558251459932501e+01, 4.674568887033403e+02, 9.349141820427509e+02
918, 4.999999999968146e-05, 2.199999999999464e-03, 6.822623730925452e-05, -4.153293767568219e-06, 1.628674019842333e+01, -2.922232222425162e+03, 2.784502758074241e+02, 2.990824621753558e+03
919, 9.999999999975283e-05, 2.199999999998322e-03, 6.820478218797604e-05, -7.033496298736886e-06, 6.282033949343258e+00, -5.867835376694282e+03, 5.164114967321291e+01, 5.875025326531355e+03
920, 1.499999999998582e-04, 2.199999999997180e-03, 6.822526051515050e-05, -9.919813812915699e-06, -5.560164650909087e+00, -8.810720597885158e+03, -2.131820393564164e+02, 8.815477104650128e+03
921, 1.999999999999328e-04, 2.199999999996038e-03, 6.828765627397103e-05, -1.281409839870788e-05, -1.950428987461589e+01, -1.175037260715685e+04, -5.162316729832327e+02, 1.177621552274671e+04
922, -2.000000000000416e-04, 2.100000000004828e-03, 6.324133895412982e-05, 9.964919223496920e-06, 4.484035514055597e+01, 1.213351945724446e+04, 8.441245463746128e+02, 1.220599637198095e+04
923, -1.500000000001059e-04, 2.100000000003754e-03, 6.301247302230401e-05, 7.191270107362305e-06, 3.981744237512555e+01, 9.106596153868890e+03, 8.078390474109902e+02, 9.209608672972165e+03
924, -1.000000000001860e-04, 2.100000000002678e-03, 6.282650577210031e-05, 4.420772088647280e-06, 3.444780134087125e+01, 6.079711538398477e+03, 7.341212434815046e+02, 6.221008732601733e+03
925, -5.000000000026199e-05, 2.100000000001603e-03, 6.268348381117787e-05, 1.651580422355234e-06, 2.849696445196867e+01, 3.053336051876604e+03, 6.227527107586185e+02, 3.271228402273484e+03
926, -3.718339113174818e-16, 2.100000000000528e-03, 6.258344319204714e-05, -1.118155907175907e-06, 2.172469460816194e+01, 2.794883929709658e+01, 4.735137312770964e+02, 9.470479157935683e+02
927, 4.999999999967128e-05, 2.099999999999452e-03, 6.252640929567574e-05, -3.890294232575263e-06, 1.388494736261680e+01, -2.995962144543978e+03, 2.861833735454488e+02, 3.063785764350047e+03
928, 9.999999999974523e-05, 2.099999999998377e-03, 6.251239671418279e-05, -6.666698247984512e-06, 4.725814959551712e+00, -6.017900049982059e+03, 6.053958235524459e+01, 6.023842832709921e+03
929, 1.499999999998539e-04, 2.099999999997302e-03, 6.254140913272947e-05, -9.449238052642235e-06, -6.010512798719105e+00, -9.037359035744666e+03, -2.036407367652509e+02, 9.040527326522448e+03
930, 1.999999999999309e-04, 2.099999999996226e-03, 6.261343921082192e-05, -1.223979019354067e-05, -1.858786605170951e+01, -1.205382425466686e+04, -5.065816026023138e+02, 1.207780669700533e+04
931, -2.000000000000435e-04, 2.000000000004496e-03, 5.773022351916642e-05, 9.687081922986548e-06, 4.192983859357503e+01, 1.244187561981805e+04, 8.368859646466519e+02, 1.251240056298538e+04
932, -1.500000000001103e-04, 2.000000000003499e-03, 5.750334852736779e-05, 7.019600822162055e-06, 3.644233033969374e+01, 9.338862415131662e+03, 8.046300606634937e+02, 9.440589895342044e+03
933, -1.000000000001936e-04, 2.000000000002501e-03, 5.732043345255115e-05, 4.355373982035509e-06, 3.087600830820691e+01, 6.235640736378376e+03, 7.344773621762831e+02, 6.376278955072575e+03
934, -5.000000000027220e-05, 2.000000000001505e-03, 5.718153380543845e-05, 1.692533651286641e-06, 2.499810092492044e+01, 3.132679508266790e+03, 6.261981568139835e+02, 3.350549246903747e+03
935, -3.846512138753339e-16, 2.000000000000507e-03, 5.708669458998162e-05, -9.707944766834171e-07, 1.856988376469303e+01, 3.045653816048730e+01, 4.795612921664440e+02, 9.591962386968179e+02
936, 4.999999999966107e-05, 1.999999999999510e-03, 5.703595018423985e-05, -3.636491312487117e-06, 1.134667309582676e+01, -3.070541354267358e+03, 2.943342687027213e+02, 3.137604892292145e+03
937, 9.999999999973761e-05, 1.999999999998513e-03, 5.702932422034901e-05, -6.306444418981866e-06, 3.077774503942351e+00, -6.169818235834561e+03, 7.028332103454562e+01, 6.174496265713956e+03
938, 1.499999999998495e-04, 1.999999999997515e-03, 5.706682946355844e-05, -8.982548058404267e-06, -6.493579029262150e+00, -9.266868969131550e+03, -1.928264887229288e+02, 9.268402267091398e+03
939, 1.999999999999290e-04, 1.999999999996517e-03, 5.714846769036228e-05, -1.166670323770273e-05, -1.763027503802527e+01, -1.236117910116076e+04, -4.952312040241622e+02, 1.238322306205589e+04
940, -2.000000000000454e-04, 1.900000000004165e-03, 5.243434289803583e-05, 9.386899604949242e-06, 3.887793701751934e+01, 1.275419735879054e+04, 8.278571006755819e+02, 1.282266499267114e+04
941, -1.500000000001146e-04, 1.900000000003247e-03, 5.220932104832919e-05, 6.828241524705789e-06, 3.289703759742110e+01, 9.574158935470934e+03, 8.000732422509833e+02, 9.674510187894624e+03
942, -1.000000000002012e-04, 1.900000000002328e-03, 5.202933281070822e-05, 4.272947109006409e-06, 2.711943686386599e+01, 6.393651861805409e+03, 7.339298487019882e+02, 6.533555479912520e+03
943, -5.000000000028235e-05, 1.900000000001409e-03, 5.189444303140008e-05, 1.719125636951366e-06, 2.131406067300895e+01, 3.213143238082909e+03, 6.291856215764340e+02, 3.430928691092144e+03
944, -3.974685164331859e-16, 1.900000000000491e-03, 5.180470610215845e-05, -8.351204575997824e-07, 1.524384812143501e+01, 3.310932504585594e+01, 4.855977053492704e+02, 9.713597176266084e+02
945, 4.999999999965091e-05, 1.899999999999572e-03, 5.176016583862629e-05, -3.391695639255544e-06, 8.665650967901115e+00, -3.145964379099146e+03, 3.029217416170368e+02, 3.212279090113127e+03
946, 9.999999999973007e-05, 1.899999999998654e-03, 5.176085535758993e-05, -5.952511323013939e-06, 1.330159204989513e+00, -6.323583047078648e+03, 8.091195424833239e+01, 6.326983012809683e+03
947, 1.499999999998452e-04, 1.899999999997735e-03, 5.180679695316238e-05, -8.519485925278679e-06, -7.018174635090190e+00, -9.499242426290275e+03, -1.806787688457475e+02, 9.499099984406799e+03
948, 1.999999999999271e-04, 1.899999999996817e-03, 5.189800197175568e-05, -1.109454491423763e-05, -1.664116768104941e+01, -1.267242870310560e+04, -4.820987612551993e+02, 1.269246370899766e+04
949, -2.000000000000473e-04, 1.800000000003828e-03, 4.735914903474361e-05, 9.064426315417546e-06, 3.569109586871423e+01, 1.307047583901996e+04, 8.169531188021525e+02, 1.313679043349520e+04
950, -1.500000000001189e-04, 1.800000000002982e-03, 4.713582673308210e-05, 6.617278893121459e-06, 2.918517327151949e+01, 9.812480776042783e+03, 7.941042399514796e+02, 9.911371198115790e+03
951, -1.000000000002088e-04, 1.800000000002135e-03, 4.695862415106675e-05, 4.173611063128754e-06, 2.317877530325086e+01, 6.553743262364973e+03, 7.324349359051973e+02, 6.692840672017340e+03
952, -5.000000000029254e-05, 1.800000000001289e-03, 4.682761591257010e-05, 1.731509177509026e-06, 1.744286148678952e+01, 3.294728480980063e+03, 6.316921264200159e+02, 3.512369684708826e+03
953, -4.102858189910380e-16, 1.800000000000442e-03, 4.674286624391725e-05, -7.109475547516977e-07, 1.174227889072563e+01, 3.591100330049426e+01, 4.916209680469403e+02, 9.835389326982629e+02
954, 4.999999999964072e-05, 1.799999999999596e-03, 4.670442884964644e-05, -3.155687124407128e-06, 5.835643071360664e+00, -3.222225158363189e+03, 3.119649580884272e+02, 3.287805510984299e+03
955, 9.999999999972246e-05, 1.799999999998750e-03, 4.671234678721718e-05, -5.604644778078130e-06, -5.247313348069156e-01, -6.479186445656231e+03, 9.246601052581315e+01, 6.481300599495787e+03
956, 1.499999999998409e-04, 1.799999999997903e-03, 4.676665234058007e-05, -8.059763073642245e-06, -7.592892414741186e+00, -9.734469636056263e+03, -1.671354628879354e+02, 9.732618775941723e+03
957, 1.999999999999252e-04, 1.799999999997057e-03, 4.686736689267513e-05, -1.052299193455606e-05, -1.562940904410164e+01, -1.298756179815067e+04, -4.671004865511394e+02, 1.300552810791231e+04
958, -2.000000000000492e-04, 1.700000000003484e-03, 4.251016413466519e-05, 8.719748543383530e-06, 3.237896844019701e+01, 1.339070233659706e+04, 8.040872345073209e+02, 1.345477715649859e+04
959, -1.500000000001233e-04, 1.700000000002704e-03, 4.228837127313999e-05, 6.386831977363005e-06, 2.531223797995790e+01, 1.005382271818948e+04, 7.866570280741746e+02, 1.015117429517128e+04
960, -1.000000000002164e-04, 1.700000000001925e-03, 4.211379659797210e-05, 4.057517748463249e-06, 1.905579267671874e+01, 6.715912931046698e+03, 7.299476957396950e+02, 6.854136713387012e+03
961, -5.000000000030273e-05, 1.700000000001145e-03, 4.198652496409979e-05, 1.729869326454037e-06, 1.338294810083812e+01, 3.377436172920388e+03, 6.336940214780681e+02, 3.594875039670642e+03
962, -4.231031215488901e-16, 1.700000000000365e-03, 4.190663088999406e-05, -5.980572659531007e-07, 8.060645445994055e+00, 3.886512788644075e+01, 4.976289006298495e+02, 9.957344059068735e+02
963, 4.999999999963053e-05, 1.699999999999585e-03, 4.187417843098152e-05, -2.928213514070089e-06, 2.849461250488730e+00, -3.299317875187074e+03, 3.214834043319871e+02, 3.364181242870051e+03
964, 9.999999999971485e-05, 1.699999999998805e-03, 4.188922105161518e-05, -5.262558471403914e-06, -2.496471707449700e+00, -6.636620768009420e+03, 1.049868508390720e+02, 6.637446356406999e+03
965, 1.499999999998365e-04, 1.699999999998025e-03, 4.195180149698349e-05, -7.603058819499202e-06, -8.229552662944457e+00, -9.972541641737271e+03, -1.521331261139894e+02, 9.968956483038615e+03
966, 1.999999999999232e-04, 1.699999999997246e-03, 4.206195166266191e-05, -9.951688927343115e-06, -1.460870174501179e+01, -1.330656854424388e+04, -4.501505100114508e+02, 1.332241488549493e+04
967, -2.000000000000511e-04, 1.600000000003144e-03, 3.789298068424108e-05, 8.352986728139721e-06, 2.895158192534905e+01, 1.371486599294859e+04, 7.891703018304991e+02, 1.377662557838525e+04
968, -1.500000000001277e-04, 1.600000000002436e-03, 3.767252989171465e-05, 6.137053704996644e-06, 2.128402010695072e+01, 1.029817789945996e+04, 7.776639616264764e+02, 1.039392095199563e+04
969, -1.000000000002240e-04, 1.600000000001727e-03, 3.750040805901964e-05, 3.924852879558286e-06, 1.475269086160756e+01, 6.880157925567309e+03, 7.264220801280785e+02, 7.017445773977513e+03
970, -5.000000000031292e-05, 1.600000000001018e-03, 3.737671073637280e-05, 1.714424888283132e-06, 9.133231620041897e+00, 3.461266908068871e+03, 6.351670451436693e+02, 3.678447447092084e+03
971, -4.359339766338982e-16, 1.600000000000309e-03, 3.730152320277329e-05, -4.961973911914588e-07, 4.194919190700830e+00, 4.197550742192618e+01, 5.036192086121307e+02, 1.007946725764578e+03
972, 4.999999999962034e-05, 1.599999999999600e-03, 3.727492033693697e-05, -2.708988903827723e-06, -2.994406666265377e-01, -3.377235754030274e+03, 3.314969468241740e+02, 3.441403749566310e+03
973, 9.999999999970728e-05, 1.599999999998891e-03, 3.729696648781622e-05, -4.925932481184566e-06, -4.593612922722969e+00, -6.795876442896170e+03, 1.185167160073800e+02, 6.795418112565617e+03
974, 1.499999999998322e-04, 1.599999999998182e-03, 3.736771534431327e-05, -7.149018905670755e-06, -8.938037593672902e+00, -1.021344614397045e+04, -1.356069004426443e+02, 1.020811160885793e+04
975, 1.999999999999214e-04, 1.599999999997473e-03, 3.748720980395154e-05, -9.380246975134681e-06, -1.358995191555016e+01, -1.362943436383173e+04, -4.311611280823536e+02, 1.364312349584896e+04
976, -2.000000000000531e-04, 1.500000000002802e-03, 3.351326139126327e-05, 7.964296807955767e-06, 2.542051581416331e+01, 1.404295456648104e+04, 7.721111640402896e+02, 1.410233609938963e+04
977, -1.500000000001320e-04, 1.500000000002160e-03, 3.329394727507070e-05, 5.868132421059251e-06, 1.710788910935889e+01, 1.054553880186398e+04, 7.670558226562766e+02, 1.063961258810352e+04
978, -1.000000000002316e-04, 1.500000000001518e-03, 3.312408514200101e-05, 3.775837517813248e-06, 1.027264688765831e+01, 7.046474803759420e+03, 7.218110053333860e+02, 7.182770029873461e+03
979, -5.000000000032311e-05, 1.500000000000877e-03, 3.300378171376808e-05, 1.685429951384678e-06, 4.693018552320382e+00, 3.546220903090225e+03, 6.360864257687333e+02, 3.763089624384263e+03
980, -4.487512791917503e-16, 1.500000000000236e-03, 3.293313350973413e-05, -4.050805026489080e-07, 1.408355577084421e-01, 4.524561992133511e+01, 5.095896030697408e+02, 1.020176796344434e+03
981, 4.999999999961016e-05, 1.499999999999595e-03, 3.291222671506754e-05, -2.497692212614340e-06, -3.618585675652412e+00, -3.455972358000740e+03, 3.420259591517559e+02, 3.519470641477491e+03
982, 9.999999999969963e-05, 1.499999999998952e-03, 3.294113704936535e-05, -4.594411756465556e-06, -6.826601502710673e+00, -6.956944289735226e+03, 1.330988673866286e+02, 6.955213664171711e+03
983, 1.499999999998278e-04, 1.499999999998311e-03, 3.301992963643800e-05, -6.697253988989770e-06, -9.731417745904082e+00, -1.045717147107195e+04, -1.174903429653371e+02, 1.045008227673839e+04
984, 1.999999999999195e-04, 1.499999999997670e-03, 3.314865887342559e-05, -8.808242111600443e-06, -1.258826263605283e+01, -1.395614518290787e+04, -4.100424224637969e+02, 1.396765258523206e+04
985, -2.000000000000549e-04, 1.400000000002461e-03, 2.937673915789110e-05, 7.553871803868744e-06, 2.179915413890194e+01, 1.437495458386448e+04, 7.528164250929462e+02, 1.443190912767329e+04
986, -1.500000000001364e-04, 1.400000000001890e-03, 2.915833752241045e-05, 5.580293465914602e-06, 1.279230410542004e+01, 1.079589687739240e+04, 7.547616374347103e+02, 1.088825076657473e+04
987, -1.000000000002392e-04, 1.400000000001320e-03, 2.899052308215985e-05, 3.610729640719157e-06, 5.619569969921940e+00, 7.214859552587666e+03, 7.160662118412588e+02, 7.350111863498205e+03
988, -5.000000000033329e-05, 1.400000000000748e-03, 2.887341421968488e-05, 1.643175452702966e-06, 6.205124915277338e-02, 3.632298220637924e+03, 6.364268096159134e+02, 3.848804480122051e+03
989, -4.615719698813914e-16, 1.400000000000178e-03, 2.880711918829981e-05, -3.243823827888111e-07, -4.105655349735798e+00, 4.867919774646032e+01, 5.155377621009427e+02, 1.032425773276016e+03
990, 4.999999999959998e-05, 1.399999999999606e-03, 2.879173597372409e-05, -2.293965624870684e-06, -7.115495053197264e+00, -3.535520582970240e+03, 3.530912603359286e+02, 3.598379665480191e+03
991, 9.999999999969204e-05, 1.399999999999035e-03, 2.882735216104609e-05, -4.267604568380995e-06, -9.206123037335374e+00, -7.119813979130523e+03, 1.487774348170763e+02, 7.116830964943396e+03
992, 1.499999999998235e-04, 1.399999999998463e-03, 2.891404480606156e-05, -6.247338108021222e-06, -1.062313596020215e+01, -1.070370405361894e+04, -9.771573729852017e+01, 1.069486666456672e+04
993, 1.999999999999176e-04, 1.399999999997893e-03, 2.905188031040538e-05, -8.235213812242535e-06, -1.161924610624169e+01, -1.428668413652339e+04, -3.867026048595619e+02, 1.429600060310719e+04
994, -2.000000000000568e-04, 1.300000000002126e-03, 2.548921705155537e-05, 7.121943438219732e-06, 1.810163191511242e+01, 1.471085019864027e+04, 7.311904445359977e+02, 1.476534518085260e+04
995, -1.500000000001407e-04, 1.300000000001629e-03, 2.527148409485896e-05, 5.273800781166387e-06, 8.345606700143890e+00, 1.104924119035876e+04, 7.407086418302935e+02, 1.113983718272312e+04
996, -1.000000000002468e-04, 1.300000000001133e-03, 2.510548566865427e-05, 3.429825739275303e-06, 7.967441449293347e-01, 7.385306178697571e+03, 7.091381168340947e+02, 7.519473855529056e+03
997, -5.000000000034346e-05, 1.300000000000637e-03, 2.499135231925571e-05, 1.587990768860517e-06, -4.760543343047857e+00, 3.719498022209480e+03, 6.361620643349337e+02, 3.935595323643795e+03
998, -4.743892724392434e-16, 1.300000000000140e-03, 2.492920453947798e-05, -2.537404360166018e-07, -8.548794645682847e+00, 5.228060777460018e+01, 5.214612157386049e+02, 1.044694890519306e+03
999, 4.999999999958981e-05, 1.299999999999644e-03, 2.491915262338491e-05, -2.097413002906547e-06, -1.079754120212988e+01, -3.615871423714721e+03, 3.647142175598544e+02, 3.678127722134674e+03
1000, 9.999999999968445e-05, 1.299999999999148e-03, 2.496129652632554e-05, -3.945080924150249e-06, -1.174296832347864e+01, -7.284472905981504e+03, 1.655977500744284e+02, 7.280267248214599e+03
1001, 1.499999999998191e-04, 1.299999999998652e-03, 2.505572574230291e-05, -5.798807103808454e-06, -1.162765397317594e+01, -1.095302846802509e+04, -7.621359225250762e+01, 1.094246251171609e+04
1002, 1.999999999999157e-04, 1.299999999998155e-03, 2.520251918640204e-05, -7.660663427896898e-06, -1.070091835598248e+01, -1.462103308837466e+04, -3.610477207455283e+02, 1.462816557005372e+04
1003, -2.000000000000587e-04, 1.200000000001781e-03, 2.185656821321386e-05, 6.668783805852931e-06, 1.434474434037725e+01, 1.505062393640347e+04, 7.071357027733388e+02, 1.510264399203717e+04
1004, -1.500000000001450e-04, 1.200000000001350e-03, 2.163923973131394e-05, 4.948958582187469e-06, 3.775581159551848e+00, 1.130555550038999e+04, 7.248222776236244e+02, 1.139437135954758e+04
1005, -1.000000000002543e-04, 1.200000000000919e-03, 2.147480517869554e-05, 3.233462478647129e-06, -4.195361826923772e+00, 7.557801936646333e+03, 7.009749951357376e+02, 7.690856058810295e+03
1006, -5.000000000035367e-05, 1.200000000000488e-03, 2.136340775637962e-05, 1.520245345383020e-06, -9.778189708951913e+00, 3.807815829346336e+03, 6.352637331271960e+02, 4.023464196042200e+03
1007, -4.872353741173022e-16, 1.200000000000057e-03, 2.130518069764004e-05, -1.927521022090917e-07, -1.319343225845228e+01, 5.605653119166516e+01, 5.273558360100242e+02, 1.056982624518099e+03
1008, 4.999999999957962e-05, 1.199999999999626e-03, 2.130024711797616e-05, -1.907598330579213e-06, -1.467074678157678e+01, -3.697008345522123e+03, 3.769160809347088e+02, 3.758706309272782e+03
1009, 9.999999999967686e-05, 1.199999999999196e-03, 2.134871988494715e-05, -3.626371011018152e-06, -1.444635444213191e+01, -7.450899823389334e+03, 1.836069394005814e+02, 7.445514503954785e+03
1010, 1.499999999998148e-04, 1.199999999998765e-03, 2.145070147344697e-05, -5.351157040913769e-06, -1.276049003176399e+01, -1.120512473195153e+04, -5.291131225382713e+01, 1.119286450162164e+04
1011, 1.999999999999137e-04, 1.199999999998334e-03, 2.160628384730907e-05, -7.084052591512887e-06, -9.856132149899850e+00, -1.495917502770224e+04, -3.329804185002737e+02, 1.496414512350561e+04
1012, -2.000000000000607e-04, 1.100000000001707e-03, 1.848473571912499e-05, 6.194707115299094e-06, 1.055187731977935e+01, 1.539425942543576e+04, 6.805547372828731e+02, 1.544380383609275e+04
1013, -1.500000000001494e-04, 1.100000000001301e-03, 1.826752636680804e-05, 4.606113210429205e-06, -9.130825546510550e-01, 1.156480761176887e+04, 7.070270271956957e+02, 1.165184294641170e+04
1014, -1.000000000002619e-04, 1.100000000000895e-03, 1.810438241210038e-05, 3.022018575963161e-06, -9.363969199112034e+00, 7.732312334586310e+03, 6.915204573450644e+02, 7.864245301635728e+03
1015, -5.000000000036384e-05, 1.100000000000489e-03, 1.799546009286590e-05, 1.440350445760928e-06, -1.500154557256496e+01, 3.897233870606881e+03, 6.336954989984865e+02, 4.112403906891020e+03
1016, -5.000628410705213e-16, 1.100000000000083e-03, 1.794090574600871e-05, -1.409733287886631e-07, -1.804650975655409e+01, 6.001930534813221e+01, 5.332096563274754e+02, 1.069272847261828e+03
1017, 4.999999999956943e-05, 1.099999999999677e-03, 1.794085581991928e-05, -1.724044368924859e-06, -1.873765908591395e+01, -3.778891865942860e+03, 3.897146018084143e+02, 3.840087179061792e+03
1018, 9.999999999966927e-05, 1.099999999999272e-03, 1.799543673429956e-05, -3.310963879315492e-06, -1.732079872488794e+01, -7.619046770478659e+03, 2.028549371736549e+02, 7.612544794730518e+03
1019, 1.499999999998105e-04, 1.099999999998866e-03, 1.810476469314452e-05, -4.903842740368168e-06, -1.403682539544957e+01, -1.145995855188951e+04, -2.772875249634455e+01, 1.144605607639106e+04
1020, 1.999999999999118e-04, 1.099999999998460e-03, 1.826894536813849e-05, -6.504801543426474e-06, -9.118630511215088e+00, -1.530110246387936e+04, -3.023959593375118e+02, 1.530393880100437e+04
1021, -2.000000000000626e-04, 1.000000000002109e-03, 1.537973239622016e-05, 5.700071446717777e-06, 6.758923058789151e+00, 1.574174821094144e+04, 6.513563121102628e+02, 1.578882351763694e+04
1022, -1.500000000001537e-04, 1.000000000001674e-03, 1.516233508157659e-05, 4.245655462473288e-06, -5.715486106940944e+00, 1.182693417671595e+04, 6.872497079248761e+02, 1.191221418071695e+04
1023, -1.000000000002696e-04, 1.000000000001239e-03, 1.500018701739473e-05, 2.795917303018608e-06, -1.472502386497172e+01, 7.908755265708234e+03, 6.807083307613965e+02, 8.039589244826315e+03
1024, -5.000000000037402e-05, 1.000000000000804e-03, 1.489345732134206e-05, 1.348761279412944e-06, -2.044982040373884e+01, 3.987706216297338e+03, 6.313994075788798e+02, 4.202377382162046e+03
1025, -5.128852258260569e-16, 1.000000000000369e-03, 1.484230538881144e-05, -9.791720017985322e-08, -2.312049978172331e+01, 6.419214680021093e+01, 5.389872777963744e+02, 1.081504803853652e+03
1026, 4.999999999955924e-05, 9.999999999999337e-04, 1.484688131543397e-05, -1.546231957033623e-06, -2.300231629632776e+01, -3.861435812060195e+03, 4.031140384140385e+02, 3.922190129668362e+03
1027, 9.999999999966167e-05, 9.999999999994987e-04, 1.490732612749129e-05, -2.998306888084067e-06, -2.036954502525555e+01, -7.788808774293494e+03, 2.233957667235248e+02, 7.781276934616430e+03
1028, 1.499999999998061e-04, 9.999999999990637e-04, 1.502377106688000e-05, -4.456276737313171e-06, -1.547787133942961e+01, -1.171746882206313e+04, -5.681627669729892e-01, 1.170199100589533e+04
1029, 1.999999999999099e-04, 9.999999999986283e-04, 1.519633674744559e-05, -5.922287236736492e-06, -8.542152538299661e+00, -1.564683548432331e+04, -2.691718252308906e+02, 1.564755674912042e+04
1030, -2.000000000000644e-04, 9.000000000025380e-04, 1.254764116481990e-05, 5.185280366949290e-06, 3.015856362161230e+00, 1.609310349132405e+04, 6.194632559848458e+02, 1.613771542080275e+04
1031, -1.500000000001581e-04, 9.000000000020734e-04, 1.232972661998964e-05, 3.868023717195335e-06, -1.060551753615209e+01, 1.209184816778436e+04, 6.654234696373642e+02, 1.217540712999385e+04
1032, -1.000000000002772e-04, 9.000000000016087e-04, 1.216825834356283e-05, 2.555630184187219e-06, -2.025185979753724e+01, 8.087034705505564e+03, 6.684548091385475e+02, 8.216776909432676e+03
1033, -5.000000000038420e-05, 9.000000000011442e-04, 1.206341717386426e-05, 1.245979838328668e-06, -2.611622696247127e+01, 4.079185947801264e+03, 6.282800629047895e+02, 4.293302842322498e+03
1034, -5.256991402521199e-16, 9.000000000006796e-04, 1.201537415838093e-05, -6.305281862896037e-08, -2.843744644187927e+01, 6.861509632472576e+01, 5.446101506954511e+02, 1.093535578305321e+03
1035, 4.999999999954906e-05, 9.000000000002148e-04, 1.202429333858009e-05, -1.373600473284440e-06, -2.751235115050258e+01, -3.944524661894446e+03, 4.170930854080926e+02, 4.004853556636069e+03
1036, 9.999999999965402e-05, 8.999999999997502e-04, 1.209033184939605e-05, -2.687806614092452e-06, -2.365302463262674e+01, -7.960053917149462e+03, 2.452866317105059e+02, 7.951548355730823e+03
1037, 1.499999999998018e-04, 8.999999999992857e-04, 1.221363896343736e-05, -4.007829024744538e-06, -1.713631297708866e+01, -1.197758013670222e+04, 2.869830537192547e+01, 1.196058154235861e+04
1038, 1.999999999999080e-04, 8.999999999988212e-04, 1.239435256977837e-05, -5.335840924204903e-06, -8.204721267487685e+00, -1.599645279780908e+04, -2.331536911235339e+02, 1.599504670614544e+04
1039, -2.000000000000664e-04, 8.000000000027327e-04, 9.994619241139060e-06, 4.650783749933806e-06, -7.442011124428518e-01, 1.644826346557905e+04, 5.847830041201936e+02, 1.649053479625530e+04
1040, -1.500000000001624e-04, 8.000000000022627e-04, 9.775834473879530e-06, 3.473706923990732e-06, -1.540943002045151e+01, 1.235968388061215e+04, 6.414550849957986e+02, 1.244141442727199e+04
1041, -1.000000000002848e-04, 8.000000000017928e-04, 9.614707169189878e-06, 2.301680154329065e-06, -2.564056172012170e+01, 8.267452531523020e+03, 6.546632864297643e+02, 8.395816168044248e+03
1042, -5.000000000039436e-05, 8.000000000013229e-04, 9.511426579835619e-06, 1.132557271573033e-06, -3.175938204529689e+01, 4.171966715754666e+03, 6.242471465797761e+02, 4.385208216878243e+03
1043, -5.385198309417610e-16, 8.000000000008525e-04, 9.466174468206489e-06, -3.580437350527458e-08, -3.402260480220411e+01, 7.334784084094440e+01, 5.500226204205098e+02, 1.105272791891027e+03
1044, 4.999999999953886e-05, 8.000000000003829e-04, 9.479128065602587e-06, -1.205548160120816e-06, -3.256300090808395e+01, -4.028354839190583e+03, 4.316430239927989e+02, 4.087984248444657e+03
1045, 9.999999999964645e-05, 7.999999999999128e-04, 9.550463884678546e-06, -2.378829468783174e-06, -2.752829170778432e+01, -8.133041750021404e+03, 2.685882396308947e+02, 8.123294097395176e+03
1046, 1.499999999997974e-04, 7.999999999994429e-04, 9.680352283805943e-06, -3.557826631792894e-06, -1.923081086436105e+01, -1.224045812573907e+04, 6.019626662144680e+01, 1.222182029993488e+04
1047, 1.999999999999061e-04, 7.999999999989728e-04, 9.868953200574340e-06, -4.744744463922477e-06, -8.074523790844751e+00, -1.635000927341717e+04, -1.941789732593074e+02, 1.634654866495275e+04
1048, -2.000000000000683e-04, 7.000000000024487e-04, 7.726916475779083e-06, 4.097078606266438e-06, -5.137349500957725e+00, 1.680669384083860e+04, 5.469637634120182e+02, 1.684738393360873e+04
1049, -1.500000000001667e-04, 7.000000000020254e-04, 7.506878683442526e-06, 3.063237914048362e-06, -1.966829828069308e+01, 1.263165188052607e+04, 6.150170992874737e+02, 1.271097503720101e+04
1050, -1.000000000002923e-04, 7.000000000016023e-04, 7.345714745612527e-06, 2.034630051100706e-06, -2.953620458549562e+01, 8.452607993867066e+03, 6.392716800961273e+02, 8.577962655971063e+03
1051, -5.000000000040459e-05, 7.000000000011791e-04, 7.243628272403553e-06, 1.009084914027335e-06, -3.623216305509800e+01, 4.268182102120934e+03, 6.196145590820603e+02, 4.479248929626120e+03
1052, -5.513337453678241e-16, 7.000000000007558e-04, 7.200815715683251e-06, -1.554979499712764e-08, -3.986119961272311e+01, 7.845812679868504e+01, 5.557043120871569e+02, 1.117688951762292e+03
1053, 4.999999999952868e-05, 7.000000000003326e-04, 7.217475764746862e-06, -1.041420436270593e-06, -3.930273409759184e+01, -4.114965446745865e+03, 4.471341299837487e+02, 4.172618155074433e+03
1054, 9.999999999963887e-05, 6.999999999999092e-04, 7.293799323954586e-06, -2.070687126981457e-06, -3.341952543191815e+01, -8.310371545897660e+03, 2.933642143388836e+02, 8.297721675141351e+03
1055, 1.499999999997930e-04, 6.999999999994860e-04, 7.429976618883264e-06, -3.105543309637805e-06, -2.230237784992187e+01, -1.250739302920326e+04, 9.380453642232698e+01, 1.248650013961975e+04
1056, 1.999999999999042e-04, 6.999999999990628e-04, 7.626185629836187e-06, -4.148226135830357e-06, -7.570604170097795e+00, -1.670713037773698e+04, -1.523269595104594e+02, 1.670233847822837e+04
1057, -2.000000000000702e-04, 6.000000000020976e-04, 5.750930393059678e-06, 3.524713549217011e-06, -1.318624730046668e+01, 1.716526103672662e+04, 5.044388199436602e+02, 1.720804710542025e+04
1058, -1.500000000001711e-04, 6.000000000017323e-04, 5.529198398714847e-06, 2.637145453825458e-06, -2.201675232234425e+01, 1.291316983199901e+04, 5.846613399103587e+02, 1.298793160979647e+04
1059, -1.000000000003000e-04, 6.000000000013669e-04, 5.367520815547789e-06, 1.754997825034131e-06, -2.819686915538273e+01, 8.652747270786076e+03, 6.225147539802974e+02, 8.769771355997635e+03
1060, -5.000000000041474e-05, 6.000000000010013e-04, 5.266147355594593e-06, 8.761300088496661e-07, -3.636820038353176e+01, 4.375848234652807e+03, 6.165564035287537e+02, 4.581290327466054e+03
1061, -5.641662945187267e-16, 6.000000000006360e-04, 5.225365280391106e-06, -1.617598832778671e-09, -4.576917336240058e+01, 8.397174185660901e+01, 5.647530304052133e+02, 1.136933000000155e+03
1062, 4.999999999951849e-05, 6.000000000002706e-04, 5.245411797417954e-06, -8.804391163404493e-07, -5.066404380070708e+01, -4.212400205138983e+03, 4.656875417064134e+02, 4.264681397548110e+03
1063, 9.999999999963128e-05, 5.999999999999052e-04, 5.326478280020705e-06, -1.762545783639607e-06, -4.506870820017343e+01, -8.502438735268053e+03, 3.198066441720193e+02, 8.481521852437358e+03
1064, 1.499999999997888e-04, 5.999999999995398e-04, 5.468701242506000e-06, -2.650146097909303e-06, -2.788291867630323e+01, -1.278401518882428e+04, 1.281399678632307e+02, 1.275870643517463e+04
1065, 1.999999999999023e-04, 5.999999999991742e-04, 5.672247830110765e-06, -3.545459576016503e-06, -3.709383061894414e+00, -1.706483899442384e+04, -1.089261612207603e+02, 1.706252042489868e+04
1066, -2.000000000000721e-04, 5.000000000017480e-04, 4.073295638511695e-06, 2.934335372807067e-06, -2.994114420081314e+01, 1.751779981178882e+04, 4.518629787148058e+02, 1.757099693428486e+04
1067, -1.500000000001754e-04, 5.000000000014432e-04, 3.849315511561783e-06, 2.195768050959788e-06, -2.014241553863576e+01, 1.322025471217132e+04, 5.460986934111000e+02, 1.328536831372210e+04
1068, -1.000000000003076e-04, 5.000000000011384e-04, 3.686330925175706e-06, 1.462949598661763e-06, -1.807912898147083e+01, 8.891868612644766e+03, 6.056502155096625e+02, 8.991908445524681e+03
1069, -5.000000000042491e-05, 5.000000000008338e-04, 3.584891506694318e-06, 7.340062731358159e-07, -2.934053321421698e+01, 4.512440960633745e+03, 6.230538925427277e+02, 4.709624586940068e+03
1070, -5.769852911424733e-16, 5.000000000005289e-04, 3.545572181647716e-06, 6.720811950705190e-09, -5.133456080841142e+01, 8.957997110937254e+01, 5.876757545748610e+02, 1.183768590293786e+03
1071, 4.999999999950832e-05, 5.000000000002242e-04, 3.568808103008982e-06, -7.214580915203995e-07, -6.861455974627961e+01, -4.338533992869960e+03, 4.950234925384470e+02, 4.383195751734926e+03
1072, 9.999999999962365e-05, 4.999999999999196e-04, 3.654631021488241e-06, -1.453104191419485e-06, -6.556614503907849e+01, -8.733572299266134e+03, 3.487702631103396e+02, 8.696027453696219e+03
1073, 1.499999999997844e-04, 4.999999999996149e-04, 3.802927091790025e-06, -2.190497364777634e-06, -3.836690503893806e+01, -1.308675003114259e+04, 1.585695435050789e+02, 1.305223656719783e+04
1074, 1.999999999999003e-04, 4.999999999993100e-04, 4.013601338306190e-06, -2.935601374313021e-06, 8.444357037079953e+00, -1.741714544126664e+04, -6.932285817322810e+01, 1.742614135296187e+04
1075, -2.000000000000740e-04, 4.000000000013997e-04, 2.700857811206186e-06, 2.326754135605259e-06, -6.320539937496983e+01, 1.785262425691310e+04, 3.761421462894826e+02, 1.793161687996908e+04
1076, -1.500000000001797e-04, 4.000000000011572e-04, 2.473703961787358e-06, 1.738771238712270e-06, -4.675057921316011e+00, 1.359558771427190e+04, 4.909325074318338e+02, 1.363565936726633e+04
1077, -1.000000000003152e-04, 4.000000000009148e-04, 2.308042175404246e-06, 1.157643920038870e-06, -8.719369922769374e+00, 9.199101414596787e+03, 5.955630759507917e+02, 9.284543344159381e+03
1078, -5.000000000043512e-05, 4.000000000006724e-04, 2.205114794776965e-06, 5.823206159268115e-07, -5.334080041700122e+01, 4.658129934191513e+03, 6.562064557285792e+02, 4.890846975037346e+03
1079, -5.898025937003254e-16, 4.000000000004300e-04, 2.166517096766360e-06, 1.026792666568789e-08, -5.627023467727713e+01, 9.384366333526214e+01, 6.457174092780641e+02, 1.300130021557698e+03
1080, 4.999999999949812e-05, 4.000000000001875e-04, 2.192918499071452e-06, -5.624783068462934e-07, -5.390945068353039e+01, -4.475517680903861e+03, 5.519562922150529e+02, 4.557328420864062e+03
1081, 9.999999999961606e-05, 3.999999999999452e-04, 2.284138886603481e-06, -1.139909539028885e-06, -8.316378446344834e+01, -9.032888713876166e+03, 3.863751201882212e+02, 8.983023947766884e+03
1082, 1.499999999997800e-04, 3.999999999997027e-04, 2.439080797144385e-06, -1.724639820051427e-06, -6.206709007213908e+01, -1.345839477531151e+04, 1.756258692187176e+02, 1.340093180469426e+04
1083, 1.999999999998984e-04, 3.999999999994603e-04, 2.656994336036679e-06, -2.317834356936675e-06, 3.643148956882465e+01, -1.775285517029060e+04, -4.739670023268980e+01, 1.778953921987370e+04
1084, -2.000000000000760e-04, 3.000000000010516e-04, 1.639201028372688e-06, 1.703140495209613e-06, -2.349489201918163e+01, 1.826296380255128e+04, 2.644231436332690e+02, 1.829410424108782e+04
1085, -1.500000000001842e-04, 3.000000000008717e-04, 1.407738884932285e-06, 1.264193773840495e-06, -5.591611993199876e+00, 1.404170534261952e+04, 4.337286572301707e+02, 1.407405534746409e+04
1086, -1.000000000003227e-04, 3.000000000006917e-04, 1.237030387104177e-06, 8.367891043123799e-07, -2.176230435157511e+02, 9.324080503555910e+03, 6.142405798649140e+02, 9.620461139675739e+03
1087, -5.000000000044532e-05, 3.000000000005118e-04, 1.131696881958334e-06, 4.206764866441688e-07, -1.743238595263085e+02, 4.703103771653753e+03, 7.268426008723094e+02, 5.089449966663396e+03
1088, -6.026207432911247e-16, 3.000000000003319e-04, 1.093373206199757e-06, 9.939803801276575e-09, -6.113835789162340e+01, 9.347682871530628e+01, 7.367133988965185e+02, 1.481516920046524e+03
1089, 4.999999999948792e-05, 3.000000000001520e-04, 1.122674866614897e-06, -4.012816317670954e-07, 5.854031194683307e+01, -4.520333525456535e+03, 6.473589438765985e+02, 4.758400994843241e+03
1090, 9.999999999960845e-05, 2.999999999999720e-04, 1.219479048373768e-06, -8.188677886480871e-07, 1.211733387258719e+02, -9.153846771990158e+03, 4.543006899000558e+02, 9.319418142865006e+03
1091, 1.499999999997756e-04, 2.999999999997920e-04, 1.382639882898328e-06, -1.248805324105440e-06, -6.184862493743117e+01, -1.389778882564070e+04, 1.919710913667236e+02, 1.384126630179186e+04
1092, 1.999999999998966e-04, 2.999999999996122e-04, 1.608065041206180e-06, -1.691499665014470e-06, -7.707660457032262e+00, -1.816493227077473e+04, -5.910017395012733e+01, 1.815760933800952e+04
1093, -2.000000000000778e-04, 2.000000000007014e-04, 8.855181129249185e-07, 1.063087505841136e-06, 2.223230595700243e+02, 1.882732366156579e+04, 2.077873248895534e+02, 1.860964131007908e+04
1094, -1.500000000001885e-04, 2.000000000005817e-04, 6.473396328390207e-07, 7.699521617607941e-07, -9.314196874464328e+02, 1.322826450813506e+04, 4.724295591926311e+02, 1.419117385110182e+04
1095, -1.000000000003304e-04, 2.000000000004620e-04, 4.766540172646224e-07, 5.046634906684540e-07, -6.809437608685205e+02, 8.766534008197830e+03, 6.566630907006388e+02, 9.538325946189771e+03
1096, -5.000000000045550e-05, 2.000000000003424e-04, 3.734622174661435e-07, 2.526592677119459e-07, -3.684603298412321e+02, 4.412069477557514e+03, 7.002475576476905e+02, 4.981450773358511e+03
1097, -6.154388928819240e-16, 2.000000000002227e-04, 3.369942299453590e-07, 6.866103621790669e-09, -6.713220372514161e+01, 8.171517254452897e+01, 6.926074726322477e+02, 1.393189142222435e+03
1098, 4.999999999947777e-05, 2.000000000001030e-04, 3.670549717293605e-07, -2.392133747277655e-07, 2.416569231264784e+02, -4.251816841200206e+03, 6.457076690350477e+02, 4.675367370174768e+03
1099, 9.999999999960084e-05, 1.999999999999833e-04, 4.642873228178409e-07, -4.920943983876315e-07, 5.769932973967029e+02, -8.615341233684045e+03, 5.463528697628426e+02, 9.257052444730551e+03
1100, 1.499999999997714e-04, 1.999999999998636e-04, 6.299262778569646e-07, -7.588758733644167e-07, 8.679563277533498e+02, -1.308767972273731e+04, 3.037827557064591e+02, 1.396885512217851e+04
1101, 1.999999999998946e-04, 1.999999999997439e-04, 8.644114697696141e-07, -1.054142348072572e-06, -2.439565280312721e+02, -1.872036491280792e+04, -2.161336413564061e+01, 1.847645895054249e+04
1102, -2.000000000000798e-04, 1.000000000003506e-04, 3.895055154336966e-07, 4.100522582550069e-07, -5.889738733069535e+03, 1.048945539116296e+04, 1.053171416470453e+03, 1.651407521749776e+04
1103, -1.500000000001928e-04, 1.000000000002906e-04, 1.821669264332825e-07, 2.949324523032559e-07, -2.734515289056884e+03, 8.851220114150665e+03, 8.514993824010288e+02, 1.171022927299266e+04
1104, -1.000000000003380e-04, 1.000000000002307e-04, 4.344609282900737e-08, 1.917861817292215e-07, -1.124175402400711e+03, 6.352023311228622e+03, 3.191781382348332e+02, 7.503402291053114e+03
1105, -5.000000000046567e-05, 1.000000000001708e-04, -3.724198590691185e-08, 9.582570409415102e-08, -4.142400448510572e+02, 3.303831210993444e+03, -1.554370978513714e+01, 3.718201217146894e+03
1106, -6.282434899455673e-16, 1.000000000001108e-04, -6.492870334965766e-08, 2.655161387055455e-09, -6.398656313835659e+01, 4.768798881211399e+01, -1.424564436870924e+02, 3.060172526921206e+02
1107, 4.999999999946757e-05, 1.000000000000509e-04, -4.111749135542306e-08, -9.064508509460922e-08, 2.891429597394979e+02, -3.213281344253227e+03, -5.197310955108662e+01, 3.503966441286867e+03
1108, 9.999999999959325e-05, 9.999999999999091e-05, 3.597315282411365e-08, -1.870121813115113e-07, 1.010525607123021e+03, -6.274277300230469e+03, 2.450469399597968e+02, 7.301270123075882e+03
1109, 1.499999999997670e-04, 9.999999999993101e-05, 1.716961323736158e-07, -2.909033715785473e-07, 2.653046790462302e+03, -8.785982630040415e+03, 7.375013911295123e+02, 1.153373431681165e+04
1110, 1.999999999998927e-04, 9.999999999987105e-05, 3.770870693754294e-07, -4.070754162377418e-07, 5.873731887134809e+03, -1.041592691284975e+04, 8.910806382822237e+02, 1.638685700906676e+04
