"PointID","x","y","Displacement_x","Displacement_y","Sxx","Syy","Sxy","Von_Mises_Stress"
0, -2.500000000000000e-04, 0.000000000000000e+00, 0.000000000000000e+00, 0.000000000000000e+00, 7.182178438593645e+04, 8.775927616833504e+04, 9.116997237008338e+03, 2.421739455004386e+04
1, 2.500000000000000e-04, 0.000000000000000e+00, 0.000000000000000e+00, 0.000000000000000e+00, -7.333727327395118e+04, -8.965091692600964e+04, 8.877078861902644e+03, 2.411109880714902e+04
2, 2.500000000000000e-04, 1.000000000000000e-02, 1.366289707704556e-03, -1.531570373902417e-04, 3.222015100790989e+01, 2.976934333855923e+01, 3.407887261653387e+00, 7.243013225495698e+00
3, -2.500000000000000e-04, 1.000000000000000e-02, 1.374675519126937e-03, -6.199327455892564e-05, 2.625517604659630e+01, 6.741997937664038e+01, 5.983859699920270e+00, 4.286918871211034e+01
4, -2.000000000000817e-04, 0.000000000000000e+00, 0.000000000000000e+00, 0.000000000000000e+00, 4.862976985412549e+04, 5.942551918469323e+04, 5.215534101435909e+03, 1.501184157461759e+04
5, -1.500000000001972e-04, 0.000000000000000e+00, 0.000000000000000e+00, 0.000000000000000e+00, 3.507157781933693e+04, 4.287370969122315e+04, 2.464326476722360e+03, 9.228482089802299e+03
6, -1.000000000003456e-04, 0.000000000000000e+00, 0.000000000000000e+00, 0.000000000000000e+00, 2.290073346603258e+04, 2.799584580996912e+04, 6.176608806318154e+02, 5.242727310397327e+03
7, -5.000000000047588e-05, 0.000000000000000e+00, 0.000000000000000e+00, 0.000000000000000e+00, 1.153528843144261e+04, 1.409836186706855e+04, -4.629139473335716e+02, 2.725161046058595e+03
8, -6.410887445906788e-16, 0.000000000000000e+00, 0.000000000000000e+00, 0.000000000000000e+00, 4.516728747666313e+02, 5.486435967476921e+02, -8.426865992100035e+02, 1.688160578521490e+03
9, 4.999999999945738e-05, 0.000000000000000e+00, 0.000000000000000e+00, 0.000000000000000e+00, -1.070023916970171e+04, -1.307877970527101e+04, -5.402476128940457e+02, 2.612455743605459e+03
10, 9.999999999958566e-05, 0.000000000000000e+00, 0.000000000000000e+00, 0.000000000000000e+00, -2.227414454779158e+04, -2.721807576858492e+04, 4.694994426337777e+02, 5.032313068805314e+03
11, 1.499999999997626e-04, 0.000000000000000e+00, 0.000000000000000e+00, 0.000000000000000e+00, -3.480941865382793e+04, -4.253535349227684e+04, 2.259388682877758e+03, 8.950386472617984e+03
12, 1.999999999998909e-04, 0.000000000000000e+00, 0.000000000000000e+00, 0.000000000000000e+00, -4.887168340661046e+04, -5.973981697189820e+04, 4.978565955968988e+03, 1.473976943865363e+04
13, 2.500000000000000e-04, 9.999999999981111e-05, 1.119310479208262e-06, -1.016050348872489e-06, 3.890924658751038e+03, -2.995232058184191e+04, 2.152169845567098e+03, 3.411587004007945e+04
14, 2.500000000000000e-04, 1.999999999996242e-04, 1.920356846940650e-06, -2.291147955934523e-06, -7.907026797930885e+03, -4.354203946798123e+04, -5.203793701717585e+02, 3.565020766770160e+04
15, 2.500000000000000e-04, 2.999999999994322e-04, 3.157515782676028e-06, -3.582968862436431e-06, -8.420119506737690e+03, -4.419876425935190e+04, -4.882341286805975e+02, 3.579196712380310e+04
16, 2.500000000000000e-04, 3.999999999992179e-04, 4.893350646188126e-06, -4.886006921094268e-06, -9.176313692208470e+03, -4.459270623063971e+04, -6.019791721358445e+02, 3.543685053910674e+04
17, 2.500000000000000e-04, 4.999999999990053e-04, 7.137918214318372e-06, -6.180485950690922e-06, -9.198231587314232e+03, -4.396384527326506e+04, -7.374492374303235e+02, 3.479688521221285e+04
18, 2.500000000000000e-04, 5.999999999988090e-04, 9.882725460961225e-06, -7.462751069388922e-06, -9.065583451676870e+03, -4.309266795144633e+04, -8.847223749400550e+02, 3.407305994884126e+04
19, 2.500000000000000e-04, 6.999999999986395e-04, 1.311707335834995e-05, -8.733348093265735e-06, -8.880354551082912e+03, -4.215269854106229e+04, -1.026138342602469e+03, 3.333557730383790e+04
20, 2.500000000000000e-04, 7.999999999985029e-04, 1.683020047867094e-05, -9.994314509156663e-06, -8.689950752031165e+03, -4.121203266320255e+04, -1.158212929876297e+03, 3.260447270852071e+04
21, 2.500000000000000e-04, 8.999999999983563e-04, 2.101167286407576e-05, -1.124784962701587e-05, -8.502591181525415e+03, -4.028253492775321e+04, -1.280183512530216e+03, 3.188291554761609e+04
22, 2.500000000000000e-04, 9.999999999981935e-04, 2.565127998527009e-05, -1.249603128145513e-05, -8.319349708376267e+03, -3.936516688620768e+04, -1.392377456878501e+03, 3.117046076286050e+04
23, 2.500000000000000e-04, 1.099999999998054e-03, 3.073895725539602e-05, -1.374077147194765e-05, -8.139498554968948e+03, -3.845886994640755e+04, -1.495224682222532e+03, 3.046649091991552e+04
24, 2.500000000000000e-04, 1.199999999997903e-03, 3.626475122381021e-05, -1.498383367297323e-05, -7.962509951129467e+03, -3.756308991336531e+04, -1.589133733414558e+03, 2.977071914132109e+04
25, 2.500000000000000e-04, 1.299999999997659e-03, 4.221881086161975e-05, -1.622684890091515e-05, -7.788096240803724e+03, -3.667769506077688e+04, -1.674477763724652e+03, 2.908306075886490e+04
26, 2.500000000000000e-04, 1.399999999997322e-03, 4.859138738079405e-05, -1.747132570442726e-05, -7.616101490930278e+03, -3.580274043226184e+04, -1.751611127608820e+03, 2.840350649089723e+04
27, 2.500000000000000e-04, 1.499999999997028e-03, 5.537283588346182e-05, -1.871865646582907e-05, -7.446416227972465e+03, -3.493832573556330e+04, -1.820877113272003e+03, 2.773206559598679e+04
28, 2.500000000000000e-04, 1.599999999996764e-03, 6.255361693582840e-05, -1.997012236031716e-05, -7.278948079554224e+03, -3.408454936856602e+04, -1.882610856808171e+03, 2.706874867846976e+04
29, 2.500000000000000e-04, 1.699999999996466e-03, 7.012429782712190e-05, -2.122689792222336e-05, -7.113614581283263e+03, -3.324149853512563e+04, -1.937140122585692e+03, 2.641356407839690e+04
30, 2.500000000000000e-04, 1.799999999996210e-03, 7.807555365710177e-05, -2.249005546110670e-05, -6.950338400044157e+03, -3.240924609506755e+04, -1.984785413988838e+03, 2.576651846063128e+04
31, 2.500000000000000e-04, 1.899999999995898e-03, 8.639816814569407e-05, -2.376056939766745e-05, -6.789054381799389e+03, -3.158785856794033e+04, -2.025859552451006e+03, 2.512761661534156e+04
32, 2.500000000000000e-04, 1.999999999995521e-03, 9.508303459238874e-05, -2.503932056241226e-05, -6.629699434649651e+03, -3.077738858984858e+04, -2.060668230458859e+03, 2.449686318205255e+04
33, 2.500000000000000e-04, 2.099999999995151e-03, 1.041211564766054e-04, -2.632710032565542e-05, -6.472221303235108e+03, -2.997788347168764e+04, -2.089509369928786e+03, 2.387426127873911e+04
34, 2.500000000000000e-04, 2.199999999994897e-03, 1.135036482122694e-04, -2.762461471114046e-05, -6.316572650614563e+03, -2.918938155372743e+04, -2.112673400171981e+03, 2.325981390083542e+04
35, 2.500000000000000e-04, 2.299999999994653e-03, 1.232217357380920e-04, -2.893248836609975e-05, -6.162710733925513e+03, -2.841191222843634e+04, -2.130443509761378e+03, 2.265352346405478e+04
36, 2.500000000000000e-04, 2.399999999994409e-03, 1.332667569496826e-04, -3.025126842757870e-05, -6.010604547270077e+03, -2.764550327395063e+04, -2.143095025623615e+03, 2.205539090719397e+04
37, 2.500000000000000e-04, 2.499999999994080e-03, 1.436301623729003e-04, -3.158142834684031e-05, -5.860225345414710e+03, -2.689017429071507e+04, -2.150895554417838e+03, 2.146541775475142e+04
38, 2.500000000000000e-04, 2.599999999993751e-03, 1.543035156191372e-04, -3.292337160485318e-05, -5.711546238810110e+03, -2.614593601041238e+04, -2.154105958633429e+03, 2.088360541817057e+04
39, 2.500000000000000e-04, 2.699999999993507e-03, 1.652784936342609e-04, -3.427743526070624e-05, -5.564548931349894e+03, -2.541279691892409e+04, -2.152979550937277e+03, 2.030995401184501e+04
40, 2.500000000000000e-04, 2.799999999993264e-03, 1.765468871086525e-04, -3.564389348603220e-05, -5.419221322412312e+03, -2.469076246968959e+04, -2.147761956243567e+03, 1.974446311941528e+04
41, 2.500000000000000e-04, 2.899999999993009e-03, 1.881006009473668e-04, -3.702296098537844e-05, -5.275549166722030e+03, -2.397982829040446e+04, -2.138691885608331e+03, 1.918713291408828e+04
42, 2.500000000000000e-04, 2.999999999992623e-03, 1.999316543132331e-04, -3.841479628830164e-05, -5.133532162494279e+03, -2.327999465950159e+04, -2.126000497533886e+03, 1.863796162720994e+04
43, 2.500000000000000e-04, 3.099999999992220e-03, 2.120321812108710e-04, -3.981950503612511e-05, -4.993160827819396e+03, -2.259124784293378e+04, -2.109912255449448e+03, 1.809694961849428e+04
44, 2.500000000000000e-04, 3.199999999991949e-03, 2.243944303918092e-04, -4.123714307845072e-05, -4.854436159345911e+03, -2.191357627239966e+04, -2.090644975417806e+03, 1.756409539514513e+04
45, 2.500000000000000e-04, 3.299999999991705e-03, 2.370107656228925e-04, -4.266771952034993e-05, -4.717361675378697e+03, -2.124696507918543e+04, -2.068409189637491e+03, 1.703939714280544e+04
46, 2.500000000000000e-04, 3.399999999991461e-03, 2.498736658875933e-04, -4.411119969345285e-05, -4.581943626265250e+03, -2.059139720900868e+04, -2.043408349793648e+03, 1.652285310574545e+04
47, 2.500000000000000e-04, 3.499999999991149e-03, 2.629757255949033e-04, -4.556750805924246e-05, -4.448184500493975e+03, -1.994684735995581e+04, -2.015839970538249e+03, 1.601446201339715e+04
48, 2.500000000000000e-04, 3.599999999990803e-03, 2.763096544374428e-04, -4.703653091698385e-05, -4.316095945061885e+03, -1.931329324286550e+04, -1.985894907139510e+03, 1.551422060942987e+04
49, 2.500000000000000e-04, 3.699999999990560e-03, 2.898682775396098e-04, -4.851811912528048e-05, -4.185698439602398e+03, -1.869071689615697e+04, -1.953756453570934e+03, 1.502212426870677e+04
50, 2.500000000000000e-04, 3.799999999990315e-03, 3.036445359596820e-04, -5.001209077648605e-05, -4.056996206823705e+03, -1.807908352857019e+04, -1.919602156788923e+03, 1.453817122681110e+04
51, 2.500000000000000e-04, 3.899999999990071e-03, 3.176314862644180e-04, -5.151823365946624e-05, -3.930003634907082e+03, -1.747836329582149e+04, -1.883603940029695e+03, 1.406235772241179e+04
52, 2.500000000000000e-04, 3.999999999989709e-03, 3.318223005993840e-04, -5.303630770844342e-05, -3.804737408152168e+03, -1.688852584191875e+04, -1.845927137279029e+03, 1.359467939173767e+04
53, 2.500000000000000e-04, 4.099999999989249e-03, 3.462102667650193e-04, -5.456604737838372e-05, -3.681213563966327e+03, -1.630953810898015e+04, -1.806731180298147e+03, 1.313513193864625e+04
54, 2.500000000000000e-04, 4.199999999988788e-03, 3.607887881165873e-04, -5.610716392513646e-05, -3.559449890804432e+03, -1.574136717679924e+04, -1.766169824160152e+03, 1.268371129259551e+04
55, 2.500000000000000e-04, 4.299999999988333e-03, 3.755513835333533e-04, -5.765934765430864e-05, -3.439467540942759e+03, -1.518398237001979e+04, -1.724390813613332e+03, 1.224041352580486e+04
56, 2.500000000000000e-04, 4.399999999988144e-03, 3.904916875613829e-04, -5.922227010333402e-05, -3.321279579727622e+03, -1.463734449674974e+04, -1.681537077779239e+03, 1.180523582915836e+04
57, 2.500000000000000e-04, 4.499999999988117e-03, 4.056034500416223e-04, -6.079558601427739e-05, -3.204912399947126e+03, -1.410142423224984e+04, -1.637745270336198e+03, 1.137817245402562e+04
58, 2.500000000000000e-04, 4.599999999988090e-03, 4.208805364406333e-04, -6.237893538882390e-05, -3.090386053248734e+03, -1.357618620405172e+04, -1.593146043125663e+03, 1.095921813185082e+04
59, 2.500000000000000e-04, 4.699999999988035e-03, 4.363169278060060e-04, -6.397194535991612e-05, -2.977713300840634e+03, -1.306158839999628e+04, -1.547865812803791e+03, 1.054836913049397e+04
60, 2.500000000000000e-04, 4.799999999987717e-03, 4.519067201842935e-04, -6.557423202446913e-05, -2.866924537976699e+03, -1.255760323027474e+04, -1.502026071327200e+03, 1.014561889650631e+04
61, 2.500000000000000e-04, 4.899999999987257e-03, 4.676441250898453e-04, -6.718540226699126e-05, -2.758032190710971e+03, -1.206418828456696e+04, -1.455742728609077e+03, 9.750963481154349e+03
62, 2.500000000000000e-04, 4.999999999986965e-03, 4.835234691418433e-04, -6.880505542217601e-05, -2.651058284145142e+03, -1.158130878645811e+04, -1.409126704008573e+03, 9.364396740092834e+03
63, 2.500000000000000e-04, 5.099999999987202e-03, 4.995391940850421e-04, -7.043278490717543e-05, -2.546022630789554e+03, -1.110892765191390e+04, -1.362284179836476e+03, 8.985912037591255e+03
64, 2.500000000000000e-04, 5.199999999987608e-03, 5.156858566152295e-04, -7.206817975199416e-05, -2.442945958185981e+03, -1.064700870945528e+04, -1.315316539972494e+03, 8.615502076377516e+03
65, 2.500000000000000e-04, 5.299999999988015e-03, 5.319581283514545e-04, -7.371082612346244e-05, -2.341844027885622e+03, -1.019551213025648e+04, -1.268320910625328e+03, 8.253160266922927e+03
66, 2.500000000000000e-04, 5.399999999988211e-03, 5.483507955614169e-04, -7.536030873330588e-05, -2.242735524179135e+03, -9.754400839949472e+03, -1.221390207123270e+03, 7.898879158992975e+03
67, 2.500000000000000e-04, 5.499999999988184e-03, 5.648587590314350e-04, -7.701621221125070e-05, -2.145641524680167e+03, -9.323640594971737e+03, -1.174612539054235e+03, 7.552650469915869e+03
68, 2.500000000000000e-04, 5.599999999988157e-03, 5.814770341161239e-04, -7.867812244208468e-05, -2.050577858452156e+03, -8.903193476641298e+03, -1.128071497317477e+03, 7.214466163403232e+03
69, 2.500000000000000e-04, 5.699999999988293e-03, 5.982007505749272e-04, -8.034562779345813e-05, -1.957560018821126e+03, -8.493020961412176e+03, -1.081846709601207e+03, 6.884316882918226e+03
70, 2.500000000000000e-04, 5.799999999988694e-03, 6.150251523529330e-04, -8.201832024337780e-05, -1.866605193792357e+03, -8.093086100048110e+03, -1.036013976963345e+03, 6.562192036036517e+03
71, 2.500000000000000e-04, 5.899999999989099e-03, 6.319455973340579e-04, -8.369579651109850e-05, -1.777728329841424e+03, -7.703352026421429e+03, -9.906459070105390e+02, 6.248082381481330e+03
72, 2.500000000000000e-04, 5.999999999989505e-03, 6.489575570893586e-04, -8.537765919739634e-05, -1.690946547748609e+03, -7.323786621981818e+03, -9.458112267420615e+02, 5.941979704476689e+03
73, 2.500000000000000e-04, 6.099999999989911e-03, 6.660566169704169e-04, -8.706351789999953e-05, -1.606271011746796e+03, -6.954354103393740e+03, -9.015746747933638e+02, 5.643876356908871e+03
74, 2.500000000000000e-04, 6.199999999990317e-03, 6.832384759640304e-04, -8.875299013175799e-05, -1.523719995348470e+03, -6.595024558343750e+03, -8.579961511340490e+02, 5.353761252810973e+03
75, 2.500000000000000e-04, 6.299999999990723e-03, 7.004989468184032e-04, -9.044570222656952e-05, -1.443291984244034e+03, -6.245750215995031e+03, -8.151340376786052e+02, 5.071624893980412e+03
76, 2.500000000000000e-04, 6.399999999990975e-03, 7.178339549812631e-04, -9.214129000116766e-05, -1.365015395267392e+03, -5.906507620159451e+03, -7.730421397185170e+02, 4.797450179822335e+03
77, 2.500000000000000e-04, 6.499999999990961e-03, 7.352395393932026e-04, -9.383939967250412e-05, -1.288895935879360e+03, -5.577255246914317e+03, -7.317690136932868e+02, 4.531221594465094e+03
78, 2.500000000000000e-04, 6.599999999990934e-03, 7.527118521524471e-04, -9.553968852734460e-05, -1.214927543288344e+03, -5.257942011071831e+03, -6.913621226507223e+02, 4.272925499613941e+03
79, 2.500000000000000e-04, 6.699999999991035e-03, 7.702471573349358e-04, -9.724182555228166e-05, -1.143137726617312e+03, -4.948544419374269e+03, -6.518664850571444e+02, 4.022541454682905e+03
80, 2.500000000000000e-04, 6.799999999991401e-03, 7.878418315806573e-04, -9.894549214611451e-05, -1.073524507987506e+03, -4.649017041040989e+03, -6.133230200278499e+02, 3.780053883412979e+03
81, 2.500000000000000e-04, 6.899999999991809e-03, 8.054923635307837e-04, -1.006503827885134e-04, -1.006100138635732e+03, -4.359329435014270e+03, -5.757688199118008e+02, 3.545445761822032e+03
82, 2.500000000000000e-04, 6.999999999992214e-03, 8.231953541059922e-04, -1.023562057281101e-04, -9.408481780683309e+02, -4.079428112701017e+03, -5.392407906710157e+02, 3.318705549965668e+03
83, 2.500000000000000e-04, 7.099999999992620e-03, 8.409475149790884e-04, -1.040626833298400e-04, -8.777893333354132e+02, -3.809289244385031e+03, -5.037740536468585e+02, 3.099813690690953e+03
84, 2.500000000000000e-04, 7.199999999993026e-03, 8.587456690984049e-04, -1.057695526224801e-04, -8.169506296631546e+02, -3.548896244854980e+03, -4.693957128982080e+02, 2.888746473042366e+03
85, 2.500000000000000e-04, 7.299999999993359e-03, 8.765867517693842e-04, -1.074765659234941e-04, -7.582882437483483e+02, -3.298174015641639e+03, -4.361337577370285e+02, 2.685492571730047e+03
86, 2.500000000000000e-04, 7.399999999993427e-03, 8.944678080330729e-04, -1.091834909112329e-04, -7.018368646716632e+02, -3.057108824823732e+03, -4.040138050343393e+02, 2.490023016944195e+03
87, 2.500000000000000e-04, 7.499999999993399e-03, 9.123859940596910e-04, -1.108901110397555e-04, -6.475858002430726e+02, -2.825645351286669e+03, -3.730566732176388e+02, 2.302309391376641e+03
88, 2.500000000000000e-04, 7.599999999993372e-03, 9.303385762853946e-04, -1.125962255549953e-04, -5.955438411587943e+02, -2.603741975939867e+03, -3.432773924912385e+02, 2.122314119380191e+03
89, 2.500000000000000e-04, 7.699999999993440e-03, 9.483229318684002e-04, -1.143016498214569e-04, -5.456760969991120e+02, -2.391321226228319e+03, -3.146911359576441e+02, 1.950007176204422e+03
90, 2.500000000000000e-04, 7.799999999993771e-03, 9.663365463018310e-04, -1.160062153569714e-04, -4.979702227962073e+02, -2.188326722809396e+03, -2.873169878466218e+02, 1.785359712539145e+03
91, 2.500000000000000e-04, 7.899999999994177e-03, 9.843770123512566e-04, -1.177097702214850e-04, -4.524660257983110e+02, -1.994746930135631e+03, -2.611695518308293e+02, 1.628333051650554e+03
92, 2.500000000000000e-04, 7.999999999994584e-03, 1.002442031907142e-03, -1.194121793791050e-04, -4.091368091600578e+02, -1.810517324456456e+03, -2.362588652256113e+02, 1.478898358320535e+03
93, 2.500000000000000e-04, 8.099999999994990e-03, 1.020529414455467e-03, -1.211133248041389e-04, -3.679717448973953e+02, -1.635586755656359e+03, -2.125941570176556e+02, 1.337023903261881e+03
94, 2.500000000000000e-04, 8.199999999995398e-03, 1.038637076936116e-03, -1.228131055880124e-04, -3.289685116812945e+02, -1.469906129702086e+03, -1.901814000514897e+02, 1.202669741831538e+03
95, 2.500000000000000e-04, 8.299999999995804e-03, 1.056763043315248e-03, -1.245114377294813e-04, -2.921208957606964e+02, -1.313416028976815e+03, -1.690232590965123e+02, 1.075787710281799e+03
96, 2.500000000000000e-04, 8.399999999996209e-03, 1.074905444180239e-03, -1.262082539857378e-04, -2.574135772535640e+02, -1.166043483375911e+03, -1.491183058612846e+02, 9.563228444786121e+02
97, 2.500000000000000e-04, 8.499999999996616e-03, 1.093062516284109e-03, -1.279035036414224e-04, -2.248077075559225e+02, -1.027690735590568e+03, -1.304635878650497e+02, 8.442180688308962e+02
98, 2.500000000000000e-04, 8.599999999997021e-03, 1.111232600562142e-03, -1.295971521699947e-04, -1.942794928561669e+02, -8.982690569971999e+02, -1.130571986040313e+02, 7.394112705688541e+02
99, 2.500000000000000e-04, 8.699999999997429e-03, 1.129414140759811e-03, -1.312891810894832e-04, -1.658380371705326e+02, -7.777123259293832e+02, -9.689472670803647e+01, 6.418290251300961e+02
100, 2.500000000000000e-04, 8.799999999997834e-03, 1.147605683654709e-03, -1.329795877779512e-04, -1.394619562381866e+02, -6.659301856835312e+02, -8.196630702507031e+01, 5.514006697172468e+02
101, 2.500000000000000e-04, 8.899999999997930e-03, 1.165805878127280e-03, -1.346683855262636e-04, -1.151023132188540e+02, -5.628136538342339e+02, -6.826362304201302e+01, 4.680653089462079e+02
102, 2.500000000000000e-04, 8.999999999997496e-03, 1.184013473054919e-03, -1.363556034273890e-04, -9.272393160587170e+01, -4.682596697826988e+02, -5.578052321935658e+01, 3.917562478512821e+02
103, 2.500000000000000e-04, 9.099999999997034e-03, 1.202227316188370e-03, -1.380412858111506e-04, -7.232177052360640e+01, -3.821772077397958e+02, -4.450174614649519e+01, 3.223848842808612e+02
104, 2.500000000000000e-04, 9.199999999996832e-03, 1.220446354861299e-03, -1.397254916410376e-04, -5.384807544386192e+01, -3.044149428516080e+02, -3.440011749828144e+01, 2.598407731248375e+02
105, 2.500000000000000e-04, 9.299999999997156e-03, 1.238669635261115e-03, -1.414082929697600e-04, -3.719105676960173e+01, -2.347300314477895e+02, -2.543969555010726e+01, 2.039861734423152e+02
106, 2.500000000000000e-04, 9.399999999997563e-03, 1.256896298236580e-03, -1.430897726212921e-04, -2.226891244606452e+01, -1.728657244815462e+02, -1.757567329807768e+01, 1.546448090392084e+02
107, 2.500000000000000e-04, 9.499999999997968e-03, 1.275125575609200e-03, -1.447700221917234e-04, -8.910043850072533e+00, -1.184418220506065e+02, -1.076548517729651e+01, 1.116279226725165e+02
108, 2.500000000000000e-04, 9.599999999998375e-03, 1.293356782195565e-03, -1.464491386653827e-04, 2.827159111125400e+00, -7.127638356648066e+01, -4.951093822700997e+00, 7.476221209632935e+01
109, 2.500000000000000e-04, 9.699999999998783e-03, 1.311589312036779e-03, -1.481272257997664e-04, 1.296254587690868e+01, -3.140811132062319e+01, -1.728237328899493e-01, 4.437200347416698e+01
110, 2.500000000000000e-04, 9.799999999999188e-03, 1.329822608948643e-03, -1.498044099380075e-04, 1.977663300878064e+01, -1.032943833794988e+00, 3.282879943319392e+00, 2.182080867557513e+01
111, 2.500000000000000e-04, 9.899999999999593e-03, 1.348056193021835e-03, -1.514808849867555e-04, 2.109800639070429e+01, 1.523504529876137e+01, 4.690259386440494e+00, 1.106202717470940e+01
112, 2.000000000000817e-04, 1.000000000000000e-02, 1.367127747120767e-03, -1.440405053788422e-04, 3.199723884398533e+01, 3.076476167808561e+01, 5.353752099862144e+00, 1.077820236178452e+01
113, 1.500000000001972e-04, 1.000000000000000e-02, 1.367965825038108e-03, -1.349241902466075e-04, 2.718315127000872e+01, 2.969312872086950e+01, 9.093439617152454e+00, 1.835926368586226e+01
114, 1.000000000003456e-04, 1.000000000000000e-02, 1.368804010384684e-03, -1.258080406452605e-04, 1.921104481165504e+01, 2.892340076198540e+01, 1.244917485191584e+01, 2.672559963930112e+01
115, 5.000000000047588e-05, 1.000000000000000e-02, 1.369642361535399e-03, -1.166919815920459e-04, 9.388650995091286e+00, 2.886524624932369e+01, 1.506765234576842e+01, 3.588139283178609e+01
116, 6.410887445906788e-16, 1.000000000000000e-02, 1.370480914472870e-03, -1.075759209734282e-04, -1.159646384967115e-01, 3.062031571958912e+01, 1.648968781584824e+01, 4.508168305761652e+01
117, -4.999999999945738e-05, 1.000000000000000e-02, 1.371319681591806e-03, -9.845974620092610e-05, -6.160329747273648e+00, 3.635576030409134e+01, 1.629962122124257e+01, 5.357544699841245e+01
118, -9.999999999958566e-05, 1.000000000000000e-02, 1.372158646120725e-03, -8.934334891601721e-05, -4.832819846577975e+00, 4.869721061561972e+01, 1.443865281966641e+01, 6.082238849528400e+01
119, -1.499999999997626e-04, 1.000000000000000e-02, 1.372997749482566e-03, -8.022667140309599e-05, 9.492165096907765e+00, 7.045737524955331e+01, 1.185896113358789e+01, 6.541633347741239e+01
120, -1.999999999998909e-04, 1.000000000000000e-02, 1.373836843650533e-03, -7.110983130746017e-05, 4.907400289411089e+01, 1.052194169071229e+02, 1.086253515964096e+01, 6.020204477482699e+01
121, -2.500000000000000e-04, 9.899999999999590e-03, 1.356442136972225e-03, -6.031861285287825e-05, -2.478754367284027e+01, 5.240767051658084e+01, 2.119261769884090e+00, 7.731148799206862e+01
122, -2.500000000000000e-04, 9.799999999999181e-03, 1.338208053134770e-03, -5.864537642161482e-05, 1.099387649428374e+01, 1.142497222653148e+02, 1.055770380805950e+01, 1.053927422770933e+02
123, -2.500000000000000e-04, 9.699999999999055e-03, 1.319974138611885e-03, -5.697318986610365e-05, 2.263321510820112e+01, 1.508174170908388e+02, 1.835588307140856e+01, 1.333377043872084e+02
124, -2.500000000000000e-04, 9.599999999999458e-03, 1.301740709779107e-03, -5.530223473337924e-05, 3.161694503686111e+01, 1.902905077786770e+02, 2.684193127352152e+01, 1.675089747182246e+02
125, -2.500000000000000e-04, 9.499999999999916e-03, 1.283508143405647e-03, -5.363282411881294e-05, 4.237904686848688e+01, 2.378087845400698e+02, 3.627797737287089e+01, 2.084637832704996e+02
126, -2.500000000000000e-04, 9.400000000000373e-03, 1.265276936301328e-03, -5.196528870211263e-05, 5.470114197732361e+01, 2.930594718413038e+02, 4.671191205920894e+01, 2.560130940566420e+02
127, -2.500000000000000e-04, 9.300000000000832e-03, 1.247047660887787e-03, -5.029997096805401e-05, 6.968076689805660e+01, 3.568671705259949e+02, 5.814726970797877e+01, 3.098393944073587e+02
128, -2.500000000000000e-04, 9.200000000001289e-03, 1.228821017991395e-03, -4.863723550806075e-05, 8.611928738041136e+01, 4.281794955396208e+02, 7.065934886033381e+01, 3.701029050566708e+02
129, -2.500000000000000e-04, 9.100000000001746e-03, 1.210597771252626e-03, -4.697745792916837e-05, 1.048472001091079e+02, 5.077166017157289e+02, 8.426881190021967e+01, 4.367020556250855e+02
130, -2.500000000000000e-04, 9.000000000002204e-03, 1.192378792092557e-03, -4.532103857064851e-05, 1.257655232265642e+02, 5.955624934644005e+02, 9.896738519607138e+01, 5.097914932350683e+02
131, -2.500000000000000e-04, 8.900000000002661e-03, 1.174165053675830e-03, -4.366840211607021e-05, 1.487105403921683e+02, 6.917157718427062e+02, 1.147956514352893e+02, 5.895480029110962e+02
132, -2.500000000000000e-04, 8.800000000003118e-03, 1.155957623039890e-03, -4.201999535307822e-05, 1.737414506823938e+02, 7.963251828888713e+02, 1.317906835987864e+02, 6.760810903596465e+02
133, -2.500000000000000e-04, 8.700000000003576e-03, 1.137757666905249e-03, -4.037628678989153e-05, 2.007584098158714e+02, 9.093892179443692e+02, 1.499793158403929e+02, 7.695016588342465e+02
134, -2.500000000000000e-04, 8.600000000004033e-03, 1.119566448312226e-03, -3.873776542428988e-05, 2.297998759582807e+02, 1.031019467412695e+03, 1.693794960148861e+02, 8.698910784755793e+02
135, -2.500000000000000e-04, 8.500000000004490e-03, 1.101385329720567e-03, -3.710494145647680e-05, 2.608735379598402e+02, 1.161296290521620e+03, 1.900075785526393e+02, 9.773293472318745e+02
136, -2.500000000000000e-04, 8.400000000004949e-03, 1.083215773372575e-03, -3.547834552581455e-05, 2.941122682804137e+02, 1.300421398017088e+03, 2.118574669558216e+02, 1.091875638436507e+03
137, -2.500000000000000e-04, 8.300000000005149e-03, 1.065059348003431e-03, -3.385853088117638e-05, 3.294308688185663e+02, 1.448399311840819e+03, 2.349415481459734e+02, 1.213622882389975e+03
138, -2.500000000000000e-04, 8.200000000005172e-03, 1.046917724106199e-03, -3.224607075192602e-05, 3.669750253939105e+02, 1.605440506761330e+03, 2.592465270147881e+02, 1.342621240564721e+03
139, -2.500000000000000e-04, 8.100000000005195e-03, 1.028792682015819e-03, -3.064156143503965e-05, 4.066266320580337e+02, 1.771526987172029e+03, 2.847836043826865e+02, 1.478972543589328e+03
140, -2.500000000000000e-04, 8.000000000005220e-03, 1.010686105787479e-03, -2.904561931603045e-05, 4.483889341158562e+02, 1.946695944929091e+03, 3.115664538202888e+02, 1.622719482608344e+03
141, -2.500000000000000e-04, 7.900000000005243e-03, 9.925999836845451e-04, -2.745887971705743e-05, 4.925161560208570e+02, 2.131244903532776e+03, 3.395557844507169e+02, 1.773872721177523e+03
142, -2.500000000000000e-04, 7.800000000005240e-03, 9.745364224772485e-04, -2.588200177616533e-05, 5.386604108660767e+02, 2.324938008464339e+03, 3.687665277972814e+02, 1.932548230646798e+03
143, -2.500000000000000e-04, 7.700000000005121e-03, 9.564976298262699e-04, -2.431566179809763e-05, 5.869655308245120e+02, 2.527931194148862e+03, 3.991910316430981e+02, 2.098752397302087e+03
144, -2.500000000000000e-04, 7.600000000005145e-03, 9.384859233796310e-04, -2.276055647605601e-05, 6.374271709468227e+02, 2.740268987885393e+03, 4.308178688483795e+02, 2.272522794504324e+03
145, -2.500000000000000e-04, 7.500000000005337e-03, 9.205037315896549e-04, -2.121740129131570e-05, 6.898965784095017e+02, 2.961848129519264e+03, 4.636453225539678e+02, 2.453901340945627e+03
146, -2.500000000000000e-04, 7.400000000005796e-03, 9.025535860922887e-04, -1.968692861314785e-05, 7.446558731024695e+02, 3.192968909175131e+03, 4.976341803759906e+02, 2.642876431564152e+03
147, -2.500000000000000e-04, 7.300000000006254e-03, 8.846381367511100e-04, -1.816989230101637e-05, 8.015761045073629e+02, 3.433601849951310e+03, 5.327642412254296e+02, 2.839526451997551e+03
148, -2.500000000000000e-04, 7.200000000006711e-03, 8.667601445691410e-04, -1.666706480238770e-05, 8.606174658608918e+02, 3.683747736852093e+03, 5.690281363352195e+02, 3.043885117206526e+03
149, -2.500000000000000e-04, 7.100000000007169e-03, 8.489224805825007e-04, -1.517923557490960e-05, 9.218825648479642e+02, 3.943538767481677e+03, 6.063900826188872e+02, 3.255954842455429e+03
150, -2.500000000000000e-04, 7.000000000007627e-03, 8.311281327315562e-04, -1.370721266421852e-05, 9.852342120142125e+02, 4.212912144560803e+03, 6.448268401369946e+02, 3.475789327806343e+03
151, -2.500000000000000e-04, 6.900000000008085e-03, 8.133801994154475e-04, -1.225182073558754e-05, 1.050728186358014e+03, 4.491952607129383e+03, 6.843125800013660e+02, 3.703398485540781e+03
152, -2.500000000000000e-04, 6.800000000008542e-03, 7.956818937741839e-04, -1.081390099121350e-05, 1.118305206149509e+03, 4.780646441426248e+03, 7.248170203161928e+02, 3.938804663266323e+03
153, -2.500000000000000e-04, 6.700000000009001e-03, 7.780365414889000e-04, -9.394309983125706e-06, 1.188022930398741e+03, 5.079092503987247e+03, 7.662984214638871e+02, 4.182018114434515e+03
154, -2.500000000000000e-04, 6.600000000009459e-03, 7.604475846928746e-04, -7.993920660537393e-06, 1.259858268994416e+03, 5.387323321985114e+03, 8.087170481228909e+02, 4.433064495285164e+03
155, -2.500000000000000e-04, 6.500000000009916e-03, 7.429185822539485e-04, -6.613620857919491e-06, 1.333670220473647e+03, 5.705254907378250e+03, 8.520425108754162e+02, 4.691978094166079e+03
156, -2.500000000000000e-04, 6.400000000010177e-03, 7.254532036151849e-04, -5.254311441982193e-06, 1.409574151244240e+03, 6.033023390757022e+03, 8.962304382396519e+02, 4.958749727911289e+03
157, -2.500000000000000e-04, 6.300000000010201e-03, 7.080552359100984e-04, -3.916907209903376e-06, 1.487563732079435e+03, 6.370679096670913e+03, 9.412260282022814e+02, 5.233396737165179e+03
158, -2.500000000000000e-04, 6.200000000010225e-03, 6.907285844138906e-04, -2.602336227068006e-06, 1.567597373108326e+03, 6.718239158804707e+03, 9.869772561364585e+02, 5.515941190865274e+03
159, -2.500000000000000e-04, 6.100000000010248e-03, 6.734772718109165e-04, -1.311538679332681e-06, 1.649602804117096e+03, 7.075684534023458e+03, 1.033437454670893e+03, 5.806404638887151e+03
160, -2.500000000000000e-04, 6.000000000010509e-03, 6.563054358454736e-04, -4.546529605686689e-08, 1.733626096967407e+03, 7.443098162637454e+03, 1.080548748314288e+03, 6.104786127179304e+03
161, -2.500000000000000e-04, 5.900000000010967e-03, 6.392173330164054e-04, 1.194922642253618e-06, 1.819676491258572e+03, 7.820543275861855e+03, 1.128243078583031e+03, 6.411094441983912e+03
162, -2.500000000000000e-04, 5.800000000011424e-03, 6.222173404921960e-04, 2.408653950559433e-06, 1.907675267756400e+03, 8.208007522867156e+03, 1.176455106499934e+03, 6.725353001532937e+03
163, -2.500000000000000e-04, 5.700000000011876e-03, 6.053099538998469e-04, 3.594749077737621e-06, 1.997557933211098e+03, 8.605481452188320e+03, 1.225124029758381e+03, 7.047578930797296e+03
164, -2.500000000000000e-04, 5.600000000012062e-03, 5.884997859234056e-04, 4.752221614944242e-06, 2.089319916704284e+03, 9.013002897215614e+03, 1.274183621548141e+03, 7.377774842071856e+03
165, -2.500000000000000e-04, 5.500000000012085e-03, 5.717915675478412e-04, 5.880079262639565e-06, 2.183003403946664e+03, 9.430657877209396e+03, 1.323553002071038e+03, 7.715935818873192e+03
166, -2.500000000000000e-04, 5.400000000012110e-03, 5.551901516324202e-04, 6.977324215927645e-06, 2.278564931831030e+03, 9.858466780401279e+03, 1.373147788303792e+03, 8.062074883555291e+03
167, -2.500000000000000e-04, 5.300000000012160e-03, 5.387005122094532e-04, 8.042954563146701e-06, 2.375951861026242e+03, 1.029643806550601e+04, 1.422885497609959e+03, 8.416205455702069e+03
168, -2.500000000000000e-04, 5.200000000012475e-03, 5.223277436601206e-04, 9.075965840043975e-06, 2.475139404237667e+03, 1.074460213721470e+04, 1.472679798244166e+03, 8.778334525678652e+03
169, -2.500000000000000e-04, 5.100000000012934e-03, 5.060770613578615e-04, 1.007535228670039e-05, 2.576112289376229e+03, 1.120299937139850e+04, 1.522437833294279e+03, 9.148467005512224e+03
170, -2.500000000000000e-04, 5.000000000013221e-03, 4.899538027507588e-04, 1.104010811808908e-05, 2.678839834934704e+03, 1.167165947009001e+04, 1.572061612885179e+03, 9.526610931976982e+03
171, -2.500000000000000e-04, 4.900000000012981e-03, 4.739634276637265e-04, 1.196922893196784e-05, 2.783272269963110e+03, 1.215059273176280e+04, 1.621453256480857e+03, 9.912776366178177e+03
172, -2.500000000000000e-04, 4.800000000012570e-03, 4.581115174690595e-04, 1.286171358379522e-05, 2.889416010443279e+03, 1.263985572237319e+04, 1.670506493105512e+03, 1.030696086875324e+04
173, -2.500000000000000e-04, 4.700000000012160e-03, 4.424037772673561e-04, 1.371656543166619e-05, 2.997264290384032e+03, 1.313950089247841e+04, 1.719103756345882e+03, 1.070916589624014e+04
174, -2.500000000000000e-04, 4.600000000011960e-03, 4.268460376759363e-04, 1.453279364939309e-05, 3.106715344050146e+03, 1.364949866592151e+04, 1.767131513226893e+03, 1.111941074482309e+04
175, -2.500000000000000e-04, 4.500000000011985e-03, 4.114442516058332e-04, 1.530941564071965e-05, 3.217751792883905e+03, 1.416988346133375e+04, 1.814474588370780e+03, 1.153769735304386e+04
176, -2.500000000000000e-04, 4.400000000012010e-03, 3.962044953602416e-04, 1.604545874542315e-05, 3.330388755388591e+03, 1.470071991585218e+04, 1.861005023918873e+03, 1.196402062413862e+04
177, -2.500000000000000e-04, 4.300000000011870e-03, 3.811329713181587e-04, 1.673996173916739e-05, 3.444580577722932e+03, 1.524202374780903e+04, 1.906588919405355e+03, 1.239838661204789e+04
178, -2.500000000000000e-04, 4.200000000011467e-03, 3.662360074174622e-04, 1.739197691067427e-05, 3.560285634345343e+03, 1.579381056684192e+04, 1.951090602134837e+03, 1.284080022525742e+04
179, -2.500000000000000e-04, 4.100000000011056e-03, 3.515200570184679e-04, 1.800057221460948e-05, 3.677485954106170e+03, 1.635611554392174e+04, 1.994366938894277e+03, 1.329126202523918e+04
180, -2.500000000000000e-04, 4.000000000010646e-03, 3.369917001027546e-04, 1.856483318175328e-05, 3.796135894489486e+03, 1.692895070401544e+04, 2.036270391030110e+03, 1.374977866159481e+04
181, -2.500000000000000e-04, 3.900000000010236e-03, 3.226576428542457e-04, 1.908386521414280e-05, 3.916202899630609e+03, 1.751233540931278e+04, 2.076650303189512e+03, 1.421635414400558e+04
182, -2.500000000000000e-04, 3.800000000009824e-03, 3.085247177730568e-04, 1.955679591662894e-05, 4.037687584286301e+03, 1.810631509532910e+04, 2.115346762950250e+03, 1.469098525472566e+04
183, -2.500000000000000e-04, 3.700000000009415e-03, 2.945998855506178e-04, 1.998277725633045e-05, 4.160551613952509e+03, 1.871090233732314e+04, 2.152192835386604e+03, 1.517367596121157e+04
184, -2.500000000000000e-04, 3.600000000009160e-03, 2.808902348519955e-04, 2.036098804220486e-05, 4.284762326864729e+03, 1.932611104270035e+04, 2.187017676253756e+03, 1.566442965627397e+04
185, -2.500000000000000e-04, 3.500000000009170e-03, 2.674029824237786e-04, 2.069063650289950e-05, 4.410295074484433e+03, 1.995195912437806e+04, 2.219644436927862e+03, 1.616324865691595e+04
186, -2.500000000000000e-04, 3.400000000009196e-03, 2.541454734621989e-04, 2.097096284858365e-05, 4.537135242218274e+03, 2.058846915689088e+04, 2.249889755241796e+03, 1.667013305535643e+04
187, -2.500000000000000e-04, 3.300000000009092e-03, 2.411251823535415e-04, 2.120124199485981e-05, 4.665264693484150e+03, 2.123565644912199e+04, 2.277562498049222e+03, 1.718508209655663e+04
188, -2.500000000000000e-04, 3.200000000008720e-03, 2.283497132162893e-04, 2.138078636004990e-05, 4.794655958742913e+03, 2.189352494669941e+04, 2.302465169776542e+03, 1.770809713378140e+04
189, -2.500000000000000e-04, 3.100000000008311e-03, 2.158267998832537e-04, 2.150894875202818e-05, 4.925287897152552e+03, 2.256207927434730e+04, 2.324394997321448e+03, 1.823917921664741e+04
190, -2.500000000000000e-04, 3.000000000007901e-03, 2.035643060406026e-04, 2.158512537783194e-05, 5.057152626889174e+03, 2.324132971009945e+04, 2.343141875227725e+03, 1.877832664492054e+04
191, -2.500000000000000e-04, 2.900000000007490e-03, 1.915702259199745e-04, 2.160875890330625e-05, 5.190239016986332e+03, 2.393127886627595e+04, 2.358487569503614e+03, 1.932553826144756e+04
192, -2.500000000000000e-04, 2.800000000007079e-03, 1.798526846970957e-04, 2.157934160639326e-05, 5.324525733837218e+03, 2.463191541808247e+04, 2.370208339373704e+03, 1.988081604732176e+04
193, -2.500000000000000e-04, 2.700000000006744e-03, 1.684199381027347e-04, 2.149641868664906e-05, 5.460013059978888e+03, 2.534323820659193e+04, 2.378074636926292e+03, 2.044415804444080e+04
194, -2.500000000000000e-04, 2.600000000006672e-03, 1.572803729347771e-04, 2.135959168863629e-05, 5.596711317031250e+03, 2.606524663154917e+04, 2.381847136675738e+03, 2.101555902305786e+04
195, -2.500000000000000e-04, 2.500000000006697e-03, 1.464425079729232e-04, 2.116852195105807e-05, 5.734606046993407e+03, 2.679791240008778e+04, 2.381279617203173e+03, 2.159501898553309e+04
196, -2.500000000000000e-04, 2.400000000006722e-03, 1.359149933133911e-04, 2.092293423966855e-05, 5.873707192035768e+03, 2.754121938774941e+04, 2.376119778095429e+03, 2.218253514706614e+04
197, -2.500000000000000e-04, 2.300000000006651e-03, 1.257066107602450e-04, 2.062262039592000e-05, 6.014026650325058e+03, 2.829514320845043e+04, 2.366107661442433e+03, 2.277810389253054e+04
198, -2.500000000000000e-04, 2.200000000006315e-03, 1.158262740408784e-04, 2.026744322955160e-05, 6.155575709830153e+03, 2.905964951780037e+04, 2.350975427401250e+03, 2.338172232411302e+04
199, -2.500000000000000e-04, 2.100000000005904e-03, 1.062830286357852e-04, 1.985734036687284e-05, 6.298380225128838e+03, 2.983470517202829e+04, 2.330448498780833e+03, 2.399338560578563e+04
200, -2.500000000000000e-04, 2.000000000005494e-03, 9.708605207048802e-05, 1.939232834976626e-05, 6.442463868567138e+03, 3.062026344929678e+04, 2.304244030676410e+03, 2.461308909457653e+04
201, -2.500000000000000e-04, 1.900000000005083e-03, 8.824465374629056e-05, 1.887250676550155e-05, 6.587860888022447e+03, 3.141627446891592e+04, 2.272071810908677e+03, 2.524082728833583e+04
202, -2.500000000000000e-04, 1.800000000004675e-03, 7.976827497194198e-05, 1.829806250850204e-05, 6.734606792462611e+03, 3.222267660350259e+04, 2.233634369425772e+03, 2.587659546148928e+04
203, -2.500000000000000e-04, 1.700000000004264e-03, 7.166648861809853e-05, 1.766927415619676e-05, 6.882750290428820e+03, 3.303940415125261e+04, 2.188627270499833e+03, 2.652038646987729e+04
204, -2.500000000000000e-04, 1.600000000003854e-03, 6.394899906241745e-05, 1.698651653709383e-05, 7.032345955796820e+03, 3.386638174896755e+04, 2.136737433998608e+03, 2.717219285218938e+04
205, -2.500000000000000e-04, 1.500000000003443e-03, 5.662564196150366e-05, 1.625026526887366e-05, 7.183454655872691e+03, 3.470352417690013e+04, 2.077645020860377e+03, 2.783200786456140e+04
206, -2.500000000000000e-04, 1.400000000003032e-03, 4.970638385483658e-05, 1.546110151614889e-05, 7.336148096419727e+03, 3.555073811140505e+04, 2.011022701248680e+03, 2.849982348951410e+04
207, -2.500000000000000e-04, 1.300000000002622e-03, 4.320132185991010e-05, 1.461971684787252e-05, 7.490504849284423e+03, 3.640791784321443e+04, 1.936535571952482e+03, 2.917563117307424e+04
208, -2.500000000000000e-04, 1.200000000002211e-03, 3.712068318313570e-05, 1.372691823870959e-05, 7.646617794204787e+03, 3.727495082083260e+04, 1.853841549903206e+03, 2.985942115824341e+04
209, -2.500000000000000e-04, 1.100000000002113e-03, 3.147482457544954e-05, 1.278363313451707e-05, 7.804611870066242e+03, 3.815173887831980e+04, 1.762593157119486e+03, 3.055118747618774e+04
210, -2.500000000000000e-04, 1.000000000002544e-03, 2.627423184958801e-05, 1.179091412110465e-05, 7.964700624513147e+03, 3.903827915129374e+04, 1.662443235569569e+03, 3.125095442552058e+04
211, -2.500000000000000e-04, 9.000000000030026e-04, 2.152952061751640e-05, 1.074994160016097e-05, 8.127243381725955e+03, 3.993478453677605e+04, 1.553057581947618e+03, 3.195884268464027e+04
212, -2.500000000000000e-04, 8.000000000032027e-04, 1.725144300782356e-05, 9.662023064547190e-06, 8.292640660009216e+03, 4.084161778413678e+04, 1.434087535721237e+03, 3.267510275526954e+04
213, -2.500000000000000e-04, 7.000000000028719e-04, 1.345091390313949e-05, 8.528594130263322e-06, 8.459358509759817e+03, 4.175674616593696e+04, 1.305006190715946e+03, 3.339952378937409e+04
214, -2.500000000000000e-04, 6.000000000024631e-04, 1.013906755422966e-05, 7.351283708761085e-06, 8.618915565972757e+03, 4.266746549860376e+04, 1.164069973303998e+03, 3.412805280302202e+04
215, -2.500000000000000e-04, 5.000000000020526e-04, 7.327316392918356e-06, 6.132216362096102e-06, 8.725848582635957e+03, 4.350769798153980e+04, 1.006798699136461e+03, 3.484008642484056e+04
216, -2.500000000000000e-04, 4.000000000016421e-04, 5.026897523647884e-06, 4.875370774307725e-06, 8.684930270135006e+03, 4.411391392612521e+04, 8.159805903294983e+02, 3.546655015915135e+04
217, -2.500000000000000e-04, 3.000000000012316e-04, 3.246562411132717e-06, 3.589315794077509e-06, 7.940860343917204e+03, 4.373276318969981e+04, 5.885862106642753e+02, 3.581125583153260e+04
218, -2.500000000000000e-04, 2.000000000008210e-04, 1.976163575745519e-06, 2.299597285149932e-06, 7.458745374984323e+03, 4.312927748263444e+04, 2.329767170882826e+02, 3.567357528263348e+04
219, -2.500000000000000e-04, 1.000000000004105e-04, 1.149561227969735e-06, 1.017308438431810e-06, -3.864038917902995e+03, 2.990032716490481e+04, 2.714339284386366e+03, 3.419799654916811e+04
220, -1.999999999998928e-04, 9.899999999999593e-03, 1.355602745538069e-03, -6.943579167860435e-05, 8.822587489605294e-02, 7.583512839338590e+01, 9.614796401867052e+00, 7.814966718126844e+01
221, -1.499999999997670e-04, 9.899999999999591e-03, 1.354763462489340e-03, -7.855252555353998e-05, 4.390425668918194e+00, 6.883053386106566e+01, 1.603142624082034e+01, 7.197606583493656e+01
222, -9.999999999959327e-05, 9.899999999999591e-03, 1.353924396648485e-03, -8.766893112434661e-05, 1.017746310060726e+01, 5.980447219075018e+01, 1.984766762546141e+01, 6.354966303542674e+01
223, -4.999999999946756e-05, 9.899999999999593e-03, 1.353085577533558e-03, -9.678502471221418e-05, 1.567301098407881e+01, 5.049781986672362e+01, 2.225898527881178e+01, 5.652094316518590e+01
224, 6.282680539010377e-16, 9.899999999999593e-03, 1.352246988103524e-03, -1.059008852496727e-04, 1.963747189808429e+01, 4.124079185019512e+01, 2.288647692411784e+01, 5.061488651519414e+01
225, 5.000000000046569e-05, 9.899999999999590e-03, 1.351408597749881e-03, -1.150166311912382e-04, 2.220264018130896e+01, 3.270860969902228e+01, 2.156967752582313e+01, 4.440021790238331e+01
226, 1.000000000003380e-04, 9.899999999999590e-03, 1.350570370001008e-03, -1.241323923842811e-04, 2.351725499537988e+01, 2.541699778451368e+01, 1.842957738013101e+01, 3.690807922807435e+01
227, 1.500000000001929e-04, 9.899999999999593e-03, 1.349732261809139e-03, -1.332482916213249e-04, 2.375637911372059e+01, 2.004025632662480e+01, 1.376430131137737e+01, 2.777829244086669e+01
228, 2.000000000000797e-04, 9.899999999999593e-03, 1.348894222085905e-03, -1.423644347287529e-04, 2.276247663501115e+01, 1.689384626865146e+01, 8.102330450597819e+00, 1.723461218883958e+01
229, -1.999999999998947e-04, 9.799999999999184e-03, 1.337368375770781e-03, -6.776231505164275e-05, 6.179733620381684e+00, 9.684789653003722e+01, 1.619019790427473e+01, 9.627671472443460e+01
230, -1.499999999997712e-04, 9.799999999999181e-03, 1.336528977149848e-03, -7.687869962858077e-05, 1.226149522706568e+01, 8.356966710429047e+01, 2.371178827315980e+01, 8.563790626186787e+01
231, -9.999999999960086e-05, 9.799999999999184e-03, 1.335689867554934e-03, -8.599464403789405e-05, 1.614942848742869e+01, 6.749870003185124e+01, 2.862677561315449e+01, 7.690719612732238e+01
232, -4.999999999947776e-05, 9.799999999999184e-03, 1.334851054894447e-03, -9.511026992021806e-05, 2.044966470522225e+01, 5.261019403330414e+01, 3.119233051398511e+01, 7.018650567051449e+01
233, 6.154473632113966e-16, 9.799999999999184e-03, 1.334012523518355e-03, -1.042256919387620e-04, 2.435853119333785e+01, 3.933066025344088e+01, 3.146091486628029e+01, 6.467860005817788e+01
234, 5.000000000045551e-05, 9.799999999999184e-03, 1.333174240644377e-03, -1.133410395897644e-04, 2.714906677513951e+01, 2.770201714578329e+01, 2.931550118290496e+01, 5.863360975184798e+01
235, 1.000000000003303e-04, 9.799999999999184e-03, 1.332336163633342e-03, -1.224564516444788e-04, 2.847606045028395e+01, 1.788511127984024e+01, 2.476492687733896e+01, 5.064952731557032e+01
236, 1.500000000001885e-04, 9.799999999999188e-03, 1.331498242097494e-03, -1.315720665798736e-04, 2.811161582861594e+01, 1.014321368877874e+01, 1.799249836993775e+01, 4.022167905281623e+01
237, 2.000000000000778e-04, 9.799999999999188e-03, 1.330660416523097e-03, -1.406880127877487e-04, 2.539064553644784e+01, 4.561645965066898e+00, 9.291691274936154e+00, 2.791396299595395e+01
238, -1.999999999998966e-04, 9.699999999999027e-03, 1.319134169310741e-03, -6.608962460969948e-05, 9.119436492197089e+00, 1.196058631567322e+02, 2.429603518875768e+01, 1.206997919661467e+02
239, -1.499999999997756e-04, 9.699999999998999e-03, 1.318294564609906e-03, -7.520543972415511e-05, 1.472545136915365e+01, 9.924125600523590e+01, 3.263180202141461e+01, 1.067813618846642e+02
240, -9.999999999960846e-05, 9.699999999998973e-03, 1.317455338622440e-03, -8.432076880505233e-05, 1.989580358923061e+01, 7.861797389430470e+01, 3.795975927210047e+01, 9.597951125798357e+01
241, -4.999999999948794e-05, 9.699999999998947e-03, 1.316616487015268e-03, -9.343575787311725e-05, 2.421052227661621e+01, 5.827847197670525e+01, 4.026606942762962e+01, 8.744169820726580e+01
242, 6.026266725217555e-16, 9.699999999998920e-03, 1.315777992302615e-03, -1.025505594095082e-04, 2.774992108007211e+01, 3.926979409115812e+01, 3.959104972322035e+01, 8.001570062767414e+01
243, 5.000000000044535e-05, 9.699999999998892e-03, 1.314939822345629e-03, -1.116653278353740e-04, 3.011424500433068e+01, 2.205177769950738e+01, 3.597792178197142e+01, 7.240612406447372e+01
244, 1.000000000003228e-04, 9.699999999998864e-03, 1.314101932147023e-03, -1.207802209318547e-04, 3.088746820873007e+01, 6.941304570419891e+00, 2.948460021871879e+01, 6.364578032535556e+01
245, 1.500000000001842e-04, 9.699999999998836e-03, 1.313264265253733e-03, -1.298953970578969e-04, 2.968553815103055e+01, -5.734301834543428e+00, 2.022560264140545e+01, 5.376676551026456e+01
246, 2.000000000000759e-04, 9.699999999998809e-03, 1.312426752674169e-03, -1.390110134084509e-04, 2.630010244003528e+01, -1.537767075265466e+01, 8.354352137419996e+00, 4.490231148666359e+01
247, -1.999999999998985e-04, 9.599999999999352e-03, 1.300900391943447e-03, -6.441798159332065e-05, 1.152759424784675e+01, 1.471830516863333e+02, 3.344125467845373e+01, 1.512470601060459e+02
248, -1.499999999997800e-04, 9.599999999999241e-03, 1.300060540709181e-03, -7.353301635789799e-05, 1.717779966577521e+01, 1.196397803902721e+02, 4.251286882206179e+01, 1.331459107742874e+02
249, -9.999999999961608e-05, 9.599999999999132e-03, 1.299221169153303e-03, -8.264751415342845e-05, 2.248604354974423e+01, 9.209183353958890e+01, 4.787479277371382e+01, 1.183763030872925e+02
250, -4.999999999949810e-05, 9.599999999999024e-03, 1.298382272961222e-03, -9.176165211698849e-05, 2.698759617224482e+01, 6.511852612733082e+01, 4.958714721539162e+01, 1.062520987796635e+02
251, 5.898059818321144e-16, 9.599999999998917e-03, 1.297543831897977e-03, -1.008756110130098e-04, 3.031270876973880e+01, 3.929299424819732e+01, 4.770958195672691e+01, 9.584081786596556e+01
252, 5.000000000043517e-05, 9.599999999998809e-03, 1.296705811614029e-03, -1.099895738730027e-04, 3.219331022155587e+01, 1.523407308916543e+01, 4.232224676195929e+01, 8.632673982048289e+01
253, 1.000000000003152e-04, 9.599999999998698e-03, 1.295868164073004e-03, -1.191037243623760e-04, 3.230072987985836e+01, -6.548641598755221e+00, 3.352254866084394e+01, 7.748753925088803e+01
254, 1.500000000001798e-04, 9.599999999998591e-03, 1.295030828010446e-03, -1.282182464191879e-04, 3.034667628554637e+01, -2.553807051982461e+01, 2.142277699439333e+01, 7.041907711768491e+01
255, 2.000000000000740e-04, 9.599999999998483e-03, 1.294193729475029e-03, -1.373333235273904e-04, 2.610613794062143e+01, -4.117317389574659e+01, 6.142211058571975e+00, 6.839161372513026e+01
256, -1.999999999999004e-04, 9.499999999999719e-03, 1.282667432835281e-03, -6.274764177194391e-05, 1.361163442208883e+01, 1.795105076412079e+02, 4.336521773228260e+01, 1.872020421129173e+02
257, -1.499999999997843e-04, 9.499999999999528e-03, 1.281827313842685e-03, -7.186165134092424e-05, 1.967338101067048e+01, 1.438031795497099e+02, 5.303140484756648e+01, 1.632713278128420e+02
258, -9.999999999962368e-05, 9.499999999999330e-03, 1.280987796656462e-03, -8.097506365422992e-05, 2.509745633452816e+01, 1.080447886400567e+02, 5.826990200793146e+01, 1.430446988065601e+02
259, -4.999999999950831e-05, 9.499999999999136e-03, 1.280148874745430e-03, -9.008809032606223e-05, 2.954443398265155e+01, 7.293194246208955e+01, 5.919115581291981e+01, 1.260827014222439e+02
260, 5.769988436696294e-16, 9.499999999998942e-03, 1.279310525702257e-03, -9.920094341509001e-05, 3.265686332167763e+01, 3.908040629632617e+01, 5.590183611954335e+01, 1.119880486056092e+02
261, 5.000000000042495e-05, 9.499999999998747e-03, 1.278472712083305e-03, -1.083138353818480e-04, 3.410437865544020e+01, 7.079791305369328e+00, 4.851257822434777e+01, 1.007184655628522e+02
262, 1.000000000003075e-04, 9.499999999998551e-03, 1.277635382179757e-03, -1.174269785750987e-04, 3.359624946759489e+01, -2.248061193384007e+01, 3.714440722821316e+01, 9.307761459114153e+01
263, 1.500000000001755e-04, 9.499999999998359e-03, 1.276798470559735e-03, -1.265405845193468e-04, 3.085759838617708e+01, -4.903378984419665e+01, 2.192955005699737e+01, 9.113865577341873e+01
264, 2.000000000000721e-04, 9.499999999998164e-03, 1.275961898636657e-03, -1.356548633097528e-04, 2.565260971133483e+01, -7.202064034151546e+01, 3.016601716620778e+00, 9.785940588187474e+01
265, -1.999999999999023e-04, 9.400000000000087e-03, 1.264435798524358e-03, -6.107888336529405e-05, 1.534616984327007e+01, 2.164995219151325e+02, 5.409688373822934e+01, 2.284043834310030e+02
266, -1.499999999997887e-04, 9.399999999999811e-03, 1.263595401034110e-03, -7.019157089506754e-05, 2.194767913308002e+01, 1.712681199015254e+02, 6.417021329161570e+01, 1.968955538524133e+02
267, -9.999999999963125e-05, 9.399999999999530e-03, 1.262755749742422e-03, -7.930359802424359e-05, 2.764776094485716e+01, 1.260815306926350e+02, 6.911686890481998e+01, 1.696990668671541e+02
268, -4.999999999951849e-05, 9.399999999999249e-03, 1.261916834279244e-03, -8.841521016182341e-05, 3.210491668513180e+01, 8.160353154527844e+01, 6.908012789537605e+01, 1.467595623911409e+02
269, 5.641646004528322e-16, 9.399999999998968e-03, 1.261078628612126e-03, -9.752665181908922e-05, 3.500242078155999e+01, 3.849161373047162e+01, 6.419665981823300e+01, 1.284407217151416e+02
270, 5.000000000041476e-05, 9.399999999998687e-03, 1.260241091499645e-03, -1.066381665677291e-04, 3.602761984653248e+01, -2.625321442748923e+00, 5.460436410105836e+01, 1.158472968430271e+02
271, 1.000000000003000e-04, 9.399999999998406e-03, 1.259404166973142e-03, -1.157499967532129e-04, 3.488049829354908e+01, -4.113900991799005e+01, 4.044786546151908e+01, 1.110093910905598e+02
272, 1.500000000001711e-04, 9.399999999998125e-03, 1.258567784820803e-03, -1.248623829916969e-04, 3.127792965153363e+01, -7.645711829141179e+01, 2.188352091236082e+01, 1.162858310601755e+02
273, 2.000000000000702e-04, 9.399999999997844e-03, 1.257731861062830e-03, -1.339755633804754e-04, 2.493572833156599e+01, -1.080192819487515e+02, -9.161322491953499e-01, 1.329676349787097e+02
274, -1.999999999999042e-04, 9.300000000000464e-03, 1.246206078336086e-03, -5.941199601794667e-05, 1.768146613135219e+01, 2.588844927887030e+02, 6.564318189119714e+01, 2.746179334709768e+02
275, -1.499999999997930e-04, 9.300000000000100e-03, 1.245365405286279e-03, -6.852301549325473e-05, 2.467509678204474e+01, 2.026011401667563e+02, 7.592979018012727e+01, 2.339209461799666e+02
276, -9.999999999963886e-05, 9.299999999999729e-03, 1.244525642780151e-03, -7.763331045597966e-05, 3.052419811443648e+01, 1.465116722029114e+02, 8.041195087018244e+01, 1.982862111101506e+02
277, -4.999999999952863e-05, 9.299999999999361e-03, 1.243686776272584e-03, -8.674315987802927e-05, 3.492533470299708e+01, 9.130067314674187e+01, 7.924753862650545e+01, 1.682226747441755e+02
278, 5.513303572360351e-16, 9.299999999998993e-03, 1.242848775496246e-03, -9.585284115308951e-05, 3.755660949466907e+01, 3.762469006326472e+01, 7.259111572046587e+01, 1.451822474035035e+02
279, 5.000000000040461e-05, 9.299999999998625e-03, 1.242011594749321e-03, -1.049626299400793e-04, 3.810250377411411e+01, -1.387412601163050e+01, 6.060047068999015e+01, 1.318758440173096e+02
280, 1.000000000002923e-04, 9.299999999998258e-03, 1.241175173214485e-03, -1.140727998875807e-04, 3.625478799951868e+01, -6.256894370441699e+01, 4.343991540353243e+01, 1.315835664091671e+02
281, 1.500000000001668e-04, 9.299999999997890e-03, 1.240339435278143e-03, -1.231836221950709e-04, 3.171130046549943e+01, -1.078486729003434e+02, 2.128393364929850e+01, 1.459075374757100e+02
282, 2.000000000000683e-04, 9.299999999997520e-03, 1.239504290789422e-03, -1.322953650516958e-04, 2.417793381696096e+01, -1.491125337110193e+02, -5.679280092654021e+00, 1.736623247153776e+02
283, -1.999999999999061e-04, 9.200000000000841e-03, 1.227978975990460e-03, -5.774729262705531e-05, 1.981791570279656e+01, 3.060648454930209e+02, 7.808997746577060e+01, 3.260820190331689e+02
284, -1.499999999997973e-04, 9.200000000000397e-03, 1.227138033803383e-03, -6.685624804155706e-05, 2.730519235897351e+01, 2.374276619958590e+02, 8.838009622634829e+01, 2.745826248731303e+02
285, -9.999999999964642e-05, 9.199999999999951e-03, 1.226298187881618e-03, -7.596441522475403e-05, 3.340387854534305e+01, 1.691500559257121e+02, 9.220529100113305e+01, 2.289853432597753e+02
286, -4.999999999953884e-05, 9.199999999999505e-03, 1.225459418699970e-03, -8.507210675246893e-05, 3.780263940473135e+01, 1.019192114962269e+02, 8.972147570353280e+01, 1.905536869925178e+02
287, 5.385367716007061e-16, 9.199999999999058e-03, 1.224621690959440e-03, -9.417963324975443e-05, 4.018687091876669e+01, 3.640522980876770e+01, 8.109479242950277e+01, 1.622336655759876e+02
288, 5.000000000039439e-05, 9.199999999998614e-03, 1.223784953739690e-03, -1.032873031699734e-04, 4.024240384889156e+01, -2.673426764999044e+01, 6.649611400793161e+01, 1.489053633610707e+02
289, 1.000000000002848e-04, 9.199999999998171e-03, 1.222949140688141e-03, -1.123954224955941e-04, 3.765767568542922e+01, -8.685279142747633e+01, 4.610286284289298e+01, 1.549346709743056e+02
290, 1.500000000001625e-04, 9.199999999997726e-03, 1.222114170191637e-03, -1.215042943823879e-04, 3.212434401879530e+01, -1.433130934219459e+02, 2.010114829576145e+01, 1.799847746533211e+02
291, 2.000000000000664e-04, 9.199999999997280e-03, 1.221279945511635e-03, -1.306142187236170e-04, 2.333730219062062e+01, -1.954845396009192e+02, -1.131191036007655e+01, 2.199882626619414e+02
292, -1.999999999999080e-04, 9.100000000001274e-03, 1.209755267260013e-03, -5.608510415869382e-05, 2.243424902718634e+01, 3.586261484041852e+02, 9.147754603357674e+01, 3.827499953233373e+02
293, -1.499999999998017e-04, 9.100000000000802e-03, 1.208914073371720e-03, -6.519155074817678e-05, 3.028666467988267e+01, 2.761569104912103e+02, 1.015791295020666e+02, 3.189442834993490e+02
294, -9.999999999965405e-05, 9.100000000000334e-03, 1.208074181302330e-03, -7.429714637137385e-05, 3.655300718023359e+01, 1.942750641532573e+02, 1.045374372055319e+02, 2.618941587088262e+02
295, -4.999999999954905e-05, 9.099999999999862e-03, 1.207235566415375e-03, -8.340223750379244e-05, 4.088915620885386e+01, 1.136481542579708e+02, 1.005231757544204e+02, 2.138071730605122e+02
296, 5.257025283839090e-16, 9.099999999999390e-03, 1.206398188045079e-03, -9.250716848738213e-05, 4.297198488122703e+01, 3.495124766932840e+01, 8.970974247070747e+01, 1.795986742770251e+02
297, 5.000000000038422e-05, 9.099999999998916e-03, 1.205561989662925e-03, -1.016122812058272e-04, 4.248228122622661e+01, -4.114711177312864e+01, 7.227621690216250e+01, 1.670008427888745e+02
298, 1.000000000002772e-04, 9.099999999998446e-03, 1.204726898999436e-03, -1.107179148291887e-04, 3.910326977221237e+01, -1.139845662861858e+02, 4.840767946227215e+01, 1.811328221850787e+02
299, 1.500000000001581e-04, 9.099999999997978e-03, 1.203892828138917e-03, -1.198244055244340e-04, 3.251965723343486e+01, -1.829041027166106e+02, 1.829637995915467e+01, 2.185095568378048e+02
300, 2.000000000000645e-04, 9.099999999997506e-03, 1.203059673572151e-03, -1.289320861363529e-04, 2.241591737858336e+01, -2.472529641622369e+02, -1.785682375392856e+01, 2.720234737845108e+02
301, -1.999999999999099e-04, 9.000000000001736e-03, 1.191535830274986e-03, -5.442578003742412e-05, 2.537315845595950e+01, 4.165363291083034e+02, 1.057920750147876e+02, 4.447206748269441e+02
302, -1.499999999998060e-04, 9.000000000001264e-03, 1.190694409562844e-03, -6.352922517778720e-05, 3.358050920456459e+01, 3.188541946614696e+02, 1.155063345346627e+02, 3.670802758044878e+02
303, -9.999999999966160e-05, 9.000000000000792e-03, 1.189854516230546e-03, -7.263175759465002e-05, 3.995572084729081e+01, 2.219646835507808e+02, 1.173947461446787e+02, 2.970746845389129e+02
304, -4.999999999955923e-05, 9.000000000000320e-03, 1.189016120233500e-03, -8.173375842533303e-05, 4.416937256015376e+01, 1.265570955080096e+02, 1.116366883629065e+02, 2.379889443799427e+02
305, 5.128818376942679e-16, 8.999999999999852e-03, 1.188179175294847e-03, -9.083560625789428e-05, 4.589056835739731e+01, 3.331095199431365e+01, 9.841353594800894e+01, 1.972286565867206e+02
306, 5.000000000037403e-05, 8.999999999999380e-03, 1.187343619029565e-03, -9.993767702418460e-05, 4.479382294495678e+01, -5.709594826319795e+01, 7.791026936316848e+01, 1.861761686301874e+02
307, 1.000000000002695e-04, 8.999999999998908e-03, 1.186509373029132e-03, -1.090403437972473e-04, 4.055619917893454e+01, -1.439888668517625e+02, 5.031684034200870e+01, 2.101999502480605e+02
308, 1.500000000001538e-04, 8.999999999998436e-03, 1.185676342915573e-03, -1.181439765743189e-04, 3.285613636887795e+01, -2.266955466037354e+02, 1.582880696634764e+01, 2.614752008390615e+02
309, 2.000000000000626e-04, 8.999999999997964e-03, 1.184844418361750e-03, -1.272489420499609e-04, 2.137160652865200e+01, -3.045454629248177e+02, -2.535248118893463e+01, 3.298377318786905e+02
310, -1.999999999999118e-04, 8.900000000002187e-03, 1.173321644335238e-03, -5.276969434049774e-05, 2.849873960053738e+01, 4.798293322817808e+02, 1.210648253135267e+02, 5.121777734369009e+02
311, -1.499999999998104e-04, 8.900000000001712e-03, 1.172480027866687e-03, -6.186959554831837e-05, 3.704939322418713e+01, 3.655325716069094e+02, 1.301764051143266e+02, 4.191476879029304e+02
312, -9.999999999966923e-05, 8.900000000001240e-03, 1.171640184844971e-03, -7.096852433065896e-05, 4.351846092628350e+01, 2.522523674654475e+02, 1.307780414989378e+02, 3.346362626678286e+02
313, -4.999999999956943e-05, 8.900000000000770e-03, 1.170802079456262e-03, -8.006689666451945e-05, 4.757509357915973e+01, 1.406807707254189e+02, 1.230534583753461e+02, 2.631297808865343e+02
314, 5.000475944774707e-16, 8.900000000000293e-03, 1.169965659551494e-03, -8.916512584271210e-05, 4.889037921381640e+01, 3.150867887154718e+01, 1.071885333438451e+02, 2.150805668311454e+02
315, 5.000000000036387e-05, 8.899999999999823e-03, 1.169130856682512e-03, -9.826362236446785e-05, 4.713562168298763e+01, -7.457627089473092e+01, 8.337234218475328e+01, 2.064402445269247e+02
316, 1.000000000002620e-04, 8.899999999999349e-03, 1.168297586144183e-03, -1.073627937923752e-04, 4.198363462141917e+01, -1.768881350874753e+02, 5.179798578829780e+01, 2.421507317816780e+02
317, 1.500000000001494e-04, 8.899999999998874e-03, 1.167465747004019e-03, -1.164630445811319e-04, 3.310848392667662e+01, -2.747421286006773e+02, 1.266304046749812e+01, 3.088906117203839e+02
318, 2.000000000000606e-04, 8.899999999998404e-03, 1.166635222116015e-03, -1.255647759082699e-04, 2.018612929476688e+01, -3.674530640119886e+02, -3.383051574882039e+01, 3.934998848422155e+02
319, -1.999999999999137e-04, 8.800000000002590e-03, 1.155113784257347e-03, -5.111724354020624e-05, 3.185995521664007e+01, 5.486524617624709e+02, 1.373266379300785e+02, 5.852426135908407e+02
320, -1.499999999998147e-04, 8.800000000002060e-03, 1.154272010654124e-03, -6.021300839265150e-05, 4.070974968984564e+01, 4.163132174574914e+02, 1.456104964276633e+02, 4.752763739959343e+02
321, -9.999999999967683e-05, 8.800000000001532e-03, 1.153432276994960e-03, -6.930774357308564e-05, 4.722868044725185e+01, 2.852223486592299e+02, 1.446980703191069e+02, 3.746880199916803e+02
322, -4.999999999957961e-05, 8.800000000001001e-03, 1.152594541600549e-03, -7.840190010198249e-05, 5.108639215141561e+01, 1.560789101961398e+02, 1.347744445398484e+02, 2.892750117958177e+02
323, 4.872540088421418e-16, 8.800000000000474e-03, 1.151758746312144e-03, -8.749592630407639e-05, 5.195106244633111e+01, 2.958061227661332e+01, 1.160274285274932e+02, 2.331306366044713e+02
324, 5.000000000035368e-05, 8.799999999999947e-03, 1.150924816498131e-03, -9.659026767970335e-05, 4.949115064834165e+01, -9.357590425242286e+01, 8.864833887552081e+01, 2.278207500196922e+02
325, 1.000000000002544e-04, 8.799999999999419e-03, 1.150092661067796e-03, -1.056853667616413e-04, 4.337568917264924e+01, -2.126952033143103e+02, 5.283231909295956e+01, 2.770150135679097e+02
326, 1.500000000001451e-04, 8.799999999998892e-03, 1.149262172488454e-03, -1.147816629612960e-04, 3.327499304409537e+01, -3.270823837525530e+02, 8.778573024087521e+00, 3.607848283799065e+02
327, 2.000000000000587e-04, 8.799999999998365e-03, 1.148433226802880e-03, -1.238795924074261e-04, 1.886143414165006e+01, -4.360424346206332e+02, -4.330950815642690e+01, 4.630770819225447e+02
328, -1.999999999999156e-04, 8.700000000002964e-03, 1.136913423987473e-03, -4.946884587656956e-05, 3.538248615898284e+01, 6.230329608733039e+02, 1.546031129873631e+02, 6.640343143343575e+02
329, -1.499999999998191e-04, 8.700000000002345e-03, 1.136071539178671e-03, -5.855983182618062e-05, 4.450097725605603e+01, 4.712300297995735e+02, 1.618299551253884e+02, 5.355869880684454e+02
330, -9.999999999968445e-05, 8.700000000001731e-03, 1.135231981489089e-03, -6.764973341362240e-05, 5.103907212486327e+01, 3.209083784588620e+02, 1.591703102473749e+02, 4.173370258653981e+02
331, -4.999999999958977e-05, 8.700000000001117e-03, 1.134394703311017e-03, -7.673903697873111e-05, 5.466362676598378e+01, 1.727751808976568e+02, 1.468082710062864e+02, 3.164822474686693e+02
332, 4.743926605710325e-16, 8.700000000000502e-03, 1.133559640392418e-03, -8.582822621125819e-05, 5.504008066897249e+01, 2.753636976548805e+01, 1.249324585328737e+02, 2.513740855651897e+02
333, 5.000000000034347e-05, 8.699999999999888e-03, 1.132726711829287e-03, -9.491778199372509e-05, 5.183359705740428e+01, -1.141031482501352e+02, 9.373547605320535e+01, 2.503604627870450e+02
334, 1.000000000002468e-04, 8.699999999999274e-03, 1.131895820073469e-03, -1.040081822420581e-04, 4.470990163900132e+01, -2.514391641081707e+02, 5.341389408283754e+01, 3.148276440646424e+02
335, 1.500000000001407e-04, 8.699999999998657e-03, 1.131066850944395e-03, -1.130999017482926e-04, 3.333544365016218e+01, -3.837681770962088e+02, 4.168295415213809e+00, 4.171869235563435e+02
336, 2.000000000000568e-04, 8.699999999998044e-03, 1.130239673641996e-03, -1.221934120186616e-04, 1.737743929283894e+01, -5.103874266610400e+02, -5.379646364964723e+01, 5.386204523968125e+02
337, -1.999999999999175e-04, 8.600000000003331e-03, 1.118721834550099e-03, -4.782494052276692e-05, 3.909020084948905e+01, 7.030627431780883e+02, 1.729134371794189e+02, 7.486359355488535e+02
338, -1.499999999998235e-04, 8.600000000002632e-03, 1.117879892565491e-03, -5.691045465856408e-05, 4.843224279822007e+01, 5.303515497917251e+02, 1.788544709820513e+02, 6.001682310937308e+02
339, -9.999999999969208e-05, 8.600000000001931e-03, 1.117040585673006e-03, -6.599483224307223e-05, 5.494889459848135e+01, 3.593593290013142e+02, 1.742102907145720e+02, 4.626690114290606e+02
340, -4.999999999959999e-05, 8.600000000001230e-03, 1.116203860331487e-03, -7.507859529846797e-05, 5.830017548125915e+01, 1.908002276405585e+02, 1.591654050068862e+02, 3.448054066081934e+02
341, 4.615584173542353e-16, 8.600000000000526e-03, 1.115369646145501e-03, -8.416226325620588e-05, 5.814630540931365e+01, 2.538736382668906e+01, 1.339090738663058e+02, 2.698142110944877e+02
342, 5.000000000033329e-05, 8.599999999999825e-03, 1.114537855880200e-03, -9.324635275783097e-05, 5.414841192032850e+01, -1.361665649402618e+02, 9.863493142430713e+01, 2.741079882195302e+02
343, 1.000000000002392e-04, 8.599999999999124e-03, 1.113708385472314e-03, -1.023313774873777e-04, 4.596832278886150e+01, -2.931494267745939e+02, 5.354066951111894e+01, 3.556223576151784e+02
344, 1.500000000001364e-04, 8.599999999998423e-03, 1.112881114042335e-03, -1.114178480095505e-04, 3.326855702183602e+01, -4.448496396212821e+02, -1.172046694428143e+00, 4.781239428590488e+02
345, 2.000000000000548e-04, 8.599999999997722e-03, 1.112055903904425e-03, -1.205062716148670e-04, 1.571135544304773e+01, -5.905568045608620e+02, -6.529761714786531e+01, 6.201743279556830e+02
346, -1.999999999999195e-04, 8.500000000003703e-03, 1.100540386414777e-03, -4.618598705339985e-05, 4.296983760807383e+01, 7.887872086894195e+02, 1.922709429287962e+02, 8.391162094642215e+02
347, -1.499999999998278e-04, 8.500000000002915e-03, 1.099698449622930e-03, -5.526528574888856e-05, 5.250246569124410e+01, 5.937203809055120e+02, 1.966951580770211e+02, 6.690835318498399e+02
348, -9.999999999969967e-05, 8.500000000002127e-03, 1.098859476932169e-03, -6.434339809109576e-05, 5.896114648936526e+01, 4.006099491185447e+02, 1.898266646885720e+02, 5.107450977200880e+02
349, -4.999999999961013e-05, 8.500000000001340e-03, 1.098023408808106e-03, -7.342088226707060e-05, 6.199849766496655e+01, 2.101767760341592e+02, 1.718512423105949e+02, 3.742835824815686e+02
350, 4.487512791917503e-16, 8.500000000000552e-03, 1.097190168667256e-03, -8.249829384690076e-05, 6.127075440252192e+01, 2.314229367101544e+01, 1.429593913439159e+02, 2.884498740014383e+02
351, 5.000000000032310e-05, 8.499999999999765e-03, 1.096359662898723e-03, -9.157618561685650e-05, 5.643503829205491e+01, -1.597729030576840e+02, 1.033456912436620e+02, 2.991106843581711e+02
352, 1.000000000002316e-04, 8.499999999998977e-03, 1.095531780882624e-03, -1.006551074088210e-04, 4.714931764750122e+01, -3.378487949893438e+02, 5.320874666927784e+01, 3.994348878382988e+02
353, 1.500000000001320e-04, 8.499999999998190e-03, 1.094706395003303e-03, -1.097356059410043e-04, 3.307233951957035e+01, -5.103657932734313e+02, -7.248917743781277e+00, 5.436314849301580e+02
354, 2.000000000000531e-04, 8.499999999997402e-03, 1.093883360660958e-03, -1.188182246642438e-04, 1.386408995336356e+01, -6.766041589019321e+02, -7.782114297671887e+01, 7.077929950586613e+02
355, -1.999999999999213e-04, 8.400000000004074e-03, 1.082370550566952e-03, -4.455246504925267e-05, 4.710007074465781e+01, 8.803349173632078e+02, 2.126705516856156e+02, 9.355187672283730e+02
356, -1.499999999998322e-04, 8.400000000003200e-03, 1.081528690244451e-03, -5.362475347979950e-05, 5.676971482533046e+01, 6.614306548112814e+02, 2.153483941183392e+02, 7.423709152048482e+02
357, -9.999999999970726e-05, 8.400000000002326e-03, 1.080690144127340e-03, -6.269580817530905e-05, 6.311478249335902e+01, 4.447243064418544e+02, 2.060160817307689e+02, 5.616015780738090e+02
358, -4.999999999962035e-05, 8.400000000001451e-03, 1.079854846674256e-03, -7.176622390251436e-05, 6.578564617762100e+01, 2.309454436392478e+02, 1.848626177916255e+02, 4.049376600473905e+02
359, 4.359305885021092e-16, 8.400000000000581e-03, 1.079022715095443e-03, -8.083659278973685e-05, 6.443302977043871e+01, 2.082183408435958e+01, 1.520799353519906e+02, 3.072705051511324e+02
360, 5.000000000031294e-05, 8.399999999999703e-03, 1.078193649392847e-03, -8.990750415542022e-05, 5.870946846772712e+01, -1.849190285086347e+02, 1.078637469581264e+02, 3.254123479070025e+02
361, 1.000000000002240e-04, 8.399999999998832e-03, 1.077367532382108e-03, -9.897954435936905e-05, 4.826861698021189e+01, -3.855499335211194e+02, 5.241348205152004e+01, 4.463039627452754e+02
362, 1.500000000001277e-04, 8.399999999997958e-03, 1.076544229707921e-03, -1.080532966501082e-04, 3.276510398750139e+01, -5.803438211583962e+02, -1.406761756504002e+01, 6.137541409631243e+02
363, 2.000000000000511e-04, 8.399999999997083e-03, 1.075723589856387e-03, -1.171293410115564e-04, 1.185534703693042e+01, -7.685731664117369e+02, -9.137226313180098e+01, 8.015386618766464e+02
364, -1.999999999999233e-04, 8.300000000004210e-03, 1.064213903518045e-03, -4.292487514319839e-05, 5.139738148835364e+01, 9.777015401629665e+02, 2.341180128561751e+02, 1.037923104161758e+03
365, -1.499999999998365e-04, 8.300000000003279e-03, 1.063372199037716e-03, -5.198930656011907e-05, 6.117903810925543e+01, 7.334877833022238e+02, 2.348127443393181e+02, 8.200897197743618e+02
366, -9.999999999971485e-05, 8.300000000002344e-03, 1.062534180350512e-03, -6.105245936378991e-05, 6.737876772764895e+01, 4.917128867205610e+02, 2.227752397419773e+02, 6.152842223800906e+02
367, -4.999999999963053e-05, 8.300000000001409e-03, 1.061699775787004e-03, -7.011496531870232e-05, 6.964344507641256e+01, 2.531132888598736e+02, 1.981952475016414e+02, 4.367912637712379e+02
368, 4.231098978124681e-16, 8.300000000000474e-03, 1.060868896292220e-03, -7.917745346565172e-05, 6.762214807501240e+01, 1.842480780307167e+01, 1.612663282702426e+02, 3.262632262834654e+02
369, 5.000000000030276e-05, 8.299999999999542e-03, 1.060041435447753e-03, -8.824055001690662e-05, 6.096466070327645e+01, -2.116174167663990e+02, 1.121851354055357e+02, 3.530481658095927e+02
370, 1.000000000002164e-04, 8.299999999998609e-03, 1.059217269490100e-03, -9.730487821896051e-05, 4.932128320466302e+01, -4.362788182667968e+02, 5.115175729272790e+01, 4.962594761267825e+02
371, 1.500000000001233e-04, 8.299999999997672e-03, 1.058396257322067e-03, -1.063710582139596e-04, 3.234278470812363e+01, -6.548250434039193e+02, -2.163011053678462e+01, 6.885281916665114e+02
372, 2.000000000000492e-04, 8.299999999996739e-03, 1.057578240517773e-03, -1.154397068931357e-04, 9.679620980547014e+00, -8.665223283090729e+02, -1.059527998183798e+02, 9.014620563819336e+02
373, -1.999999999999252e-04, 8.200000000004194e-03, 1.046072124724313e-03, -4.130373852097476e-05, 5.596013579998397e+01, 1.081038678779071e+03, 2.566037892807894e+02, 1.146371684040201e+03
374, -1.499999999998408e-04, 8.200000000003217e-03, 1.045230664421167e-03, -5.035941372293290e-05, 6.579009013557348e+01, 8.099963735653007e+02, 2.550813335642697e+02, 9.022798563793788e+02
375, -9.999999999972244e-05, 8.200000000002240e-03, 1.044393282933014e-03, -5.941376814797259e-05, 7.178412447145709e+01, 5.416432159065746e+02, 2.400963025098164e+02, 6.718277336637535e+02
376, -4.999999999964069e-05, 8.200000000001265e-03, 1.043559902458175e-03, -6.846747080730566e-05, 7.358647457645640e+01, 2.767201453476417e+02, 2.118414857764001e+02, 4.698622655468166e+02
377, 4.102892071228270e-16, 8.200000000000287e-03, 1.042730427661627e-03, -7.752118799102722e-05, 7.084270511257290e+01, 1.596891918379220e+01, 1.705113713787376e+02, 3.454093853096479e+02
378, 5.000000000029257e-05, 8.199999999999309e-03, 1.041904745695583e-03, -8.657558313595294e-05, 6.319846398067896e+01, -2.398698602877902e+02, 1.163034649871867e+02, 3.820423969234318e+02
379, 1.000000000002088e-04, 8.199999999998328e-03, 1.041082726217532e-03, -9.563131670880400e-05, 5.030002535566116e+01, -4.900556773396111e+02, 4.941829344609440e+01, 5.493204495954967e+02
380, 1.500000000001190e-04, 8.199999999997352e-03, 1.040264221397907e-03, -1.046890460865081e-04, 3.179379215230709e+01, -7.338479827188104e+02, -2.994042525686106e+01, 7.679798458853210e+02
381, 2.000000000000473e-04, 8.199999999996377e-03, 1.039449065915644e-03, -1.137494254337251e-04, 7.325721445468744e+00, -9.705059295609979e+02, -1.215656562386902e+02, 1.007604869389289e+03
382, -1.999999999999271e-04, 8.100000000004175e-03, 1.027947002143535e-03, -3.968959758509049e-05, 6.067780098372609e+01, 1.190325173894716e+03, 2.801327737923192e+02, 1.260952287334860e+03
383, -1.499999999998452e-04, 8.100000000003150e-03, 1.027105882282933e-03, -4.873556443434916e-05, 7.052838560320797e+01, 8.909536501538023e+02, 2.761516026800690e+02, 9.890078085455117e+02
384, -9.999999999973005e-05, 8.100000000002133e-03, 1.026269256074162e-03, -5.778017110835411e-05, 7.628082305048905e+01, 5.945174668442370e+02, 2.579750479235377e+02, 7.312822439901125e+02
385, -4.999999999965090e-05, 8.100000000001112e-03, 1.025437039501084e-03, -6.682412419350808e-05, 7.758155932157089e+01, 3.017684372510598e+02, 2.257954126273835e+02, 5.041765858209335e+02
386, 3.974685164331859e-16, 8.100000000000092e-03, 1.024609130881793e-03, -7.586812751046441e-05, 7.407205167970096e+01, 1.345185783624247e+01, 1.798083354485464e+02, 3.646902218167173e+02
387, 5.000000000028236e-05, 8.099999999999071e-03, 1.023785410903597e-03, -8.491288200741298e-05, 6.539528903358080e+01, -2.696863460207572e+02, 1.202118971317806e+02, 4.124115699138129e+02
388, 1.000000000002012e-04, 8.099999999998051e-03, 1.022965742635026e-03, -9.395908566345716e-05, 5.119458044315280e+01, -5.469000296360459e+02, 4.720671758420167e+01, 6.055006683283571e+02
389, 1.500000000001146e-04, 8.099999999997031e-03, 1.022149971527777e-03, -1.030074333907765e-04, 3.111331220297061e+01, -8.174424651406237e+02, -3.900391052332175e+01, 8.521338670699791e+02
390, 2.000000000000454e-04, 8.099999999996011e-03, 1.021337925407651e-03, -1.120586169397230e-04, 4.794619483698284e+00, -1.080566058413381e+03, -1.382139274556796e+02, 1.120009000006742e+03
391, -1.999999999999291e-04, 8.000000000004158e-03, 1.009840428451257e-03, -3.808301565911855e-05, 6.555354768519402e+01, 1.305601345426884e+03, 3.047154157790069e+02, 1.381710707470094e+03
392, -1.499999999998495e-04, 8.000000000003093e-03, 1.008999754011895e-03, -4.711826840794599e-05, 7.538673778182986e+01, 9.763842521328190e+02, 2.980300853883277e+02, 1.080316735061045e+03
393, -9.999999999973761e-05, 8.000000000002028e-03, 1.008164010003457e-03, -5.615212460316095e-05, 8.086658252845058e+01, 6.503607850046960e+02, 2.764115774908175e+02, 7.936857610779621e+02
394, -4.999999999966106e-05, 8.000000000000966e-03, 1.007333106079403e-03, -6.518532863773059e-05, 8.162602863825313e+01, 3.282762041383318e+02, 2.400536114650718e+02, 5.397585150638332e+02
395, 3.846478257435448e-16, 7.999999999999901e-03, 1.006506934169289e-03, -7.421862207826625e-05, 7.730763251470688e+01, 1.088260720722801e+01, 1.891521690942968e+02, 3.840917289911475e+02
396, 5.000000000027218e-05, 7.999999999998840e-03, 1.005685368483348e-03, -8.325274361388106e-05, 6.755331619304248e+01, -3.010683451186393e+02, 1.239050862515680e+02, 4.441754279383521e+02
397, 1.000000000001936e-04, 7.999999999997775e-03, 1.004868265514851e-03, -9.228842897835960e-05, 5.200473747322449e+01, -6.068246491219380e+02, 4.451242176127364e+01, 6.648169548120536e+02
398, 1.500000000001103e-04, 7.999999999996709e-03, 1.004055464032851e-03, -1.013264108710549e-04, 3.030318355850190e+01, -9.056336457179998e+02, -4.882338319135010e+01, 9.410168114232334e+02
399, 2.000000000000435e-04, 7.999999999995648e-03, 1.003246785070062e-03, -1.103674188739476e-04, 2.089766165121489e+00, -1.196741527239597e+03, -1.558974741162762e+02, 1.238714075075346e+03
400, -1.999999999999309e-04, 7.900000000004136e-03, 9.917544017838996e-04, -3.648457459428807e-05, 7.075700904289840e+01, 1.427059357645106e+03, 3.303184744981816e+02, 1.508640858257222e+03
401, -1.499999999998538e-04, 7.900000000003030e-03, 9.909142874727492e-04, -4.550805415938637e-05, 8.049210004854807e+01, 1.066439736237593e+03, 3.206907462866724e+02, 1.176207022731278e+03
402, -9.999999999974523e-05, 7.900000000001926e-03, 9.900795619288139e-04, -5.453010388256865e-05, 8.561292933207143e+01, 7.092704016798051e+02, 2.953860486926675e+02, 8.590461651530912e+02
403, -4.999999999967128e-05, 7.900000000000816e-03, 9.892501285958569e-04, -6.355150610184078e-05, 8.576037573084926e+01, 3.563049446403980e+02, 2.546012350183943e+02, 5.766121046752489e+02
404, 3.718271350539037e-16, 7.899999999999709e-03, 9.884258730934361e-04, -7.257304033945778e-05, 8.057164758056182e+01, 8.296143180405693e+00, 1.985319170508734e+02, 4.035882021168068e+02
405, 5.000000000026201e-05, 7.899999999998603e-03, 9.876066632277666e-04, -8.159548323737054e-05, 6.968487788221059e+01, -3.340014957314818e+02, 1.273754370490913e+02, 4.773475632022873e+02
406, 1.000000000001860e-04, 7.899999999997496e-03, 9.867923489856930e-04, -9.061960850587968e-05, 5.273821759811980e+01, -6.698322380375996e+02, 4.133104428688971e+01, 7.272833589770843e+02
407, 1.500000000001060e-04, 7.899999999996389e-03, 9.859827625252188e-04, -9.964618685747093e-05, 2.936947418544189e+01, -9.984393195834053e+02, -5.939985276289350e+01, 1.034651770684991e+03
408, 2.000000000000416e-04, 7.899999999995286e-03, 9.851777181609121e-04, -1.086759859348640e-04, -7.836807898083151e-01, -1.319064614168023e+03, -1.746134376870563e+02, 1.363753654364344e+03
409, -1.999999999999328e-04, 7.800000000004094e-03, 9.736910356033002e-04, -3.489487786507543e-05, 7.601690883897471e+01, 1.554544375523225e+03, 3.569486819971419e+02, 1.641856545517218e+03
410, -1.499999999998583e-04, 7.800000000002947e-03, 9.728516030939635e-04, -4.390547108048040e-05, 8.564665431650705e+01, 1.161018596475669e+03, 3.441295640147770e+02, 1.276763659139455e+03
411, -9.999999999975283e-05, 7.800000000001799e-03, 9.720180399165570e-04, -5.291460435640043e-05, 9.039472266490296e+01, 7.711914666003954e+02, 3.148943626223655e+02, 9.274254929634789e+02
412, -4.999999999968147e-05, 7.800000000000654e-03, 9.711902432082462e-04, -6.192309813038200e-05, 8.990338737162823e+01, 3.858226482140831e+02, 2.694346008021282e+02, 6.147749387988692e+02
413, 3.590064443642627e-16, 7.799999999999507e-03, 9.703680922596102e-04, -7.093177000705275e-05, 8.381118772715588e+01, 5.670176498011543e+00, 2.079451304023303e+02, 4.231674924519627e+02
414, 5.000000000025183e-05, 7.799999999998360e-03, 9.695514484794640e-04, -7.994143475731961e-05, 7.175553683383301e+01, -3.685064356937975e+02, 1.306222092873984e+02, 5.119367643473202e+02
415, 1.000000000001784e-04, 7.799999999997211e-03, 9.687401553745956e-04, -8.895290425950747e-05, 5.337305572890972e+01, -7.359465454304286e+02, 3.766406233408405e+01, 7.929058955136859e+02
416, 1.500000000001016e-04, 7.799999999996065e-03, 9.679340385336302e-04, -9.796698743646269e-05, 2.829977263768123e+01, -1.095888365814484e+03, -7.072904385380377e+01, 1.133053114913170e+03
417, 2.000000000000397e-04, 7.799999999994919e-03, 9.671329056118182e-04, -1.069844901945312e-04, -3.830080727884088e+00, -1.447569998521088e+03, -1.943547280318066e+02, 1.495152163314089e+03
418, -1.999999999999347e-04, 7.700000000003952e-03, 9.556525467663381e-04, -3.331454902189902e-05, 8.145716592181688e+01, 1.688198868408792e+03, 3.846066050024759e+02, 1.781378079172658e+03
419, -1.499999999998626e-04, 7.700000000002785e-03, 9.548139267535197e-04, -4.231108829992121e-05, 9.091704388195740e+01, 1.260211194752444e+03, 3.683551120872052e+02, 1.382024155238627e+03
420, -9.999999999976044e-05, 7.700000000001617e-03, 9.539816786243306e-04, -5.130614093361116e-05, 9.524214607670481e+01, 8.361805411726288e+02, 3.349419054776896e+02, 9.988663701954462e+02
421, -4.999999999969162e-05, 7.700000000000449e-03, 9.531556933275702e-04, -6.030056541366331e-05, 9.406658906707915e+01, 4.168621986296168e+02, 2.845581761690951e+02, 6.542861973567661e+02
422, 3.461857536746216e-16, 7.699999999999279e-03, 9.523358438934587e-04, -6.929521756417527e-05, 8.702815669716408e+01, 3.019550635750207e+00, 2.173960052617841e+02, 4.428335334044933e+02
423, 5.000000000024164e-05, 7.699999999998113e-03, 9.515219853872822e-04, -7.829095044605621e-05, 7.376210845926859e+01, -4.045835948596219e+02, 1.336499398799725e+02, 5.479633542522027e+02
424, 1.000000000001708e-04, 7.699999999996944e-03, 9.507139548819387e-04, -8.728861428612332e-05, 5.390260663913328e+01, -8.051822529782359e+02, 3.351678900312913e+01, 8.616961741844488e+02
425, 1.500000000000973e-04, 7.699999999995776e-03, 9.499115714393432e-04, -9.628905640295297e-05, 2.708318398197696e+01, -1.198010250780636e+03, -8.280437202026931e+01, 1.236236296183356e+03
426, 2.000000000000377e-04, 7.699999999994609e-03, 9.491146360984174e-04, -1.052931211349471e-04, -7.062427623941886e+00, -1.582299635714373e+03, -2.151126483724408e+02, 1.632931740065015e+03
427, -1.999999999999367e-04, 7.600000000003967e-03, 9.376412614349685e-04, -3.174422990987843e-05, 8.706305622311953e+01, 1.828048476199621e+03, 4.132803714728520e+02, 1.927234519810630e+03
428, -1.499999999998669e-04, 7.600000000002791e-03, 9.368035931315822e-04, -4.072549376048865e-05, 9.630516107983155e+01, 1.364056134373283e+03, 3.933575934942398e+02, 1.492016526625900e+03
429, -9.999999999976803e-05, 7.600000000001615e-03, 9.359728213053469e-04, -4.970524725403968e-05, 1.001531700448243e+02, 9.042629385494857e+02, 3.555263555560721e+02, 1.073400427512748e+03
430, -4.999999999970180e-05, 7.600000000000435e-03, 9.351488308756755e-04, -5.868438718304734e-05, 9.824901272080321e+01, 4.494400879241390e+02, 2.999733348888556e+02, 6.951770838281719e+02
431, 3.333650629849805e-16, 7.599999999999259e-03, 9.343314887106906e-04, -6.766380776660110e-05, 9.022464647291145e+01, 3.529485846893294e-01, 2.268885404279046e+02, 4.625911382542164e+02
432, 5.000000000023146e-05, 7.599999999998081e-03, 9.335206436073941e-04, -7.664440054604396e-05, 7.571176112626824e+01, -4.422309934843510e+02, 1.364647008685645e+02, 5.854529489089821e+02
433, 1.000000000001632e-04, 7.599999999996904e-03, 9.327161262715386e-04, -8.562705429013723e-05, 5.434137915664523e+01, -8.775427518713410e+02, 2.889709670275280e+01, 9.336745698867340e+02
434, 1.500000000000929e-04, 7.599999999995727e-03, 9.319177493018086e-04, -9.461265490816876e-05, 2.574424597975568e+01, -1.304811730533203e+03, -9.561650009314764e+01, 1.344228130562148e+03
435, 2.000000000000358e-04, 7.599999999994550e-03, 9.311253071794841e-04, -1.036020853646960e-04, -1.044774994433780e+01, -1.723265169946774e+03, -2.368755325643762e+02, 1.777127903662094e+03
436, -1.999999999999386e-04, 7.500000000004145e-03, 9.196596157043958e-04, -3.018458218434870e-05, 9.273365970578092e+01, 1.974042694946600e+03, 4.429728211633938e+02, 2.079476705144004e+03
437, -1.499999999998712e-04, 7.500000000002950e-03, 9.188230461951004e-04, -3.914929446815395e-05, 1.017274801480341e+02, 1.472504443801689e+03, 4.191433730571381e+02, 1.606783791552054e+03
438, -9.999999999977570e-05, 7.500000000001755e-03, 9.179939201885037e-04, -4.811247561729304e-05, 1.050818405533658e+02, 9.754144877504787e+02, 3.766534735131116e+02, 1.151064843184389e+03
439, -4.999999999971198e-05, 7.500000000000564e-03, 9.171721165749555e-04, -5.707506096055127e-05, 1.024240829445516e+02, 4.835415110682069e+02, 3.156865288541252e+02, 7.374838520397959e+02
440, 3.205443722953394e-16, 7.499999999999370e-03, 9.163574960936484e-04, -6.603798332372944e-05, 9.338544363301844e+01, -2.342355674406065e+00, 2.364306396012968e+02, 4.824537293143828e+02
441, 5.000000000022125e-05, 7.499999999998177e-03, 9.155499013188766e-04, -7.500217291886625e-05, 7.759598637582479e+01, -4.814641855470749e+02, 1.390766485066477e+02, 6.244337694822635e+02
442, 1.000000000001556e-04, 7.499999999996980e-03, 9.147491566447065e-04, -8.396855724795117e-05, 5.468493715390572e+01, -9.530496720178095e+02, 2.381801138876917e+01, 1.008859867964095e+03
443, 1.500000000000885e-04, 7.499999999995787e-03, 9.139550682660700e-04, -9.293806101234903e-05, 2.428063389738760e+01, -1.416323121961703e+03, -1.091491149952587e+02, 1.457049518243053e+03
444, 2.000000000000339e-04, 7.499999999994593e-03, 9.131674241602214e-04, -1.019116060139708e-04, -1.399018291471084e+01, -1.870508129399768e+03, -2.596255441221516e+02, 1.927765695893561e+03
445, -1.999999999999404e-04, 7.400000000004559e-03, 9.017101508068311e-04, -2.863628463999889e-05, 9.865970876027504e+01, 2.126366523922049e+03, 4.736530608843388e+02, 2.238075918416066e+03
446, -1.499999999998756e-04, 7.400000000003323e-03, 9.008748368064480e-04, -3.758311476244027e-05, 1.073287188363841e+02, 1.585693346646629e+03, 4.456933985816596e+02, 1.726305996895569e+03
447, -9.999999999978329e-05, 7.400000000002085e-03, 9.000475354124362e-04, -4.652839573186863e-05, 1.101168924254644e+02, 1.049720734027847e+03, 3.983106728627719e+02, 1.231852648501245e+03
448, -4.999999999972218e-05, 7.400000000000849e-03, 8.992281196322752e-04, -5.547310169498357e-05, 1.066458066762792e+02, 5.192181902440980e+02, 3.316908343447150e+02, 7.812113734681568e+02
449, 3.077507866600104e-16, 7.399999999999613e-03, 8.984164441963980e-04, -6.441820431660008e-05, 9.654129455189440e+01, -5.039727871327642e+00, 2.460204995182459e+02, 5.024172059647003e+02
450, 5.000000000021107e-05, 7.399999999998373e-03, 8.976123455668168e-04, -7.336467268708823e-05, 7.942956426196277e+01, -5.222764765214629e+02, 1.414886765537470e+02, 6.649258168299594e+02
451, 1.000000000001480e-04, 7.399999999997137e-03, 8.968156419250574e-04, -8.231347324366336e-05, 5.493619607049845e+01, -1.031713779660157e+03, 1.828678808555840e+01, 1.087265283281582e+03
452, 1.500000000000842e-04, 7.399999999995899e-03, 8.960261331517505e-04, -9.126556968975745e-05, 2.268557272845501e+01, -1.532571746080289e+03, -1.233912028560066e+02, 1.574714857832101e+03
453, 2.000000000000320e-04, 7.399999999994663e-03, 8.952436007964759e-04, -1.002219229145783e-04, -1.769985089493616e+01, -2.024068988398945e+03, -2.833486279204469e+02, 2.084865198449574e+03
454, -1.999999999999424e-04, 7.300000000004963e-03, 8.837955239011848e-04, -2.710003478474422e-05, 1.047091873319218e+02, 2.284967659791668e+03, 5.052970140211106e+02, 2.403087034679998e+03
455, -1.499999999998800e-04, 7.300000000003675e-03, 8.829616297705345e-04, -3.602759719626385e-05, 1.130293172500953e+02, 1.703602111767710e+03, 4.729807464259833e+02, 1.850612050273718e+03
456, -9.999999999979085e-05, 7.300000000002383e-03, 8.821363397862024e-04, -4.495359519024790e-05, 1.152122412208959e+02, 1.127175499451012e+03, 4.204779819886402e+02, 1.315779833162323e+03
457, -4.999999999973237e-05, 7.300000000001096e-03, 8.813195210776504e-04, -5.387904198027222e-05, 1.108867039617106e+02, 5.564682936484224e+02, 3.479727419609244e+02, 8.263673938745123e+02
458, 2.949029909160572e-16, 7.299999999999806e-03, 8.805110224307704e-04, -6.280494827091590e-05, 9.967640979448572e+01, -7.741402569316051e+00, 2.556505475844632e+02, 5.224628181353850e+02
459, 5.000000000020089e-05, 7.299999999998517e-03, 8.797106742786455e-04, -7.173232222964276e-05, 8.120470374500388e+01, -5.646733090294138e+02, 1.436985464783190e+02, 7.069338699095956e+02
460, 1.000000000001404e-04, 7.299999999997227e-03, 8.789182886848099e-04, -8.066216942781007e-05, 5.509412897221372e+01, -1.113545045813317e+03, 1.230594654134723e+01, 1.168898312995840e+03
461, 1.500000000000799e-04, 7.299999999995936e-03, 8.781336593181502e-04, -8.959549277737049e-05, 2.096622620052122e+01, -1.653571928536327e+03, -1.383358219588443e+02, 1.697240475070520e+03
462, 2.000000000000302e-04, 7.299999999994650e-03, 8.773565614212275e-04, -9.853329246851981e-05, -2.155874803227488e+01, -2.183966810099610e+03, -3.080331334487998e+02, 2.248454196131856e+03
463, -1.999999999999443e-04, 7.200000000005343e-03, 8.659185038550777e-04, -2.557654956686563e-05, 1.108619006321086e+02, 2.449876154868498e+03, 5.378974483111584e+02, 2.574552842945671e+03
464, -1.499999999998843e-04, 7.200000000003976e-03, 8.650862017354492e-04, -3.448340298451858e-05, 1.187938320503527e+02, 1.826240749045544e+03, 5.009976263044700e+02, 1.979739745675486e+03
465, -9.999999999979844e-05, 7.200000000002606e-03, 8.642631178635603e-04, -4.338867974225477e-05, 1.203409993402348e+02, 1.207788163852654e+03, 4.431464744433697e+02, 1.402874380282302e+03
466, -4.999999999974257e-05, 7.200000000001237e-03, 8.634491135160988e-04, -5.229343216020679e-05, 1.151275580232314e+02, 5.952982529425963e+02, 3.645253212949095e+02, 8.729712112778827e+02
467, 2.821094052807283e-16, 7.199999999999870e-03, 8.626440315897304e-04, -6.119871012102590e-05, 1.027775987574457e+02, -1.044592322586493e+01, 2.653171856876203e+02, 5.425793969688694e+02
468, 5.000000000019069e-05, 7.199999999998501e-03, 8.618476965693521e-04, -7.010556102612353e-05, 8.291306735496343e+01, -6.086598364521323e+02, 1.457067304156370e+02, 7.504631146391133e+02
469, 1.000000000001328e-04, 7.199999999997132e-03, 8.610599144985377e-04, -7.901502975162091e-05, 5.515436510018074e+01, -1.198556811537288e+03, 5.880457316021470e+00, 1.253766339290814e+03
470, 1.500000000000756e-04, 7.199999999995762e-03, 8.602804729466692e-04, -8.792815859705028e-05, 1.912034508807872e+01, -1.779347877145839e+03, -1.539730815236611e+02, 1.824642097979984e+03
471, 2.000000000000282e-04, 7.199999999994395e-03, 8.595091409731013e-04, -9.684598722843023e-05, -2.557081068164547e+01, -2.350240885062033e+03, -3.336631692046361e+02, 2.418556469602156e+03
472, -1.999999999999461e-04, 7.100000000005715e-03, 8.480819702381974e-04, -2.406656313165407e-05, 1.171960876506208e+02, 2.621195740195044e+03, 5.714258284981437e+02, 2.752476007132806e+03
473, -1.499999999998886e-04, 7.100000000004259e-03, 8.472514406327343e-04, -3.295121080639529e-05, 1.246745820178207e+02, 1.953689352781495e+03, 5.297234374862863e+02, 2.113698822576397e+03
474, -9.999999999980600e-05, 7.100000000002804e-03, 8.464307657530153e-04, -4.183427251092663e-05, 1.255291346017216e+02, 1.291610818558968e+03, 4.663016485893564e+02, 1.493149491366881e+03
475, -4.999999999975274e-05, 7.100000000001348e-03, 8.456198011818444e-04, -5.071683977705010e-05, 1.193817476343933e+02, 6.357416885977827e+02, 3.813394064235432e+02, 9.210355911676575e+02
476, 2.692616095367750e-16, 7.099999999999895e-03, 8.448183840600840e-04, -5.960000177572390e-05, 1.058532016147231e+02, -1.313335605738126e+01, 2.750167009744821e+02, 5.627562031343662e+02
477, 5.000000000018050e-05, 7.099999999998441e-03, 8.440263330556899e-04, -6.848484527832687e-05, 8.456309876003107e+01, -6.542266006182515e+02, 1.475151589813647e+02, 7.955206524186800e+02
478, 1.000000000001252e-04, 7.099999999996985e-03, 8.432434483276427e-04, -7.737245461551612e-05, 5.512942143812253e+01, -1.286747723888845e+03, -9.818043806264285e-01, 1.341878582029767e+03
479, 1.500000000000712e-04, 7.099999999995530e-03, 8.424695114898453e-04, -8.626391163145107e-05, 1.716860222112211e+01, -1.909903682150142e+03, -1.702888521061378e+02, 1.956936575824160e+03
480, 2.000000000000263e-04, 7.099999999994075e-03, 8.417042855725845e-04, -9.516029563700380e-05, -2.970507248956045e+01, -2.522899229595116e+03, -3.602183670326213e+02, 2.595196754162558e+03
481, -1.999999999999481e-04, 7.000000000006086e-03, 8.302889179057429e-04, -2.257082750446695e-05, 1.235958204884512e+02, 2.798877028622256e+03, 6.058617516506238e+02, 2.936903708167245e+03
482, -1.499999999998929e-04, 7.000000000004546e-03, 8.294603484819273e-04, -3.143171691111273e-05, 1.305940531930949e+02, 2.085924054121179e+03, 5.591411674004852e+02, 2.252525425574000e+03
483, -9.999999999981362e-05, 7.000000000003004e-03, 8.286422928714722e-04, -4.029101393584812e-05, 1.307256694792035e+02, 1.378633978922330e+03, 4.899318187075845e+02, 1.586634140785357e+03
484, -4.999999999976293e-05, 7.000000000001462e-03, 8.278346010523683e-04, -4.914984941237162e-05, 1.236130858576235e+02, 6.777925782048756e+02, 3.984086067056657e+02, 9.705836292287530e+02
485, 2.564544713742900e-16, 6.999999999999921e-03, 8.270371045204434e-04, -5.800935190277910e-05, 1.088762697535986e+02, -1.581158900529351e+01, 2.847481011206343e+02, 5.829862661239159e+02
486, 5.000000000017032e-05, 6.999999999998381e-03, 8.262496162410070e-04, -6.687064766798362e-05, 8.613278137242818e+01, -7.013874885013046e+02, 1.491285153815736e+02, 8.421077317431814e+02
487, 1.000000000001176e-04, 6.999999999996837e-03, 8.254719306087312e-04, -7.573486062343118e-05, 5.499831851831121e+01, -1.378141260613802e+03, -8.270122293382990e+00, 1.433235023632189e+03
488, 1.500000000000668e-04, 6.999999999995296e-03, 8.247038234068052e-04, -8.460311229619657e-05, 1.508672872376076e+01, -2.045276203176320e+03, -1.872658836736048e+02, 2.094127373370617e+03
489, 2.000000000000244e-04, 6.999999999993755e-03, 8.239450517651963e-04, -9.347652178058391e-05, -3.399051136497769e+01, -2.701992973212525e+03, -3.876751005912515e+02, 2.778381735992792e+03
490, -1.999999999999499e-04, 6.900000000006458e-03, 8.125424531037879e-04, -2.109011169914274e-05, 1.301067198601586e+02, 2.982996577223631e+03, 6.411839767199547e+02, 3.127850397039001e+03
491, -1.499999999998973e-04, 6.900000000004828e-03, 8.117160392145182e-04, -2.992563439972669e-05, 1.365720668743895e+02, 2.222995032893962e+03, 5.892358503885724e+02, 2.396237956186006e+03
492, -9.999999999982122e-05, 6.900000000003202e-03, 8.109008207710061e-04, -3.875956114998265e-05, 1.359374175360373e+02, 1.468890488562713e+03, 5.140269420719920e+02, 1.683347462131029e+03
493, -4.999999999977310e-05, 6.900000000001573e-03, 8.100966423187307e-04, -4.759306215098633e-05, 1.278238855248221e+02, 7.214725088270941e+02, 4.157280509358008e+02, 1.021634933470955e+03
494, 2.436337806846489e-16, 6.899999999999946e-03, 8.093033298526405e-04, -5.642730546856758e-05, 1.118483240663733e+02, -1.846812682744672e+01, 2.945117382606473e+02, 6.032669668287778e+02
495, 5.000000000016015e-05, 6.899999999998319e-03, 8.085206907791704e-04, -6.526345696872325e-05, 8.762573762328850e+01, -7.501375212720122e+02, 1.505524532355823e+02, 8.902311175508772e+02
496, 1.000000000001100e-04, 6.899999999996692e-03, 8.077485138731941e-04, -7.410268027649291e-05, 5.476924659814799e+01, -1.472738564185825e+03, -1.597354470358314e+01, 1.527841853245169e+03
497, 1.500000000000625e-04, 6.899999999995065e-03, 8.069865692344297e-04, -8.294613673296496e-05, 1.289009118099057e+01, -2.185470946944042e+03, -2.048881087320925e+02, 2.236226241314914e+03
498, 2.000000000000225e-04, 6.899999999993437e-03, 8.062346082434176e-04, -9.179498535493860e-05, -3.840140033753894e+01, -2.887530464680036e+03, -4.160111288839467e+02, 2.968130297460395e+03
499, -1.999999999999519e-04, 6.800000000006828e-03, 7.948457960454600e-04, -1.962520103428790e-05, 1.366820538848222e+02, 3.173549078297592e+03, 6.773679649481699e+02, 3.325337691681519e+03
500, -1.499999999999017e-04, 6.800000000005111e-03, 7.940217402105157e-04, -2.843369260896592e-05, 1.425760761791853e+02, 2.364903023786763e+03, 6.199896104867560e+02, 2.544854716974800e+03
501, -9.999999999982880e-05, 6.800000000003401e-03, 7.932095841205845e-04, -3.724058733878622e-05, 1.411447739769123e+02, 1.562386108856597e+03, 5.385757955370919e+02, 1.783306614725643e+03
502, -4.999999999978328e-05, 6.800000000001686e-03, 7.924091670147496e-04, -4.604709495226553e-05, 1.320023417814522e+02, 7.667872684277261e+02, 4.332927832200220e+02, 1.074207823030314e+03
503, 2.308130899950078e-16, 6.799999999999972e-03, 7.916203095348783e-04, -5.485442311754955e-05, 1.147636739674791e+02, -2.109988980264310e+01, 3.043091927374160e+02, 6.235986266007241e+02
504, 5.000000000014997e-05, 6.799999999998255e-03, 7.908428136834809e-04, -6.366377741587079e-05, 8.904200014281690e+01, -8.004779065152859e+02, 1.517952706368631e+02, 9.399004633959460e+02
505, 1.000000000001024e-04, 6.799999999996542e-03, 7.900764627763047e-04, -7.247636130026921e-05, 5.444843497978368e+01, -1.570545879002828e+03, -2.407687833590425e+01, 1.625707632004422e+03
506, 1.500000000000582e-04, 6.799999999994830e-03, 7.893210213941748e-04, -8.129337605339700e-05, 1.059208463544144e+01, -2.330499447086700e+03, -2.231331590328143e+02, 2.383246354563661e+03
507, 2.000000000000206e-04, 6.799999999993115e-03, 7.885762353372868e-04, -9.011602074029455e-05, -4.292011341890023e+01, -3.079531166999875e+03, -4.451972517768777e+02, 3.164460311441572e+03
508, -1.999999999999538e-04, 6.700000000007203e-03, 7.772022797190078e-04, -1.817689635286365e-05, 1.433522046696535e+02, 3.370593953222551e+03, 7.143792041430621e+02, 3.529368200237978e+03
509, -1.499999999999060e-04, 6.700000000005407e-03, 7.763807918492958e-04, -2.695663623033443e-05, 1.486317938227610e+02, 2.511697616974920e+03, 6.513779233644532e+02, 2.698379676905409e+03
510, -9.999999999983645e-05, 6.700000000003612e-03, 7.755719305868800e-04, -3.573478100983713e-05, 1.463613566865665e+02, 1.659155760166382e+03, 5.635618854958190e+02, 1.886519255754964e+03
511, -4.999999999979346e-05, 6.700000000001816e-03, 7.747755300497654e-04, -4.451258000625892e-05, 1.361541416754310e+02, 8.137586532000576e+02, 4.510948537441556e+02, 1.128314735495541e+03
512, 2.179923993053667e-16, 6.700000000000018e-03, 7.739914057178634e-04, -5.329128059482345e-05, 1.176235054401247e+02, -2.369659086627516e+01, 3.141407993341497e+02, 6.439791431756499e+02
513, 5.000000000013978e-05, 6.699999999998221e-03, 7.732193543765974e-04, -6.207212818231684e-05, 9.038023708690972e+01, -8.524092207303415e+02, 1.528654203692829e+02, 9.911222471269914e+02
514, 1.000000000000948e-04, 6.699999999996424e-03, 7.724591540630472e-04, -7.085636617076287e-05, 5.403273995063506e+01, -1.671574832874722e+03, -3.256365771868519e+01, 1.726836142373762e+03
515, 1.500000000000538e-04, 6.699999999994629e-03, 7.717105640137912e-04, -7.964523591378143e-05, 8.186985272306373e+00, -2.480385533407822e+03, -2.419767150745634e+02, 2.535193109663061e+03
516, 2.000000000000187e-04, 6.699999999992831e-03, 7.709733246126406e-04, -8.843997666890230e-05, -4.755362675840149e+01, -3.278030040247673e+03, -4.752018239785543e+02, 3.367379537884123e+03
517, -1.999999999999557e-04, 6.600000000007607e-03, 7.596153529860060e-04, -1.674601371271232e-05, 1.500946497569299e+02, 3.574161877797236e+03, 7.521818520425231e+02, 3.739966114326186e+03
518, -1.499999999999103e-04, 6.600000000005753e-03, 7.587966495903952e-04, -2.549522514840511e-05, 1.547174559513913e+02, 2.663405250632104e+03, 6.833708527147088e+02, 2.856833446412320e+03
519, -9.999999999984406e-05, 6.600000000003900e-03, 7.579913222760242e-04, -3.424284571444818e-05, 1.515677827262595e+02, 1.759217446821625e+03, 5.889661526513315e+02, 1.993003250961119e+03
520, -4.999999999980367e-05, 6.600000000002050e-03, 7.571992002558687e-04, -4.299016439166791e-05, 1.402643535723297e+02, 8.623980989766628e+02, 4.691249601069898e+02, 1.183972152980478e+03
521, 2.051717086157256e-16, 6.600000000000198e-03, 7.564200940487840e-04, -5.173846836406209e-05, 1.204175710406590e+02, -2.625311583292506e+01, 3.240063210859282e+02, 6.644039996888334e+02
522, 5.000000000012958e-05, 6.599999999998345e-03, 7.556537954151645e-04, -6.048904298537885e-05, 9.163505865929676e+01, -9.059325551326360e+02, 1.537711574641479e+02, 1.043898184478729e+03
523, 1.000000000000872e-04, 6.599999999996491e-03, 7.549000773004927e-04, -6.924317173570439e-05, 5.352200211165564e+01, -1.775832581138269e+03, -4.141758620280973e+01, 1.831229056411288e+03
524, 1.500000000000495e-04, 6.599999999994639e-03, 7.541586937806819e-04, -7.800213617691881e-05, 5.681287963847609e+00, -2.635141508452733e+03, -2.613948587417705e+02, 2.692072460165218e+03
525, 2.000000000000168e-04, 6.599999999992787e-03, 7.534293800074550e-04, -8.676721590952469e-05, -5.228662534819432e+01, -3.483043765825881e+03, -5.059934100485513e+02, 3.576899758308706e+03
526, -1.999999999999576e-04, 6.500000000008018e-03, 7.420885804615609e-04, -1.533338486612278e-05, 1.568138487218774e+02, 3.784218802038189e+03, 7.907538472956994e+02, 3.957174911903126e+03
527, -1.499999999999147e-04, 6.500000000006126e-03, 7.412728838973442e-04, -2.405023449051617e-05, 1.607528915450311e+02, 2.819995836802438e+03, 7.159545165766075e+02, 3.020254380201618e+03
528, -9.999999999985163e-05, 6.500000000004228e-03, 7.404713357455938e-04, -3.276549987310488e-05, 1.567104348547107e+02, 1.862554830315706e+03, 6.147800574248120e+02, 2.102789380217313e+03
529, -4.999999999981387e-05, 6.500000000002332e-03, 7.396837604778424e-04, -4.148050972789994e-05, 1.442977401949784e+02, 9.126956747670936e+02, 4.873807897064290e+02, 1.241207284281776e+03
530, 1.923510179260846e-16, 6.500000000000438e-03, 7.389099638130549e-04, -5.019659115111939e-05, 1.231235505603011e+02, -2.877790214402711e+01, 3.339102904635743e+02, 6.848783685031668e+02
531, 5.000000000011942e-05, 6.499999999998543e-03, 7.381497326563948e-04, -5.891506955545702e-05, 9.279346393446693e+01, -9.610584035920062e+02, 1.545243069499290e+02, 1.098232582125689e+03
532, 1.000000000000796e-04, 6.499999999996646e-03, 7.374028350395062e-04, -6.763726862220002e-05, 5.291030517662557e+01, -1.883334202326924e+03, -5.061932203666067e+01, 1.938889387224415e+03
533, 1.500000000000451e-04, 6.499999999994751e-03, 7.366690200605872e-04, -7.636451025557282e-05, 3.074221696842102e+00, -2.794789509976809e+03, -2.813605663481820e+02, 2.853891472042671e+03
534, 2.000000000000149e-04, 6.499999999992855e-03, 7.359480178255432e-04, -8.509811453401779e-05, -5.711681811286147e+01, -3.694604002703410e+03, -5.375371748090747e+02, 3.793032807038104e+03
535, -1.999999999999595e-04, 6.400000000008258e-03, 7.246256383796184e-04, -1.393985493309227e-05, 1.635903317862381e+02, 4.000856410660360e+03, 8.300594976840539e+02, 4.180981468370793e+03
536, -1.499999999999190e-04, 6.400000000006336e-03, 7.238131777883222e-04, -2.262245289386215e-05, 1.667979630726845e+02, 2.981538899033215e+03, 7.491056740544890e+02, 3.188636664810603e+03
537, -9.999999999985919e-05, 6.400000000004416e-03, 7.230156606255281e-04, -3.130347539868704e-05, 1.618255186847514e+02, 1.969214171950148e+03, 6.409891497757343e+02, 2.215879532933453e+03
538, -4.999999999982406e-05, 6.400000000002495e-03, 7.222329068570060e-04, -3.998429105662929e-05, 1.482768111272001e+02, 9.646812800831543e+02, 5.058563349898687e+02, 1.300030301004089e+03
539, 1.795438797635995e-16, 6.400000000000575e-03, 7.214647176257338e-04, -4.866626699055085e-05, 1.257569357336572e+02, -3.125360874934387e+01, 3.438553203101463e+02, 7.054064334135476e+02
540, 5.000000000010922e-05, 6.399999999998654e-03, 7.207108752022608e-04, -5.735076878668066e-05, 9.386886633445545e+01, -1.017779431403396e+03, 1.551362493405138e+02, 1.154136456967386e+03
541, 1.000000000000720e-04, 6.399999999996736e-03, 7.199711429233332e-04, -6.603916045015981e-05, 5.221275218139399e+01, -1.994080660737179e+03, -6.014861451158009e+01, 2.049826371931192e+03
542, 1.500000000000408e-04, 6.399999999994814e-03, 7.192452651286102e-04, -7.473280435984249e-05, 3.858480250257230e-01, -2.959337333353591e+03, -3.018447808267232e+02, 3.020662575866310e+03
543, 2.000000000000129e-04, 6.399999999992895e-03, 7.185329670962122e-04, -8.343306122263820e-05, -6.201746306702699e+01, -3.912725139705763e+03, -5.697952182817612e+02, 4.015795808308925e+03
544, -1.999999999999615e-04, 6.300000000008254e-03, 7.072303197298456e-04, -1.256628181804735e-05, 1.704006403889303e+02, 4.224092841944175e+03, 8.700503512043551e+02, 4.411391041323939e+03
545, -1.499999999999234e-04, 6.300000000006307e-03, 7.064213302281400e-04, -2.121268169259837e-05, 1.728460721175995e+02, 3.148059793061622e+03, 7.827855578112095e+02, 3.361980012338682e+03
546, -9.999999999986685e-05, 6.300000000004357e-03, 7.056281018774395e-04, -2.985751689562068e-05, 1.669103096700777e+02, 2.079217046136440e+03, 6.675675686881707e+02, 2.332274188295958e+03
547, -4.999999999983422e-05, 6.300000000002410e-03, 7.048504503535079e-04, -3.850219606905481e-05, 1.521993777262893e+02, 1.018369373414105e+03, 5.245379812197114e+02, 1.360445087608475e+03
548, 1.667096365468024e-16, 6.300000000000461e-03, 7.040881724636589e-04, -4.714812648240728e-05, 1.283161069418742e+02, -3.367364651236335e+01, 3.538393435812355e+02, 7.259819587897230e+02
549, 5.000000000009904e-05, 6.299999999998514e-03, 7.033410460825456e-04, -5.579671401690779e-05, 9.486043572355936e+01, -1.076097617100196e+03, 1.556159773796420e+02, 1.211613837464762e+03
550, 1.000000000000644e-04, 6.299999999996569e-03, 7.026088300876841e-04, -6.444936312802986e-05, 5.142934144003976e+01, -2.108083376007093e+03, -6.998572122596407e+01, 2.164044172727990e+03
551, 1.500000000000364e-04, 6.299999999994618e-03, 7.018912642927812e-04, -7.310747680474527e-05, -2.383216779197937e+00, -3.128806982544951e+03, -3.228171244179263e+02, 3.192392386035079e+03
552, 2.000000000000111e-04, 6.299999999992672e-03, 7.011880693794672e-04, -8.177245652543774e-05, -6.698688259268263e+01, -4.137440059877967e+03, -6.027273221955338e+02, 4.245198460396858e+03
553, -1.999999999999633e-04, 6.200000000008235e-03, 6.899065350988198e-04, -1.121353650214662e-05, 1.772142291159660e+02, 4.453955802438668e+03, 9.106820764317399e+02, 4.648428321736587e+03
554, -1.499999999999277e-04, 6.200000000006244e-03, 6.891012570248013e-04, -1.982173494708494e-05, 1.788633077981004e+02, 3.319574866272102e+03, 8.169589187364840e+02, 3.540304590447625e+03
555, -9.999999999987445e-05, 6.200000000004252e-03, 6.883125806136683e-04, -2.842838145264349e-05, 1.719384947998659e+02, 2.192575485953279e+03, 6.944909247174417e+02, 2.451987852351041e+03
556, -4.999999999984441e-05, 6.200000000002263e-03, 6.875403174852285e-04, -3.703492473688365e-05, 1.560468644011109e+02, 1.073767798665198e+03, 5.434126355079439e+02, 1.422462963632202e+03
557, 1.538618408028491e-16, 6.200000000000271e-03, 6.867842603438709e-04, -4.564281232355442e-05, 1.307889992432016e+02, -3.603527513718848e+01, 3.638603831545265e+02, 7.465975168991514e+02
558, 5.000000000008886e-05, 6.199999999998280e-03, 6.860441829051674e-04, -5.425349050691071e-05, 9.576178420327744e+01, -1.136016201077088e+03, 1.559723892176809e+02, 1.270663822501625e+03
559, 1.000000000000568e-04, 6.199999999996288e-03, 6.853198398267175e-04, -6.286840431843909e-05, 5.055889112700555e+01, -2.225352393865783e+03, -8.011112368327611e+01, 2.281544070516437e+03
560, 1.500000000000321e-04, 6.199999999994299e-03, 6.846109666375930e-04, -7.148899749054668e-05, -5.229238401353200e+00, -3.303216147001498e+03, -3.442477870654660e+02, 3.369086494125049e+03
561, 2.000000000000091e-04, 6.199999999992307e-03, 6.839172796649571e-04, -8.011671241990531e-05, -7.201494940271883e+01, -4.368774159983456e+03, -6.362929797794313e+02, 4.481251470089214e+03
562, -1.999999999999653e-04, 6.100000000008216e-03, 6.726583119154710e-04, -9.882502392919442e-06, 1.839811283670454e+02, 4.690448468453083e+03, 9.519169481311396e+02, 4.892119314961496e+03
563, -1.499999999999321e-04, 6.100000000006179e-03, 6.718569903891623e-04, -1.845043893815594e-05, 1.848069931333633e+02, 3.496086384103974e+03, 8.515983830138506e+02, 3.723634035303941e+03
564, -9.999999999988203e-05, 6.100000000004146e-03, 6.710731339393281e-04, -2.701683807530159e-05, 1.768791409626437e+02, 2.309293299621917e+03, 7.217408012993396e+02, 2.575039665925825e+03
565, -4.999999999985460e-05, 6.100000000002112e-03, 6.703065503592086e-04, -3.558318868386185e-05, 1.597988572910959e+02, 1.130880279755366e+03, 5.624712933558291e+02, 1.486100586250052e+03
566, 1.410275975860520e-16, 6.100000000000079e-03, 6.695570284771556e-04, -4.415097862873702e-05, 1.331642356127596e+02, -3.833684354659545e+01, 3.739195563665605e+02, 7.672522132169350e+02
567, 5.000000000007866e-05, 6.099999999998046e-03, 6.688243380876573e-04, -5.272169471822691e-05, 9.656993942196578e+01, -1.197536988445225e+03, 1.562171951608675e+02, 1.331288093918658e+03
568, 1.000000000000492e-04, 6.099999999996011e-03, 6.681082298777067e-04, -6.129682267191416e-05, 4.960714545854722e+01, -2.345893694462753e+03, -9.050223332105637e+01, 2.402329471785261e+03
569, 1.500000000000277e-04, 6.099999999993980e-03, 6.674084353504067e-04, -6.987784708947134e-05, -8.136421913313086e+00, -3.482575000281307e+03, -3.661030768369337e+02, 3.550753340677115e+03
570, 2.000000000000072e-04, 6.099999999991945e-03, 6.667246667472758e-04, -7.846625141676549e-05, -7.707652726484457e+01, -4.606743493018246e+03, -6.704473531825012e+02, 4.723968822314063e+03
571, -1.999999999999672e-04, 6.000000000008407e-03, 6.554897929053994e-04, -8.574073605800972e-06, 1.907286677613189e+02, 4.933626012202700e+03, 9.937069787897508e+02, 5.142459475648876e+03
572, -1.499999999999365e-04, 6.000000000006308e-03, 6.546926780560293e-04, -1.709963064517493e-05, 1.906983348966564e+02, 3.677639022253562e+03, 8.866693963192932e+02, 3.911967002752187e+03
573, -9.999999999988962e-05, 6.000000000004209e-03, 6.539139145040957e-04, -2.562366642606440e-05, 1.817437801280298e+02, 2.429402934569229e+03, 7.492939710670965e+02, 2.701432489412482e+03
574, -4.999999999986476e-05, 6.000000000002106e-03, 6.531533064784704e-04, -3.414771009821827e-05, 1.634605948573017e+02, 1.189728098184120e+03, 5.817022171788353e+02, 1.551365484425818e+03
575, 1.282204594235670e-16, 6.000000000000007e-03, 6.524106392023977e-04, -4.267328995270714e-05, 1.354441034613514e+02, -4.056723727587530e+01, 3.840168903823065e+02, 7.879440846048035e+02
576, 5.000000000006848e-05, 5.999999999997906e-03, 6.516856788241522e-04, -5.120193340089236e-05, 9.728647702922228e+01, -1.260658730452626e+03, 1.563624455051956e+02, 1.393489161773561e+03
577, 1.000000000000416e-04, 5.999999999995806e-03, 6.509781723372881e-04, -5.973516695185117e-05, 4.857618588424953e+01, -2.469716223663310e+03, -1.011347619984865e+02, 2.526402505604127e+03
578, 1.500000000000234e-04, 5.999999999993707e-03, 6.502878474979806e-04, -6.827451618570630e-05, -1.110215121560083e+01, -3.666903826318583e+03, -3.883462875363145e+02, 3.737397121508327e+03
579, 2.000000000000053e-04, 5.999999999991606e-03, 6.496144127407173e-04, -7.682150572340323e-05, -8.216801090767325e+01, -4.851380046164710e+03, -7.051414477434878e+02, 4.973357144077197e+03
580, -1.999999999999690e-04, 5.900000000008779e-03, 6.384052389664233e-04, -7.289154017563020e-06, 1.974513900966084e+02, 5.183526536689263e+03, 1.035992926702289e+03, 5.399450966920401e+03
581, -1.499999999999408e-04, 5.900000000006594e-03, 6.376125853092345e-04, -1.577015677515914e-05, 1.965365992740566e+02, 3.864269593005450e+03, 9.221250922067291e+02, 4.105304380434527e+03
582, -9.999999999989724e-05, 5.900000000004408e-03, 6.368391919281652e-04, -2.424965589028314e-05, 1.865300091815362e+02, 2.552933031938162e+03, 7.771186262969868e+02, 2.831168787526198e+03
583, -4.999999999987495e-05, 5.900000000002220e-03, 6.360848597756912e-04, -3.272922085040095e-05, 1.670289174157199e+02, 1.250331212413645e+03, 6.010882854766770e+02, 1.618262145048488e+03
584, 1.153862162067698e-16, 5.900000000000033e-03, 6.353493707765085e-04, -4.121042044750387e-05, 1.376265037040316e+02, -4.271490251788327e+01, 3.941493999150852e+02, 8.086643436010919e+02
585, 5.000000000005830e-05, 5.899999999997847e-03, 6.346324877385367e-04, -4.969482278592488e-05, 9.791204767972374e+01, -1.325377922016782e+03, 1.564188119392389e+02, 1.457265149776324e+03
586, 1.000000000000340e-04, 5.899999999995659e-03, 6.339339542647335e-04, -5.818399526641093e-05, 4.747083648010801e+01, -2.596824248245815e+03, -1.119847436852731e+02, 2.653763144362869e+03
587, 1.500000000000191e-04, 5.899999999993472e-03, 6.332534946651486e-04, -6.667950456276696e-05, -1.411584211030288e+01, -3.856214129503378e+03, -4.109404494669781e+02, 3.929021183707374e+03
588, 2.000000000000034e-04, 5.899999999991286e-03, 6.325908138685802e-04, -7.518291659634190e-05, -8.727064288864420e+01, -5.102701607752873e+03, -7.403252888501906e+02, 5.229423858950754e+03
589, -1.999999999999710e-04, 5.800000000009150e-03, 6.214090307032314e-04, -6.028657267753879e-06, 2.040917640257886e+02, 5.440158807260121e+03, 1.078719883308691e+03, 5.663121438555489e+03
590, -1.499999999999452e-04, 5.800000000006880e-03, 6.206210961176600e-04, -1.446287354288222e-05, 2.022703971322969e+02, 4.055985193442910e+03, 9.579229299401431e+02, 4.303670885433015e+03
591, -9.999999999990477e-05, 5.800000000004606e-03, 6.198533536288258e-04, -2.289560515148772e-05, 1.911989016010450e+02, 2.679890915419505e+03, 8.051862237287506e+02, 2.964268435748363e+03
592, -4.999999999988512e-05, 5.800000000002332e-03, 6.191056012225468e-04, -3.132846190652556e-05, 1.704759625532555e+02, 1.312695028125119e+03, 6.206151743675870e+02, 1.686806797584448e+03
593, 1.025655255171287e-16, 5.800000000000059e-03, 6.183776178323756e-04, -3.976305316293432e-05, 1.396930331052687e+02, -4.477811662385506e+01, 4.043167540559192e+02, 8.294080753909039e+02
594, 5.000000000004811e-05, 5.799999999997786e-03, 6.176691632325123e-04, -4.820098780537816e-05, 9.843654721071056e+01, -1.391697930740951e+03, 1.563997276953729e+02, 1.522611001429130e+03
595, 1.000000000000264e-04, 5.799999999995513e-03, 6.169799779419115e-04, -5.664387422823004e-05, 4.628859295996216e+01, -2.727227322289849e+03, -1.230251618417415e+02, 2.784408607573383e+03
596, 1.500000000000147e-04, 5.799999999993240e-03, 6.163097831316091e-04, -6.509332031118468e-05, -1.717287471160648e+01, -4.050522652998379e+03, -4.338450389185990e+02, 4.125626801491270e+03
597, 2.000000000000015e-04, 5.799999999990969e-03, 6.156582805337798e-04, -7.355093339263667e-05, -9.237386984074442e+01, -5.360733708117934e+03, -7.759447821108888e+02, 5.492174123706613e+03
598, -1.999999999999729e-04, 5.700000000009518e-03, 6.045056667154881e-04, -4.793505808095823e-06, 2.106082050923509e+02, 5.703537851102901e+03, 1.121839204149715e+03, 5.933495503991779e+03
599, -1.499999999999495e-04, 5.700000000007160e-03, 6.037227120125218e-04, -1.317864586284882e-05, 2.078593853039459e+02, 4.252795500597511e+03, 9.940288168414297e+02, 4.507092336712316e+03
600, -9.999999999991239e-05, 5.700000000004800e-03, 6.029609041352706e-04, -2.156232135168108e-05, 1.957179153635359e+02, 2.810283950928556e+03, 8.334753494005647e+02, 3.100754776915413e+03
601, -4.999999999989533e-05, 5.700000000002444e-03, 6.022200384393631e-04, -2.994618244710090e-05, 1.737780755056482e+02, 1.376824475125862e+03, 6.402741383933964e+02, 1.757021493556861e+03
602, 8.974483482748763e-17, 5.700000000000083e-03, 6.014998911795058e-04, -3.833187913141608e-05, 1.416284094824594e+02, -4.675560409959525e+01, 4.145232080476721e+02, 8.501802730090945e+02
603, 5.000000000003792e-05, 5.699999999997726e-03, 6.008002194067137e-04, -4.672106115365229e-05, 9.885260949224369e+01, -1.459622270165214e+03, 1.563227331846783e+02, 1.589525444327532e+03
604, 1.000000000000188e-04, 5.699999999995369e-03, 6.001207608690687e-04, -5.511537799980506e-05, 4.502980235449138e+01, -2.860934689944926e+03, -1.342249963642821e+02, 2.918337716766340e+03
605, 1.500000000000104e-04, 5.699999999993010e-03, 5.994612339145286e-04, -6.351647886478747e-05, -2.026528086168344e+01, -4.249845174222239e+03, -4.570154694511905e+02, 4.327216037083272e+03
606, 1.999999999999996e-04, 5.699999999990651e-03, 5.988213373952843e-04, -7.192601262286711e-05, -9.746213602685771e+01, -5.625499167663631e+03, -8.119417909020264e+02, 5.761613603010901e+03
607, -1.999999999999748e-04, 5.600000000009672e-03, 5.876997624849058e-04, -3.584629138737695e-06, 2.169940115261131e+02, 5.973692467661464e+03, 1.165296940930720e+03, 6.210575251701013e+03
608, -1.499999999999538e-04, 5.600000000007281e-03, 5.869220513331666e-04, -1.191834570563253e-05, 2.132997314829720e+02, 4.454725599715524e+03, 1.030405291765124e+03, 4.715573523645087e+03
609, -9.999999999991998e-05, 5.600000000004890e-03, 5.861664646286415e-04, -2.025061861827005e-05, 2.000830101993076e+02, 2.944131707687815e+03, 8.619626377854088e+02, 3.240635988496749e+03
610, -4.999999999990553e-05, 5.600000000002499e-03, 5.854327954394976e-04, -2.858313852604181e-05, 1.769316516253133e+02, 1.442732847096519e+03, 6.600556103001520e+02, 1.828919435407464e+03
611, 7.692414413784654e-17, 5.600000000000110e-03, 5.847208176784616e-04, -3.691759612340010e-05, 1.434308990492268e+02, -4.864069413971930e+01, 4.247731800564412e+02, 8.709882403862795e+02
612, 5.000000000002774e-05, 5.599999999997718e-03, 5.840302860087621e-04, -4.525568211047879e-05, 9.916161431730427e+01, -1.529151324873039e+03, 1.562064660510445e+02, 1.658012324465448e+03
613, 1.000000000000112e-04, 5.599999999995330e-03, 5.833609357436376e-04, -5.359908716201637e-05, 4.369996307506187e+01, -2.997954287720331e+03, -1.455512313323333e+02, 3.055552523710093e+03
614, 1.500000000000060e-04, 5.599999999992939e-03, 5.827124827443377e-04, -6.194950189818328e-05, -2.338261592879513e+01, -4.454197682303987e+03, -4.804043102244224e+02, 4.533792601955476e+03
615, 1.999999999999977e-04, 5.599999999990549e-03, 5.820846233180910e-04, -7.030861685360404e-05, -1.025194042288361e+02, -5.897022503266049e+03, -8.482546878611989e+02, 6.037748771410242e+03
616, -1.999999999999767e-04, 5.500000000009695e-03, 5.709960515572689e-04, -2.402962239884704e-06, 2.232704862104477e+02, 6.250676152950714e+03, 1.209024628742596e+03, 6.494349950770852e+03
617, -1.499999999999582e-04, 5.500000000007305e-03, 5.702238501868027e-04, -1.068285051930850e-05, 2.186099559093926e+02, 4.661819802069344e+03, 1.067001099427644e+03, 4.929105306415348e+03
618, -9.999999999992762e-05, 5.500000000004914e-03, 5.694747736943317e-04, -1.896131659426078e-05, 2.043059157025790e+02, 3.081466822748916e+03, 8.906144094036646e+02, 3.383907650924513e+03
619, -4.999999999991570e-05, 5.500000000002524e-03, 5.687486132230943e-04, -2.724009171183938e-05, 1.799439556338760e+02, 1.510442165356646e+03, 6.799430465451665e+02, 1.902502476281170e+03
620, 6.410345344820545e-17, 5.500000000000133e-03, 5.680451407166349e-04, -3.552090737726263e-05, 1.451060860750633e+02, -5.042098387676691e+01, 4.350668086470448e+02, 8.918314566268925e+02
621, 5.000000000001756e-05, 5.499999999997745e-03, 5.673641088216290e-04, -4.380549533809750e-05, 9.936984755626241e+01, -1.600281709874339e+03, 1.560674079344683e+02, 1.728075102521242e+03
622, 1.000000000000036e-04, 5.499999999995354e-03, 5.667052507843612e-04, -5.209558756140248e-05, 4.230797523820661e+01, -3.138291501017908e+03, -1.569713077415978e+02, 3.196055849664880e+03
623, 1.500000000000017e-04, 5.499999999992964e-03, 5.660682803444131e-04, -6.039291620797199e-05, -2.651174161356738e+01, -4.663594301357108e+03, -5.039631816128935e+02, 4.745360915627311e+03
624, 1.999999999999958e-04, 5.499999999990576e-03, 5.654528916266498e-04, -6.869921360428086e-05, -1.075265492077999e+02, -6.175326537228225e+03, -8.848195681584631e+02, 6.320586948014021e+03
625, -1.999999999999786e-04, 5.400000000009719e-03, 5.543993883100814e-04, -1.249445074252280e-06, 2.293986744584953e+02, 6.534506540568485e+03, 1.252950270134276e+03, 6.784830338409375e+03
626, -1.499999999999625e-04, 5.400000000007331e-03, 5.536329644678933e-04, -9.473042528668811e-06, 2.237597865701989e+02, 4.874094787416131e+03, 1.103760160111748e+03, 5.147694783521298e+03
627, -9.999999999993521e-05, 5.400000000004939e-03, 5.528906887898510e-04, -1.769523957549310e-05, 2.083650578231371e+02, 3.222303808655790e+03, 9.193927448889951e+02, 3.530574864124648e+03
628, -4.999999999992589e-05, 5.400000000002551e-03, 5.521723508559121e-04, -2.591780812275379e-05, 1.828004303758816e+02, 1.579962990211341e+03, 6.999167471912868e+02, 1.977775778646635e+03
629, 5.128276275856436e-17, 5.400000000000158e-03, 5.514777210171784e-04, -3.414252057292788e-05, 1.466454849336309e+02, -5.209122802796674e+01, 4.454022869455621e+02, 9.127042620389849e+02
630, 5.000000000000737e-05, 5.399999999997771e-03, 5.508065502852280e-04, -4.237114981834545e-05, 9.947459222735529e+01, -1.673014529666488e+03, 1.559212758464915e+02, 1.799712050378726e+03
631, 9.999999999999598e-05, 5.399999999995381e-03, 5.501585702218757e-04, -5.060546922531220e-05, 4.085700886932210e+01, -3.281954623150395e+03, -1.684523057771724e+02, 3.339847580230589e+03
632, 1.499999999999973e-04, 5.399999999992991e-03, 5.495334928275829e-04, -5.884725261322014e-05, -2.964315555934081e+01, -4.878051225880664e+03, -5.276422093044971e+02, 4.961923620987717e+03
633, 1.999999999999938e-04, 5.399999999990601e-03, 5.489310104284938e-04, -6.709827423110726e-05, -1.124670378152696e+02, -6.460436097369980e+03, -9.215697554197448e+02, 6.610134222349917e+03
634, -1.999999999999805e-04, 5.300000000009745e-03, 5.379147476059845e-04, -1.250218311380562e-07, 2.353408652588976e+02, 6.825205373193194e+03, 1.297005059184056e+03, 7.082033798784659e+03
635, -1.499999999999669e-04, 5.300000000007331e-03, 5.371543698201266e-04, -8.289807968583707e-06, 2.287132162667514e+02, 5.091566212141467e+03, 1.140630545954474e+03, 5.371358434227352e+03
636, -9.999999999994280e-05, 5.300000000004915e-03, 5.364191863848306e-04, -1.645321564971027e-05, 2.122320427784534e+02, 3.366655247251415e+03, 9.482625882911057e+02, 3.680651232910782e+03
637, -4.999999999993605e-05, 5.300000000002501e-03, 5.357089857000004e-04, -2.461705747277445e-05, 1.854806179201273e+02, 1.651304118388764e+03, 7.199590047564920e+02, 2.054751179254063e+03
638, 3.846207206892327e-17, 5.300000000000087e-03, 5.350235369086110e-04, -3.278314680591648e-05, 1.480361218998605e+02, -5.364754070969104e+01, 4.557794673762817e+02, 9.336037656794407e+02
639, 4.999999999999720e-05, 5.299999999997673e-03, 5.343625897766623e-04, -4.095329777462472e-05, 9.947003274688979e+01, -1.747351869360614e+03, 1.557855230083634e+02, 1.872919553750223e+03
640, 9.999999999998842e-05, 5.299999999995259e-03, 5.337258745749288e-04, -4.912932524747681e-05, 3.934831780113416e+01, -3.428952661825530e+03, -1.799592193572899e+02, 3.486926005496248e+03
641, 1.499999999999930e-04, 5.299999999992844e-03, 5.331131019609051e-04, -5.731304481795146e-05, -3.276850441077903e+01, -5.097585333837382e+03, -5.513888945782942e+02, 5.183482262716834e+03
642, 1.999999999999920e-04, 5.299999999990430e-03, 5.325239628606980e-04, -6.550627278323832e-05, -1.173252554504810e+02, -6.752376834593550e+03, -9.584352283841588e+02, 6.906395717443370e+03
643, -1.999999999999824e-04, 5.200000000009989e-03, 5.215472241592227e-04, 9.693606262711273e-07, 2.410774063960420e+02, 7.122803556876885e+03, 1.341117435732591e+03, 7.385969043796198e+03
644, -1.499999999999712e-04, 5.200000000007502e-03, 5.207931612727757e-04, -7.134035697240429e-06, 2.334524393504509e+02, 5.314260434535306e+03, 1.177559596443554e+03, 5.600106811181334e+03
645, -9.999999999995044e-05, 5.200000000005017e-03, 5.200653618091018e-04, -1.523607539650591e-05, 2.158907470618124e+02, 3.514541287520046e+03, 9.771891548870507e+02, 3.834147880009438e+03
646, -4.999999999994625e-05, 5.200000000002529e-03, 5.193636134034432e-04, -2.333861181214880e-05, 1.879718457561070e+02, 1.724479391237004e+03, 7.400529163556762e+02, 2.133440581161307e+03
647, 2.564138137928218e-17, 5.200000000000042e-03, 5.186876844017604e-04, -3.144349934211634e-05, 1.492700889599640e+02, -5.508264094109501e+01, 4.661995005785914e+02, 9.545302172152160e+02
648, 4.999999999998700e-05, 5.199999999997556e-03, 5.180373237362163e-04, -3.955259342781344e-05, 9.935403265842456e+01, -1.823293361938072e+03, 1.556794693219638e+02, 1.947695405504200e+03
649, 9.999999999998081e-05, 5.199999999995069e-03, 5.174122608001700e-04, -4.766775053898113e-05, 3.778638208919568e+01, -3.579292595952247e+03, -1.914545103917841e+02, 3.637290152240642e+03
650, 1.499999999999887e-04, 5.199999999992581e-03, 5.168122053238968e-04, -5.579082815586444e-05, -3.587592199389445e+01, -5.322211404674327e+03, -5.751474898156637e+02, 5.410038944001346e+03
651, 1.999999999999900e-04, 5.199999999990096e-03, 5.162368472508131e-04, -6.392368474874911e-05, -1.220815879413678e+02, -7.051172042549289e+03, -9.953420396613633e+02, 7.209377062673833e+03
652, -1.999999999999843e-04, 5.100000000010360e-03, 5.053020330766494e-04, 2.032754299526532e-06, 2.465924568512340e+02, 7.427334170973449e+03, 1.385209641350959e+03, 7.696640472758322e+03
653, -1.499999999999755e-04, 5.100000000007788e-03, 5.045545536484188e-04, -6.006615673881465e-06, 2.379645167353826e+02, 5.542206676485038e+03, 1.214489435939850e+03, 5.833945770171648e+03
654, -9.999999999995803e-05, 5.100000000005215e-03, 5.038344295752751e-04, -1.404465043396715e-05, 2.193293764002142e+02, 3.665984615025618e+03, 1.006134433971621e+03, 3.991072328439754e+03
655, -4.999999999995644e-05, 5.100000000002642e-03, 5.031414481683285e-04, -2.208324412639885e-05, 1.902644948818155e+02, 1.799504363753095e+03, 7.601800585565904e+02, 2.213853617851293e+03
656, 1.282069068964109e-17, 5.100000000000066e-03, 5.024753774162122e-04, -3.012429225074348e-05, 1.503413817454156e+02, -5.638824213805231e+01, 4.766633926515826e+02, 9.754840321437698e+02
657, 4.999999999997683e-05, 5.099999999997495e-03, 5.018359658540935e-04, -3.816969164949062e-05, 9.912537018275975e+01, -1.900838276053855e+03, 1.556234860415674e+02, 2.024037861281003e+03
658, 9.999999999997324e-05, 5.099999999994921e-03, 5.012229424342034e-04, -4.622134049223520e-05, 3.617572181437566e+01, -3.732981661356110e+03, -2.028984732797417e+02, 3.790939005173466e+03
659, 1.499999999999843e-04, 5.099999999992348e-03, 5.006360163963383e-04, -5.428113825849633e-05, -3.895434007565251e+01, -5.551945144708427e+03, -5.988589914997601e+02, 5.641595162608352e+03
660, 1.999999999999881e-04, 5.099999999989774e-03, 5.000748771382069e-04, -6.235098571784070e-05, -1.267176496588650e+02, -7.356846309942464e+03, -1.032212081346206e+03, 7.519082894061123e+03
661, -1.999999999999862e-04, 5.000000000010596e-03, 4.891845107509514e-04, 3.064211308049580e-06, 2.518604933331578e+02, 7.738826538858989e+03, 1.429199841791632e+03, 8.014056982450624e+03
662, -1.499999999999799e-04, 5.000000000007969e-03, 4.884438822512265e-04, -4.908437640975156e-06, 2.422262292689144e+02, 5.775428428882702e+03, 1.251358876690742e+03, 6.072884218796017e+03
663, -9.999999999996564e-05, 5.000000000005344e-03, 4.877317239100821e-04, -1.287977206089086e-05, 2.225289792883797e+02, 3.821003333623133e+03, 1.035058103426272e+03, 4.151433341471170e+03
664, -4.999999999996662e-05, 5.000000000002718e-03, 4.870478231727212e-04, -2.085172696420886e-05, 1.923445484884257e+02, 1.876391589905724e+03, 7.803207389867733e+02, 2.296000056724261e+03
665, 0.000000000000000e+00, 5.000000000000093e-03, 4.863919481233887e-04, -2.882623903181750e-05, 1.512411644355819e+02, -5.755803691064989e+01, 4.871718906717059e+02, 9.964652079854080e+02
666, 4.999999999996663e-05, 4.999999999997467e-03, 4.857638473533336e-04, -3.680524659545183e-05, 9.878075685703175e+01, -1.979987295820722e+03, 1.556386546781535e+02, 2.101944380842120e+03
667, 9.999999999996559e-05, 4.999999999994841e-03, 4.851632498276756e-04, -4.479068962404946e-05, 3.451902205168335e+01, -3.890028299252663e+03, -2.142497643623404e+02, 3.947870758177678e+03
668, 1.499999999999799e-04, 4.999999999992216e-03, 4.845898647508208e-04, -5.278450970889863e-05, -4.199461971794710e+01, -5.786803502901391e+03, -6.224618817133135e+02, 5.878151434000974e+03
669, 1.999999999999863e-04, 4.999999999989590e-03, 4.840433814307191e-04, -6.078865004709525e-05, -1.312170973732821e+02, -7.669425727606597e+03, -1.068963744534653e+03, 7.835516785856707e+03
670, -1.999999999999881e-04, 4.900000000010410e-03, 4.732001151118419e-04, 4.062785173150651e-06, 2.568418145972095e+02, 8.057295859034794e+03, 1.473006303261618e+03, 8.338229642866432e+03
671, -1.499999999999843e-04, 4.900000000007836e-03, 4.724666031360758e-04, -3.840389782832991e-06, 2.462049108457721e+02, 6.013938740331514e+03, 1.288106919840500e+03, 6.316932109462488e+03
672, -9.999999999997321e-05, 4.900000000005265e-03, 4.717626990414876e-04, -1.174226985920012e-05, 2.254658255316397e+02, 3.979609715168394e+03, 1.063919611591164e+03, 4.315239982180616e+03
673, -4.999999999997681e-05, 4.900000000002690e-03, 4.710881908581947e-04, -1.964483101434695e-05, 1.941956809809201e+02, 1.955150524554364e+03, 8.004550533928016e+02, 2.379889730872644e+03
674, -1.282069068964109e-17, 4.900000000000120e-03, 4.704428472252169e-04, -2.755005118414455e-05, 1.519597979078408e+02, -5.858710734449130e+01, 4.977259737316623e+02, 1.017474608538149e+03
675, 4.999999999995644e-05, 4.899999999997547e-03, 4.698264172566376e-04, -3.545991027309210e-05, 9.831717114837215e+01, -2.060741333782973e+03, 1.557469611831351e+02, 2.181412865870993e+03
676, 9.999999999995801e-05, 4.899999999994974e-03, 4.692386304023955e-04, -4.337639014576280e-05, 3.282022482338232e+01, -4.050440247304657e+03, -2.254653514911304e+02, 4.108084052467205e+03
677, 1.499999999999756e-04, 4.899999999992402e-03, 4.686791963069905e-04, -5.130147461597956e-05, -4.498523375093561e+01, -6.026801848455199e+03, -6.458920852540516e+02, 6.119708845617353e+03
678, 1.999999999999843e-04, 4.899999999989829e-03, 4.681478046672519e-04, -5.923714943291576e-05, -1.355599653556782e+02, -7.988933957430794e+03, -1.105511932711471e+03, 8.158683079570603e+03
679, -1.999999999999901e-04, 4.800000000010084e-03, 4.573544252164619e-04, 5.027532686240613e-06, 2.615359479764128e+02, 8.382784176185345e+03, 1.516539571014283e+03, 8.669154622337490e+03
680, -1.499999999999886e-04, 4.800000000007600e-03, 4.566282930298014e-04, -2.803356941225778e-06, 2.498997063077098e+02, 6.257773507955473e+03, 1.324666530851516e+03, 6.566088126758452e+03
681, -9.999999999998080e-05, 4.800000000005114e-03, 4.559329292943919e-04, -1.063297001244621e-05, 2.281364222379738e+02, 4.141831260259358e+03, 1.092673887753404e+03, 4.482493969328658e+03
682, -4.999999999998701e-05, 4.800000000002629e-03, 4.552681231089149e-04, -1.846332349077693e-05, 1.958139079403157e+02, 2.035800290600131e+03, 8.205602257363846e+02, 2.465527575310351e+03
683, -2.564138137928218e-17, 4.800000000000143e-03, 4.546336441634841e-04, -2.629643663236743e-05, 1.524950733630683e+02, -5.946448223566017e+01, 5.083252597039893e+02, 1.038511016707152e+03
684, 4.999999999994627e-05, 4.799999999997659e-03, 4.540292425948670e-04, -3.413433099364046e-05, 9.773597901996413e+01, -2.143097617734582e+03, 1.559704212298701e+02, 2.262441667212309e+03
685, 9.999999999995042e-05, 4.799999999995174e-03, 4.534546488392309e-04, -4.197903042911582e-05, 3.108571213947562e+01, -4.214223200952031e+03, -2.365008613634219e+02, 4.271577975090324e+03
686, 1.499999999999713e-04, 4.799999999992687e-03, 4.529095734838688e-04, -4.983256108447807e-05, -4.791365472026303e+01, -6.271954835348100e+03, -6.690829425518928e+02, 6.366268652374541e+03
687, 1.999999999999824e-04, 4.799999999990203e-03, 4.523937071180657e-04, -5.769695138619518e-05, -1.397270121532663e+02, -8.315395563743507e+03, -1.141767727059617e+03, 8.488585891400357e+03
688, -1.999999999999919e-04, 4.700000000009747e-03, 4.416531430040442e-04, 5.957515537804477e-06, 2.659339553152305e+02, 8.715335562441709e+03, 1.559700259747384e+03, 9.006833356931598e+03
689, -1.499999999999929e-04, 4.700000000007334e-03, 4.409346506082107e-04, -1.798219054097162e-06, 2.533003716336406e+02, 6.506969825182835e+03, 1.360961815804062e+03, 6.820355554555864e+03
690, -9.999999999998839e-05, 4.700000000004922e-03, 4.402481100217693e-04, -9.552693767098541e-06, 2.305291010503300e+02, 4.307695285201373e+03, 1.121270138114547e+03, 4.653200079912150e+03
691, -4.999999999999717e-05, 4.700000000002511e-03, 4.395933119434245e-04, -1.730796659997584e-05, 1.971891273430188e+02, 2.118359606280681e+03, 8.406101781893478e+02, 2.552919484794550e+03
692, -3.846207206892327e-17, 4.700000000000096e-03, 4.389700276444444e-04, -2.506609819191851e-05, 1.528404418590325e+02, -6.017952349733389e+01, 5.189679590357883e+02, 1.059569948452444e+03
693, 4.999999999993608e-05, 4.699999999997685e-03, 4.383780088118960e-04, -3.282915183253908e-05, 9.703567126230632e+01, -2.227053474658074e+03, 1.563312067509724e+02, 2.345026256356586e+03
694, 9.999999999994281e-05, 4.699999999995272e-03, 4.378169873944576e-04, -4.059919346256975e-05, 2.932021315760687e+01, -4.381382615083223e+03, -2.473103875563916e+02, 4.438349822876158e+03
695, 1.499999999999669e-04, 4.699999999992859e-03, 4.372866754484663e-04, -4.837829166974297e-05, -5.076771548734985e+01, -6.522276248217369e+03, -6.919649568351813e+02, 6.617830814938466e+03
696, 1.999999999999805e-04, 4.699999999990447e-03, 4.367867649836743e-04, -5.616851768220091e-05, -1.436973029838329e+02, -8.648832766878080e+03, -1.177638267101601e+03, 8.825228428304836e+03
697, -1.999999999999939e-04, 4.600000000009572e-03, 4.261020945143470e-04, 6.851801214433383e-06, 2.699612924609155e+02, 9.054946164931673e+03, 1.602393836470165e+03, 9.351289923757597e+03
698, -1.499999999999973e-04, 4.600000000007185e-03, 4.253914973233390e-04, -8.258500616910677e-07, 2.563447058665970e+02, 6.761526023467686e+03, 1.396921686262527e+03, 7.079755982028506e+03
699, -9.999999999999598e-05, 4.600000000004799e-03, 4.247140581969401e-04, -8.502256162872509e-06, 2.325987007933800e+02, 4.477204237622966e+03, 1.149661063056624e+03, 4.827375933456842e+03
700, -5.000000000000737e-05, 4.600000000002412e-03, 4.240695699572605e-04, -1.617951614677452e-05, 1.982897735608246e+02, 2.202831355810808e+03, 8.605815180004639e+02, 2.642080458931029e+03
701, -5.126921023140829e-17, 4.600000000000025e-03, 4.234578059798554e-04, -2.385973209273990e-05, 1.529753924361070e+02, -6.073180141302771e+01, 5.296546948122120e+02, 1.080651260883612e+03
702, 4.999999999992590e-05, 4.599999999997638e-03, 4.228785200298605e-04, -3.154500910063803e-05, 9.620517004850080e+01, -2.312613176441852e+03, 1.568540280109997e+02, 2.429160054587103e+03
703, 9.999999999993524e-05, 4.599999999995251e-03, 4.223314461011644e-04, -3.923745529033431e-05, 2.752109970595302e+01, -4.551929294146173e+03, -2.578451036845319e+02, 4.608394763876976e+03
704, 1.499999999999625e-04, 4.599999999992864e-03, 4.218162982557972e-04, -4.693918179961106e-05, -5.354240283237914e+01, -6.777785204137421e+03, -7.144651793144384e+02, 6.874393298372876e+03
705, 1.999999999999786e-04, 4.599999999990477e-03, 4.213327704630882e-04, -5.465230277859280e-05, -1.474582265583657e+02, -8.989274192825596e+03, -1.213026384381097e+03, 9.168611760684214e+03
706, -1.999999999999958e-04, 4.500000000009600e-03, 4.107072276536969e-04, 7.709465053590838e-06, 2.736048182549473e+02, 9.401650576590233e+03, 1.644524919355184e+03, 9.702528959389065e+03
707, -1.500000000000016e-04, 4.500000000007212e-03, 4.100047760589729e-04, 1.128840277313199e-07, 2.590183035472802e+02, 7.021469382946196e+03, 1.432476493262579e+03, 7.344297122003097e+03
708, -1.000000000000036e-04, 4.500000000004825e-03, 4.093367116498805e-04, -7.482464177492554e-06, 2.343313230145191e+02, 4.650379051698728e+03, 1.177800592537470e+03, 5.005030917501252e+03
709, -5.000000000001756e-05, 4.500000000002437e-03, 4.087028299266375e-04, -1.507871973051432e-05, 1.991048254471217e+02, 2.289230515985152e+03, 8.804520835524210e+02, 2.733021933313796e+03
710, -6.409667718462742e-17, 4.500000000000053e-03, 4.081029069195910e-04, -2.267802620945954e-05, 1.528934729971877e+02, -6.111244233385889e+01, 5.403876330975736e+02, 1.101759369288898e+03
711, 4.999999999991571e-05, 4.499999999997665e-03, 4.075366990259445e-04, -3.028253059662645e-05, 9.524407710496712e+01, -2.399774221611295e+03, 1.575657117981775e+02, 2.514840775291122e+03
712, 9.999999999992765e-05, 4.499999999995279e-03, 4.070039428436139e-04, -3.789438327905796e-05, 2.569551520855737e+01, -4.725867349750388e+03, -2.680532943265968e+02, 4.781710983952734e+03
713, 1.499999999999582e-04, 4.499999999992891e-03, 4.065043550041179e-04, -4.551573804843122e-05, -5.622126405453480e+01, -7.038492402966843e+03, -7.365069069013462e+02, 7.135956835137200e+03
714, 1.999999999999767e-04, 4.499999999990504e-03, 4.060376320047515e-04, -5.314875209972441e-05, -1.509832619366917e+02, -9.336738018659060e+03, -1.247830258498577e+03, 9.518740035674160e+03
715, -1.999999999999977e-04, 4.400000000009622e-03, 3.954746130624286e-04, 8.529592651137832e-06, 2.768688951657781e+02, 9.755493839607449e+03, 1.685985685771926e+03, 1.006054281676208e+04
716, -1.500000000000059e-04, 4.400000000007235e-03, 3.947805517560973e-04, 1.017127405791682e-06, 2.613251604187000e+02, 7.286839333801019e+03, 1.467545320623251e+03, 7.613974420283314e+03
717, -1.000000000000112e-04, 4.400000000004850e-03, 3.941221295338952e-04, -6.494114603011119e-06, 2.357263902606093e+02, 4.827249221844570e+03, 1.205635050276376e+03, 5.186164807521688e+03
718, -5.000000000002772e-05, 4.400000000002464e-03, 3.934991451605189e-04, -1.400631473292960e-05, 1.996317374322215e+02, 2.377577387576211e+03, 9.001950435746007e+02, 2.825747993166806e+03
719, -7.691736787426851e-17, 4.400000000000076e-03, 3.929113779105177e-04, -2.152165812708379e-05, 1.525926779250860e+02, -6.130988640241605e+01, 5.511666284861088e+02, 1.122894882191943e+03
720, 4.999999999990552e-05, 4.399999999997690e-03, 3.923585874022886e-04, -2.904233372474347e-05, 9.415281635174654e+01, -2.488533837234691e+03, 1.584927407734775e+02, 2.602066514546671e+03
721, 9.999999999991999e-05, 4.399999999995304e-03, 3.918405134272166e-04, -3.657053426771514e-05, 2.384762463249933e+01, -4.903203268374481e+03, -2.778818555463759e+02, 4.958296461976480e+03
722, 1.499999999999539e-04, 4.399999999992917e-03, 3.913568757765030e-04, -4.410845630481805e-05, -5.879564839193552e+01, -7.304414514820912e+03, -7.580103550518631e+02, 7.402520621451516e+03
723, 1.999999999999748e-04, 4.399999999990530e-03, 3.909073740668575e-04, -5.165830019268944e-05, -1.542582376147291e+02, -9.691251527824317e+03, -1.281943759064472e+03, 9.875614422562279e+03
724, -1.999999999999997e-04, 4.300000000009517e-03, 3.804104461933651e-04, 9.311281317544049e-06, 2.797154696833333e+02, 1.011649367363807e+04, 1.726663151664376e+03, 1.042533778786381e+04
725, -1.500000000000103e-04, 4.300000000007164e-03, 3.797250129124271e-04, 1.886036113423166e-06, 2.632340544974261e+02, 7.557652224795143e+03, 1.502042053441656e+03, 7.888793175410191e+03
726, -1.000000000000188e-04, 4.300000000004808e-03, 3.790764934090617e-04, -5.537992306568528e-06, 2.367609669714907e+02, 5.007830035269899e+03, 1.233106482073848e+03, 5.370782665403992e+03
727, -5.000000000003792e-05, 4.300000000002456e-03, 3.784646903005339e-04, -1.296302653326765e-05, 1.998542541563470e+02, 2.467883918677809e+03, 9.197806653710849e+02, 2.920264448420937e+03
728, -8.973805856390960e-17, 4.300000000000101e-03, 3.778893867073457e-04, -2.039129333648014e-05, 1.520629568817396e+02, -6.131707107348029e+01, 5.619900015300622e+02, 1.144055105145380e+03
729, 4.999999999989533e-05, 4.299999999997747e-03, 3.773503460767365e-04, -2.782502368646330e-05, 9.292767792446307e+01, -2.578891012613546e+03, 1.596613154501343e+02, 2.690832967263726e+03
730, 9.999999999991241e-05, 4.299999999995395e-03, 3.768473120043662e-04, -3.526645276812804e-05, 2.198052073825193e+01, -5.083943050367389e+03, -2.872768640995592e+02, 5.138148255992590e+03
731, 1.499999999999495e-04, 4.299999999993039e-03, 3.763800080543814e-04, -4.271781999059292e-05, -6.125500621058961e+01, -7.575565367360414e+03, -7.788940748701826e+02, 7.674083927294198e+03
732, 1.999999999999729e-04, 4.299999999990687e-03, 3.759481375778774e-04, -5.018136899451494e-05, -1.572637977758216e+02, -1.005283692588139e+04, -1.315257694364415e+03, 1.023923721495035e+04
733, -2.000000000000014e-04, 4.200000000009198e-03, 3.655210470814637e-04, 1.005364178758456e-05, 2.821133794068089e+02, 1.048467333805470e+04, 1.766443450988048e+03, 1.079692176372319e+04
734, -1.500000000000147e-04, 4.200000000006931e-03, 3.648444716074937e-04, 2.718779750839987e-06, 2.647163829150364e+02, 7.833927612853859e+03, 1.535880788945709e+03, 8.168762319644387e+03
735, -1.000000000000264e-04, 4.200000000004664e-03, 3.642061073933697e-04, -4.614868461172723e-06, 2.374117909901991e+02, 5.192137988753325e+03, 1.260156956027698e+03, 5.558893227082186e+03
736, -5.000000000004811e-05, 4.200000000002396e-03, 3.636057615233312e-04, -1.194956668923821e-05, 1.997552029428363e+02, 2.560162723733323e+03, 9.391794519211929e+02, 3.016580155714127e+03
737, -1.025587492535507e-16, 4.200000000000129e-03, 3.630432215856854e-04, -1.928758337641848e-05, 1.512936572522630e+02, -6.112623749194665e+01, 5.728569155564317e+02, 1.165239200544873e+03
738, 4.999999999988515e-05, 4.199999999997860e-03, 3.625182554848025e-04, -2.663119159180963e-05, 9.156514478779661e+01, -2.670843672944016e+03, 1.610993523100556e+02, 2.781135466233414e+03
739, 9.999999999990481e-05, 4.199999999995591e-03, 3.620306112540707e-04, -3.398266904849597e-05, 2.009869288447817e+01, -5.268090972980593e+03, -2.961816143050812e+02, 5.321263396672974e+03
740, 1.499999999999452e-04, 4.199999999993324e-03, 3.615800168686285e-04, -4.134429811752439e-05, -6.358558779280190e+01, -7.851956026635988e+03, -7.990725112680105e+02, 7.950646615571785e+03
741, 1.999999999999710e-04, 4.199999999991056e-03, 3.611661800579097e-04, -4.871836583842024e-05, -1.599766375087347e+02, -1.042151327331971e+04, -1.347657782104122e+03, 1.060961168557803e+04
742, -2.000000000000034e-04, 4.100000000008875e-03, 3.508128602944790e-04, 1.075580045150333e-05, 2.840483121314811e+02, 1.086006795119890e+04, 1.805206708119145e+03, 1.117529759971040e+04
743, -1.500000000000190e-04, 4.100000000006694e-03, 3.501453635373412e-04, 3.514543576548475e-06, 2.657570182379441e+02, 8.115695356940758e+03, 1.568971654047667e+03, 8.453887870456798e+03
744, -1.000000000000340e-04, 4.100000000004513e-03, 3.495173982546229e-04, -3.725498514609069e-06, 2.376632028157165e+02, 5.380195695887476e+03, 1.286726430480963e+03, 5.750504331786211e+03
745, -5.000000000005830e-05, 4.100000000002334e-03, 3.489287766562231e-04, -1.096663093313545e-05, 1.993210219126789e+02, 2.654429659475540e+03, 9.583611511862232e+02, 3.114704288796562e+03
746, -1.153726636796137e-16, 4.100000000000152e-03, 3.483792914526481e-04, -1.821116384037268e-05, 1.502750026618836e+02, -6.072834846703665e+01, 5.837669548131490e+02, 1.186447573352865e+03
747, 4.999999999987496e-05, 4.099999999997971e-03, 3.478687156602416e-04, -2.546141246918074e-05, 9.006032245978213e+01, -2.764390087905844e+03, 1.628363372163648e+02, 2.872968819202300e+03
748, 9.999999999989721e-05, 4.099999999995790e-03, 3.473968024071479e-04, -3.271969714343482e-05, 1.820285786705415e+01, -5.455653397900664e+03, -3.045366478790433e+02, 5.507637659506388e+03
749, 1.499999999999408e-04, 4.099999999993610e-03, 3.469632847393044e-04, -3.998834329480178e-05, -6.578080818255637e+01, -8.133602119538033e+03, -8.184561729981890e+02, 8.232206432083502e+03
750, 1.999999999999691e-04, 4.099999999991429e-03, 3.465678754260302e-04, -4.726968147659234e-05, -1.623833739724477e+02, -1.079730598697234e+04, -1.379024443593047e+03, 1.098673803494945e+04
751, -2.000000000000054e-04, 4.000000000008551e-03, 3.362924557928579e-04, 1.141690134785377e-05, 2.854845123506749e+02, 1.124269572892999e+04, 1.842829443153975e+03, 1.156047399854142e+04
752, -1.500000000000234e-04, 4.000000000006458e-03, 3.356342486020916e-04, 4.272530546324581e-06, 2.663253356610682e+02, 8.402972289568952e+03, 1.601222013926278e+03, 8.744179287049581e+03
753, -1.000000000000416e-04, 4.000000000004365e-03, 3.350169158380629e-04, -2.870620134899595e-06, 2.374909828928996e+02, 5.572018221480588e+03, 1.312753237708356e+03, 5.945625712377888e+03
754, -5.000000000006849e-05, 4.000000000002271e-03, 3.344402755083319e-04, -1.001489711402032e-05, 1.985335298899129e+02, 2.750696472594592e+03, 9.772949067917368e+02, 3.214647262994696e+03
755, -1.282069068964109e-16, 4.000000000000177e-03, 3.339041261179450e-04, -1.716265231980970e-05, 1.489950056902276e+02, -6.011617169906526e+01, 5.947200809998358e+02, 1.207681822123253e+03
756, 4.999999999986478e-05, 3.999999999998083e-03, 3.334082464702115e-04, -2.431624321384036e-05, 8.840786150580732e+01, -2.859528539613548e+03, 1.649031025619618e+02, 2.966327891178381e+03
757, 9.999999999988963e-05, 3.999999999995989e-03, 3.329523954668555e-04, -3.147803281203466e-05, 1.629495429453482e+01, -5.646634978623985e+03, -3.122802169458893e+02, 5.697266990472505e+03
758, 1.499999999999365e-04, 3.999999999993896e-03, 3.325363119073561e-04, -3.865038970472758e-05, -6.783049129830806e+01, -8.420515284483816e+03, -8.369523896342564e+02, 8.518761674349764e+03
759, 1.999999999999672e-04, 3.999999999991804e-03, 3.321597142876207e-04, -4.583568807444135e-05, -1.644648350137080e+02, -1.118023457416574e+04, -1.409234014120162e+03, 1.137061761612932e+04
760, -2.000000000000072e-04, 3.900000000008219e-03, 3.219665287055600e-04, 1.203610831715790e-05, 2.863950897000441e+02, 1.163257751509551e+04, 1.879185458559937e+03, 1.195245613173316e+04
761, -1.500000000000277e-04, 3.900000000006203e-03, 3.213178108595087e-04, 4.991963511592095e-06, 2.663982784190918e+02, 8.695777224800899e+03, 1.632537490293942e+03, 9.039642916098281e+03
762, -1.000000000000492e-04, 3.900000000004186e-03, 3.207113331152675e-04, -2.050951006234201e-06, 2.368763029427079e+02, 5.767622033687181e+03, 1.338174284940992e+03, 6.144264805951771e+03
763, -5.000000000007867e-05, 3.900000000002170e-03, 3.201469199648136e-04, -9.095023000531726e-06, 1.973782273859426e+02, 2.848975983908708e+03, 9.959491878185114e+02, 3.316418218690455e+03
764, -1.410275975860520e-16, 3.900000000000153e-03, 3.196243764004586e-04, -1.614264621664405e-05, 1.474439556710522e+02, -5.928167803886595e+01, 6.057165530869809e+02, 1.228944937076947e+03
765, 4.999999999985460e-05, 3.899999999998138e-03, 3.191434877111015e-04, -2.319622040752179e-05, 8.660353065548975e+01, -2.956256793294281e+03, 1.673318834603980e+02, 3.061208713557003e+03
766, 9.999999999988204e-05, 3.899999999996121e-03, 3.187040192757218e-04, -3.025815136020672e-05, 1.437703007465336e+01, -5.841040201217669e+03, -3.193479692618414e+02, 5.890147999363148e+03
767, 1.499999999999321e-04, 3.899999999994104e-03, 3.183057163555424e-04, -3.733085091995923e-05, -6.972546846951525e+01, -8.712707637156382e+03, -8.544645820726932e+02, 8.810310985220998e+03
768, 1.999999999999652e-04, 3.899999999992088e-03, 3.179483038855685e-04, -4.441673701183283e-05, -1.662040375873249e+02, -1.157031975333497e+04, -1.438157732805884e+03, 1.176125188557238e+04
769, -2.000000000000091e-04, 3.800000000007874e-03, 3.078418995669578e-04, 1.261260753476593e-05, 2.867772415833410e+02, 1.202975077642086e+04, 1.914140086305172e+03, 1.235124109229092e+04
770, -1.500000000000321e-04, 3.800000000005924e-03, 3.072028588023925e-04, 5.672087660859949e-06, 2.659706764280751e+02, 8.994141867550643e+03, 1.662816519693667e+03, 9.340278767478336e+03
771, -1.000000000000568e-04, 3.800000000003971e-03, 3.066074464613240e-04, -1.267186451796042e-06, 2.358115288122208e+02, 5.967031728169000e+03, 1.362921459060055e+03, 6.346424551492022e+03
772, -5.000000000008884e-05, 3.800000000002021e-03, 3.060554942413987e-04, -8.207643952802638e-06, 1.958474137336019e+02, 2.949286146154957e+03, 1.014289373496357e+03, 3.420022892605933e+03
773, -1.538415120121150e-16, 3.800000000000070e-03, 3.055468143496706e-04, -1.515172045085334e-05, 1.456160926182820e+02, -5.821351438068473e+01, 6.167552890299479e+02, 1.250237919307766e+03
774, 4.999999999984441e-05, 3.799999999998119e-03, 3.050811992917484e-04, -2.210185805221333e-05, 8.464514551509319e+01, -3.054570383608308e+03, 1.701551716864461e+02, 3.157607522808383e+03
775, 9.999999999987444e-05, 3.799999999996168e-03, 3.046584216582274e-04, -2.906050539363161e-05, 1.245181928595844e+01, -6.038872034331515e+03, -3.256738129346860e+02, 6.086277524980726e+03
776, 1.499999999999278e-04, 3.799999999994218e-03, 3.042782339094790e-04, -3.603011767171592e-05, -7.145702462150928e+01, -9.010190364341503e+03, -8.708930520115116e+02, 9.106853054199866e+03
777, 1.999999999999633e-04, 3.799999999992265e-03, 3.039403681594374e-04, -4.301315666840326e-05, -1.675848287138566e+02, -1.196758138051878e+04, -1.465662262268796e+03, 1.215864227990789e+04
778, -2.000000000000110e-04, 3.700000000007529e-03, 2.939255157154992e-04, 1.314560966986782e-05, 2.866002051829761e+02, 1.243423252089599e+04, 1.947552796727744e+03, 1.275683418650267e+04
779, -1.500000000000364e-04, 3.700000000005644e-03, 2.932963263645229e-04, 6.312172738765297e-06, 2.650164452538254e+02, 9.298083126933729e+03, 1.691952581944967e+03, 9.646092879185673e+03
780, -1.000000000000644e-04, 3.700000000003758e-03, 2.927121763874658e-04, -5.199971839452596e-07, 2.342755610286483e+02, 6.170262780938590e+03, 1.386923032342460e+03, 6.552111588297484e+03
781, -5.000000000009902e-05, 3.700000000001873e-03, 2.921729054268809e-04, -7.353370651643499e-06, 1.939247712668258e+02, 3.051639468937215e+03, 1.032278657455242e+03, 3.525468791498763e+03
782, -1.666825314924902e-16, 3.699999999999988e-03, 2.916783336524731e-04, -1.419042517808091e-05, 1.435001642924742e+02, -5.690329787456233e+01, 6.278344314977078e+02, 1.271560396184442e+03
783, 4.999999999983423e-05, 3.699999999998102e-03, 2.912282615405130e-04, -2.103364528207000e-05, 8.252708446633164e+01, -3.154466077210168e+03, 1.734060884320774e+02, 3.255518916357525e+03
784, 9.999999999986681e-05, 3.699999999996217e-03, 2.908224696526602e-04, -2.788552252694110e-05, 1.052012979615733e+01, -6.240133321502130e+03, -3.311896203382172e+02, 6.285651503758880e+03
785, 1.499999999999234e-04, 3.699999999994331e-03, 2.904607184131200e-04, -3.474855555634146e-05, -7.301693766792846e+01, -9.312973257929749e+03, -8.861346724002757e+02, 9.408386228831496e+03
786, 1.999999999999614e-04, 3.699999999992445e-03, 2.901427478838558e-04, -4.162525012597874e-05, -1.685911749260941e+02, -1.237203768763399e+04, -1.491609463813895e+03, 1.256279037310896e+04
787, -2.000000000000130e-04, 3.600000000007325e-03, 2.802244512581541e-04, 1.363435216523577e-05, 2.858398958689833e+02, 1.284604433116364e+04, 1.979280140563841e+03, 1.316924200384051e+04
788, -1.500000000000407e-04, 3.600000000005489e-03, 2.796052730145018e-04, 6.911515327101009e-06, 2.635114805305064e+02, 9.607619130114792e+03, 1.719837454219309e+03, 9.957093513810230e+03
789, -1.000000000000720e-04, 3.600000000003653e-03, 2.790325676972831e-04, 1.899730061734931e-07, 2.322473503598362e+02, 6.377330743218015e+03, 1.410106071341134e+03, 6.761334663726821e+03
790, -5.000000000010923e-05, 3.600000000001818e-03, 2.785061836592484e-04, -6.532786765779766e-06, 1.915932623906990e+02, 3.156048345304293e+03, 1.049879676137809e+03, 3.632765238228471e+03
791, -1.794761171278192e-16, 3.599999999999982e-03, 2.780259498019649e-04, -1.325928344207320e-05, 1.410837377010129e+02, -5.534269387185793e+01, 6.389524407314296e+02, 1.292913078705238e+03
792, 4.999999999982404e-05, 3.599999999998146e-03, 2.775916753485352e-04, -1.999204400729098e-05, 8.024218506850457e+01, -3.255940518056550e+03, 1.771191419963760e+02, 3.354936629874985e+03
793, 9.999999999985923e-05, 3.599999999996311e-03, 2.772031496151569e-04, -2.673360302265816e-05, 8.580882761229759e+00, -6.444826586655699e+03, -3.358246250899526e+02, 6.488264843669180e+03
794, 1.499999999999191e-04, 3.599999999994474e-03, 2.768601417808104e-04, -3.348650266905082e-05, -7.439910689118415e+01, -9.621065515187092e+03, -9.000822149583767e+02, 9.714907693129308e+03
795, 1.999999999999595e-04, 3.599999999992638e-03, 2.765624006546612e-04, -4.025329278764907e-05, -1.692083420535979e+02, -1.278370515584978e+04, -1.515855681528598e+03, 1.297369660714186e+04
796, -2.000000000000149e-04, 3.500000000007369e-03, 2.667459071564424e-04, 1.407810183201113e-05, 2.844761062815251e+02, 1.326520635426960e+04, 2.009173674946169e+03, 1.358846839034552e+04
797, -1.500000000000451e-04, 3.500000000005565e-03, 2.661368838765994e-04, 7.469441397938849e-06, 2.614370625074836e+02, 9.922768705601015e+03, 1.746359376813732e+03, 1.027328639772986e+04
798, -1.000000000000796e-04, 3.500000000003764e-03, 2.655757896350205e-04, 8.621097703939229e-07, 2.297097011966541e+02, 6.588251911674392e+03, 1.432395217792517e+03, 6.974100894183178e+03
799, -5.000000000011939e-05, 3.500000000001962e-03, 2.650624822833801e-04, -5.746446452324063e-06, 1.888380062560083e+02, 3.262525688621327e+03, 1.067053675532111e+03, 3.741920650493625e+03
800, -1.923239128717724e-16, 3.500000000000160e-03, 2.645968002492076e-04, -1.235878869304682e-05, 1.383550109496240e+02, -5.352310626975225e+01, 6.501074399542092e+02, 1.314296749521551e+03
801, 4.999999999981385e-05, 3.499999999998358e-03, 2.641785623035513e-04, -1.897748644886202e-05, 7.778238653378162e+01, -3.358990480119953e+03, 1.813295827154089e+02, 3.455854367191752e+03
802, 9.999999999985163e-05, 3.499999999996555e-03, 2.638075673253888e-04, -2.560511734358318e-05, 6.630285725609383e+00, -6.652955171998955e+03, -3.395062292269113e+02, 6.694112068637034e+03
803, 1.499999999999148e-04, 3.499999999994753e-03, 2.634835940637442e-04, -3.224426717840094e-05, -7.560276116420937e+01, -9.934478491976897e+03, -9.126255071355770e+02, 1.002641371282401e+04
804, 1.999999999999576e-04, 3.499999999992950e-03, 2.632064008977245e-04, -3.889752998051004e-05, -1.694298268987370e+02, -1.320260402377495e+04, -1.538252788656391e+03, 1.339135975968671e+04
805, -2.000000000000167e-04, 3.400000000007423e-03, 2.534972115947271e-04, 1.447615754701956e-05, 2.824951118123568e+02, 1.369173984496438e+04, 2.037078761425534e+03, 1.401451404204117e+04
806, -1.500000000000494e-04, 3.400000000005649e-03, 2.528984700611837e-04, 7.985309001927883e-06, 2.587803885381243e+02, 1.024355237453797e+04, 1.771401227655904e+03, 1.059467417383710e+04
807, -1.000000000000872e-04, 3.400000000003875e-03, 2.523491361785440e-04, 1.495830859087379e-06, 2.266502769444114e+02, 6.803044434414314e+03, 1.453711271651028e+03, 7.190414867009084e+03
808, -5.000000000012958e-05, 3.400000000002102e-03, 2.518490781115259e-04, -4.994871729938802e-06, 1.856481596004573e+02, 3.371086500106626e+03, 1.083759611240044e+03, 3.852941344088614e+03
809, -2.051242747706794e-16, 3.400000000000329e-03, 2.513981446381592e-04, -1.148940218218437e-05, 1.353059939870707e+02, -5.143327032424463e+01, 6.612967495822569e+02, 1.335711464676321e+03
810, 4.999999999980369e-05, 3.399999999998554e-03, 2.509961649099425e-04, -1.799037254847532e-05, 7.514398927824971e+01, -3.463608996123870e+03, 1.860732855935024e+02, 3.558267241529037e+03
811, 9.999999999984403e-05, 3.399999999996781e-03, 2.506429482088626e-04, -2.450040357451527e-05, 4.670447114095168e+00, -6.864516934101546e+03, -3.421598347092682e+02, 6.903189747370798e+03
812, 1.499999999999104e-04, 3.399999999995008e-03, 2.503382837021509e-04, -3.102212475916283e-05, -7.661831988715176e+01, -1.025321528987214e+04, -9.236510831211643e+02, 1.034290342132765e+04
813, 1.999999999999557e-04, 3.399999999993234e-03, 2.500819401954205e-04, -3.755817441059317e-05, -1.692378754487777e+02, -1.362874392579668e+04, -1.558648069808447e+03, 1.381578221967262e+04
814, -2.000000000000187e-04, 3.300000000007353e-03, 2.404858206104603e-04, 1.482785293646458e-05, 2.798828066165787e+02, 1.412566403892805e+04, 2.062834231455331e+03, 1.444738032305110e+04
815, -1.500000000000538e-04, 3.300000000005614e-03, 2.398974691615836e-04, 8.458510950073958e-06, 2.555265458896320e+02, 1.056998810606049e+04, 1.794840670619399e+03, 1.092126043128174e+04
816, -1.000000000000948e-04, 3.300000000003875e-03, 2.393600264171783e-04, 2.090588800111030e-06, 2.230547601135272e+02, 7.021724469647912e+03, 1.473971410160899e+03, 7.410281822658784e+03
817, -5.000000000013977e-05, 3.300000000002137e-03, 2.388733716981571e-04, -4.278549803338248e-06, 1.820110695882206e+02, 3.481744392492736e+03, 1.099954467483863e+03, 3.965834001119727e+03
818, -2.179652942510546e-16, 3.300000000000398e-03, 2.384373649861741e-04, -1.065155028792719e-05, 1.319267558071583e+02, -4.906290431962339e+01, 6.725173815418765e+02, 1.357157238855018e+03
819, 4.999999999979350e-05, 3.299999999998659e-03, 2.380518466746462e-04, -1.703106729310321e-05, 7.232085708150839e+01, -3.569789948008075e+03, 1.913875170645641e+02, 3.662169827206659e+03
820, 9.999999999983644e-05, 3.299999999996922e-03, 2.377166373181584e-04, -2.341976473960293e-05, 2.700111173880714e+00, -7.079510794130118e+03, -3.437076778367233e+02, 7.115493741014922e+03
821, 1.499999999999061e-04, 3.299999999995182e-03, 2.374315373798189e-04, -2.982031589584900e-05, -7.744114145527578e+01, -1.057728084315588e+04, -9.330404160309645e+02, 1.066437487306205e+04
822, 1.999999999999538e-04, 3.299999999993444e-03, 2.371963269768828e-04, -3.623540344029233e-05, -1.686212134411951e+02, -1.406213679619249e+04, -1.576882307322741e+03, 1.424696481685636e+04
823, -2.000000000000206e-04, 3.200000000007042e-03, 2.277193185182291e-04, 1.513255906546248e-05, 2.766192318163992e+02, 1.456699165380919e+04, 2.086273957769706e+03, 1.488707157458190e+04
824, -1.500000000000580e-04, 3.200000000005365e-03, 2.271414455958564e-04, 8.888477498198032e-06, 2.516554578385881e+02, 1.090208861433790e+04, 1.816551915150228e+03, 1.125305158002947e+04
825, -1.000000000001024e-04, 3.200000000003689e-03, 2.266160048231748e-04, 2.645873594900809e-06, 2.189047189390474e+02, 7.244304414508185e+03, 1.493090469202887e+03, 7.633709287063591e+03
826, -5.000000000014997e-05, 3.200000000002012e-03, 2.261428875468376e-04, -3.597930360392893e-06, 1.779106294790729e+02, 3.594510462209358e+03, 1.115594021720161e+03, 4.080607124216158e+03
827, -2.307656561499616e-16, 3.200000000000335e-03, 2.257219658290464e-04, -9.845621813619232e-06, 1.282040268064982e+02, -4.640335956653792e+01, 6.837663563534211e+02, 1.378634636043704e+03
828, 4.999999999978330e-05, 3.199999999998658e-03, 2.253530921910119e-04, -1.609989802011853e-05, 6.930310865117303e+01, -3.677528302664498e+03, 1.973108263004490e+02, 3.767555158657037e+03
829, 9.999999999982882e-05, 3.199999999996980e-03, 2.250360993544774e-04, -2.236346612218078e-05, 7.133478567345719e-01, -7.297936538821645e+03, -3.440694076200565e+02, 7.331018019166941e+03
830, 1.499999999999017e-04, 3.199999999995303e-03, 2.247707999811842e-04, -2.863904322360597e-05, -7.807263259017759e+01, -1.090668097473534e+04, -9.406711306216400e+02, 1.099082377856709e+04
831, 1.999999999999519e-04, 3.199999999993626e-03, 2.245569864100678e-04, -3.492935646181539e-05, -1.675752077118142e+02, -1.450279506775311e+04, -1.592790835091490e+03, 1.468490582241262e+04
832, -2.000000000000225e-04, 3.100000000006703e-03, 2.152054179306708e-04, 1.538968730833840e-05, 2.726882739903137e+02, 1.501573375057813e+04, 2.107227301366507e+03, 1.533359114895248e+04
833, -1.500000000000624e-04, 3.100000000005093e-03, 2.146380906742499e-04, 9.274679200996848e-06, 2.471508892792654e+02, 1.123986609134644e+04, 1.836405910291424e+03, 1.159005324332774e+04
834, -1.000000000001100e-04, 3.100000000003483e-03, 2.141247413447135e-04, 3.161215558557774e-06, 2.141845222376489e+02, 7.470796697280078e+03, 1.510981044744771e+03, 7.860704493191816e+03
835, -5.000000000016015e-05, 3.100000000001875e-03, 2.136652742092153e-04, -2.953422744658819e-06, 1.733325304489144e+02, 3.709396302761265e+03, 1.130632875788271e+03, 4.197269326730520e+03
836, -2.436134518939148e-16, 3.100000000000265e-03, 2.132595743144517e-04, -9.071965172610508e-06, 1.241256819913008e+02, -4.344486341562651e+01, 6.950406575203571e+02, 1.400144974677014e+03
837, 4.999999999977311e-05, 3.099999999998656e-03, 2.129075072229272e-04, -1.519715161602803e-05, 6.608173851076208e+01, -3.786817059678470e+03, 2.038829141938141e+02, 3.874416358613085e+03
838, 9.999999999982122e-05, 3.099999999997047e-03, 2.126089187464756e-04, -2.133173247834743e-05, -1.294705564715287e+00, -7.519790855686828e+03, -3.431623191421785e+02, 7.549756676113288e+03
839, 1.499999999998973e-04, 3.099999999995438e-03, 2.123636346775703e-04, -2.747846875908591e-05, -7.851232623716282e+01, -1.124141690718002e+04, -9.464172494398083e+02, 1.132224629317804e+04
840, 1.999999999999499e-04, 3.099999999993829e-03, 2.121714605187074e-04, -3.364013213425931e-05, -1.660930797995511e+02, -1.495072565405361e+04, -1.606204092447524e+03, 1.512960431412781e+04
841, -2.000000000000244e-04, 3.000000000006373e-03, 2.029519599192885e-04, 1.559869241731074e-05, 2.680833847649740e+02, 1.547190380044748e+04, 2.125517102867536e+03, 1.578693912861685e+04
842, -1.500000000000668e-04, 3.000000000004845e-03, 2.023952227556347e-04, 9.616629950511957e-06, 2.420043535104887e+02, 1.158333518376555e+04, 1.854268395937340e+03, 1.193226844057667e+04
843, -1.000000000001176e-04, 3.000000000003318e-03, 2.018940315418970e-04, 3.636188319964066e-06, 2.088836678937341e+02, 7.701215454175809e+03, 1.527552136781242e+03, 8.091272935581428e+03
844, -5.000000000017031e-05, 3.000000000001789e-03, 2.014483043922192e-04, -2.345392984851962e-06, 1.682655995320815e+02, 3.826414854756802e+03, 1.145023637696725e+03, 4.315828135716034e+03
845, -2.564273663199779e-16, 3.000000000000262e-03, 2.010579402741557e-04, -8.330885439336578e-06, 1.196812625594009e+02, -4.017633095126848e+01, 7.063368285366148e+02, 1.421689597483106e+03
846, 4.999999999976296e-05, 2.999999999998735e-03, 2.007228187367757e-04, -1.432307158240144e-05, 6.264830625071249e+01, -3.897647744071701e+03, 2.111445839586009e+02, 3.982746909802267e+03
847, 9.999999999981362e-05, 2.999999999997206e-03, 2.004427996365461e-04, -2.032474511152268e-05, -3.329206389725869e+00, -7.745068717356082e+03, -3.409010316977385e+02, 7.771704105877161e+03
848, 1.499999999998930e-04, 2.999999999995678e-03, 2.002177228608729e-04, -2.633871097524689e-05, -7.876092862804103e+01, -1.158148804253433e+04, -9.501485216198996e+02, 1.165863885320841e+04
849, 1.999999999999481e-04, 2.999999999994151e-03, 2.000474080493332e-04, -3.236778546302163e-05, -1.641703483228657e+02, -1.540593373987142e+04, -1.616946675600030e+03, 1.558105957535898e+04
850, -2.000000000000263e-04, 2.900000000006043e-03, 1.909669145636894e-04, 1.575907558601539e-05, 2.627971114129912e+02, 1.593551178795561e+04, 2.140959392728925e+03, 1.624711709250510e+04
851, -1.500000000000711e-04, 2.900000000004594e-03, 1.904207876469535e-04, 9.913890025879970e-06, 2.362052205538423e+02, 1.193250685800440e+04, 1.869999721931196e+03, 1.227970145542308e+04
852, -1.000000000001252e-04, 2.900000000003146e-03, 1.899317968694238e-04, 4.070411863108514e-06, 2.029899856230841e+02, 7.935572184553428e+03, 1.542709051535927e+03, 8.325420850262042e+03
853, -5.000000000018052e-05, 2.900000000001698e-03, 1.894998751487076e-04, -1.774160764174819e-06, 1.626973189426164e+02, 3.945577545124464e+03, 1.158716838089957e+03, 4.436291429688809e+03
854, -2.692480570096190e-16, 2.900000000000249e-03, 1.891249363379640e-04, -7.622641330328832e-06, 1.148589488081327e+02, -3.658720963191968e+01, 7.176509170131803e+02, 1.443269653829694e+03
855, 4.999999999975274e-05, 2.899999999998802e-03, 1.888068749471187e-04, -1.347785502872239e-05, 5.899276180541824e+01, -4.010011545078248e+03, 2.191377277709498e+02, 4.092539727891261e+03
856, 9.999999999980604e-05, 2.899999999997354e-03, 1.885455658617306e-04, -1.934263887652839e-05, -5.397318003543887e+00, -7.973763968957170e+03, -3.371974597075802e+02, 7.996854105919582e+03
857, 1.499999999998886e-04, 2.899999999995905e-03, 1.883408640591341e-04, -2.521984181741363e-05, -7.882147573986867e+01, -1.192689177153120e+04, -9.517303052869984e+02, 1.199999716791715e+04
858, 1.999999999999462e-04, 2.899999999994458e-03, 1.881926043219276e-04, -3.111232482165735e-05, -1.618042651689227e+02, -1.586842084856458e+04, -1.624837161306288e+03, 1.603927017357233e+04
859, -2.000000000000283e-04, 2.800000000005697e-03, 1.792583812322221e-04, 1.587038749372051e-05, 2.568142733187906e+02, 1.640655712336007e+04, 2.153365805663333e+03, 1.671412969000958e+04
860, -1.500000000000755e-04, 2.800000000004316e-03, 1.787228588151203e-04, 1.016606916421953e-05, 2.297373515533186e+02, 1.228738403007276e+04, 1.883457122216666e+03, 1.263235870092857e+04
861, -1.000000000001328e-04, 2.800000000002934e-03, 1.782460848333849e-04, 4.463555616175616e-06, 1.964878700864358e+02, 8.173873215938943e+03, 1.556354797004486e+03, 8.563155841911195e+03
862, -5.000000000019071e-05, 2.800000000001552e-03, 1.778280079828550e-04, -1.239996325691104e-06, 1.566126121130567e+02, 4.066892617709633e+03, 1.171661699449762e+03, 4.558668037266848e+03
863, -2.820416426449479e-16, 2.800000000000171e-03, 1.774685579887305e-04, -6.947442113243333e-06, 1.096444496130459e+02, -3.266875331588039e+01, 7.289788157500353e+02, 1.464886856715284e+03
864, 4.999999999974258e-05, 2.799999999998790e-03, 1.771676453205431e-04, -1.266164959138006e-05, 5.510205124445770e+01, -4.123900573825346e+03, 2.279053446240694e+02, 4.203787140754534e+03
865, 9.999999999979847e-05, 2.799999999997408e-03, 1.769251609036836e-04, -1.838549911357443e-05, -7.510307214715567e+00, -8.205870945526127e+03, -3.319610828932110e+02, 8.225199681347343e+03
866, 1.499999999998843e-04, 2.799999999996027e-03, 1.767409758278212e-04, -2.412188365575971e-05, -7.870293359606057e+01, -1.227762613536737e+04, -9.510241693571223e+02, 1.234631585395093e+04
867, 1.999999999999443e-04, 2.799999999994645e-03, 1.766149410521602e-04, -2.987370892809511e-05, -1.590007966595806e+02, -1.633819020524759e+04, -1.629688721341273e+03, 1.650423313071026e+04
868, -2.000000000000301e-04, 2.700000000005420e-03, 1.678345883541640e-04, 1.593223165454776e-05, 2.501349074495406e+02, 1.688504324716828e+04, 2.162542542822782e+03, 1.718797650885402e+04
869, -1.500000000000799e-04, 2.700000000004097e-03, 1.673096372856952e-04, 1.037282987862158e-05, 2.225975951931068e+02, 1.264797407465857e+04, 1.894493457957942e+03, 1.299024258839824e+04
870, -1.000000000001404e-04, 2.700000000002773e-03, 1.668450689550501e-04, 4.815341734866504e-06, 1.893705146705479e+02, 8.416128055936348e+03, 1.568389175608913e+03, 8.804482839295135e+03
871, -5.000000000020087e-05, 2.700000000001450e-03, 1.664408488405457e-04, -7.431172177055602e-07, 1.500022910802802e+02, 4.190370993788933e+03, 1.183805549847871e+03, 4.682965040786669e+03
872, -2.948962146524792e-16, 2.700000000000125e-03, 1.660969235575415e-04, -6.305444376255307e-06, 1.040275655310365e+02, -2.840933425737444e+01, 7.403159163112953e+02, 1.486543021981166e+03
873, 4.999999999973239e-05, 2.699999999998801e-03, 1.658132205662786e-04, -1.187455022382057e-05, 5.096636516129388e+01, -4.239303232551112e+03, 2.374913845087224e+02, 4.316482578665046e+03
874, 9.999999999979085e-05, 2.699999999997478e-03, 1.655896478759746e-04, -1.745335845684693e-05, -9.676094549748768e+00, -8.441378794688320e+03, -3.250989309207143e+02, 8.456735048650115e+03
875, 1.499999999998800e-04, 2.699999999996155e-03, 1.654260937456462e-04, -2.304480611089728e-05, -7.840958099042246e+01, -1.263368159837783e+04, -9.478876820387975e+02, 1.269759109680394e+04
876, 1.999999999999424e-04, 2.699999999994831e-03, 1.653224263820274e-04, -2.865184368493165e-05, -1.557590835951723e+02, -1.681523447444543e+04, -1.631309033917979e+03, 1.697594760108887e+04
877, -2.000000000000321e-04, 2.600000000005380e-03, 1.567038938492128e-04, 1.594426791212378e-05, 2.427683744159667e+02, 1.737097567272748e+04, 2.168287330341450e+03, 1.766865487357792e+04
878, -1.500000000000841e-04, 2.600000000004088e-03, 1.561894519460454e-04, 1.053389089607736e-05, 2.147880846384762e+02, 1.301428491186874e+04, 1.902954606355821e+03, 1.335335403431216e+04
879, -1.000000000001480e-04, 2.600000000002797e-03, 1.557370489677659e-04, 5.125548495864992e-06, 1.816340998323260e+02, 8.662346238384998e+03, 1.578707153586408e+03, 9.049405697841943e+03
880, -5.000000000021105e-05, 2.600000000001504e-03, 1.553466682150472e-04, -2.836849340629367e-07, 1.428583694892757e+02, 4.316023542085527e+03, 1.195092855157263e+03, 4.809188630898361e+03
881, -3.077169053421203e-16, 2.600000000000212e-03, 1.550182742456177e-04, -5.696748693887336e-06, 9.799764383259640e+01, -2.379733826947972e+01, 7.516565981939680e+02, 1.508238901533626e+03
882, 4.999999999972220e-05, 2.599999999998920e-03, 1.547518125747292e-04, -1.111659588168778e-05, 4.657368600647465e+01, -4.356207978799813e+03, 2.479405742943616e+02, 4.430618974983077e+03
883, 9.999999999978321e-05, 2.599999999997628e-03, 1.545472093718326e-04, -1.654619353389217e-05, -1.190695205950260e+01, -8.680277083879108e+03, -3.165154807029009e+02, 8.691453787504173e+03
884, 1.499999999998756e-04, 2.599999999996335e-03, 1.544043711539640e-04, -2.198852276342992e-05, -7.795311360689379e+01, -1.299505017021957e+04, -9.421740458810805e+02, 1.305381798941901e+04
885, 1.999999999999405e-04, 2.599999999995043e-03, 1.543231844762005e-04, -2.744657889526963e-05, -1.520892059318692e+02, -1.729954923323172e+04, -1.629499611785801e+03, 1.745441094185325e+04
886, -2.000000000000340e-04, 2.500000000005436e-03, 1.458747857477226e-04, 1.590621574925187e-05, 2.347066065981578e+02, 1.786434150385221e+04, 2.170392435296224e+03, 1.815616809525740e+04
887, -1.500000000000885e-04, 2.500000000004174e-03, 1.453707599517744e-04, 1.064903050041441e-05, 2.062980946524181e+02, 1.338631078018193e+04, 1.908682422995968e+03, 1.372169846477228e+04
888, -1.000000000001556e-04, 2.500000000002911e-03, 1.449304510711198e-04, 5.394013660799040e-06, 1.732668464566398e+02, 8.912528849104756e+03, 1.587200770789258e+03, 9.297931248299548e+03
889, -5.000000000022121e-05, 2.500000000001650e-03, 1.445538612885186e-04, 1.381984575830166e-07, 1.351678044910368e+02, 4.443856368253688e+03, 1.205466403706028e+03, 4.937346872699429e+03
890, -3.205375960317614e-16, 2.500000000000388e-03, 1.442409741802228e-04, -5.121396256746760e-06, 9.154069212505351e+01, -1.882311064482838e+01, 7.629949282797967e+02, 1.529975559048117e+03
891, 4.999999999971200e-05, 2.499999999999127e-03, 1.439917544076333e-04, -1.038776616080869e-05, 4.190972266491531e+01, -4.474602897766190e+03, 2.592987678958057e+02, 4.546188475486095e+03
892, 9.999999999977564e-05, 2.499999999997865e-03, 1.438061474062645e-04, -1.566392161738963e-05, -1.421655279343668e+01, -8.922552802038977e+03, -3.061125986805428e+02, 8.929349048049693e+03
893, 1.499999999998713e-04, 2.499999999996604e-03, 1.436840790713678e-04, -2.095288782454397e-05, -7.734544919001132e+01, -1.336171879762779e+04, -9.337324038869319e+02, 1.341499161643263e+04
894, 1.999999999999386e-04, 2.499999999995341e-03, 1.436254554402202e-04, -2.625770496460062e-05, -1.480002345791750e+02, -1.779112260138261e+04, -1.624056319259815e+03, 1.793962102616748e+04
895, -2.000000000000358e-04, 2.400000000005491e-03, 1.353558817428513e-04, 1.581785787320419e-05, 2.259594068347737e+02, 1.836513439272326e+04, 2.168644888737402e+03, 1.865051612643655e+04
896, -1.500000000000929e-04, 2.400000000004260e-03, 1.348621464489721e-04, 1.071809008452647e-05, 1.971303090617121e+02, 1.376405108652616e+04, 1.911514992429508e+03, 1.409527926814959e+04
897, -1.000000000001632e-04, 2.400000000003029e-03, 1.344338277383492e-04, 5.620638005443268e-06, 1.642648779445904e+02, 9.166679750075138e+03, 1.593759422840861e+03, 9.550065440693767e+03
898, -5.000000000023145e-05, 2.400000000001797e-03, 1.340709477714792e-04, 5.224938278410877e-07, 1.269218750805032e+02, 4.573877409174038e+03, 1.214867586179744e+03, 5.067447733327489e+03
899, -3.333650629849805e-16, 2.400000000000566e-03, 1.337735102512060e-04, -4.579365375115689e-06, 8.464447075406065e+01, -1.347537159844660e+01, 7.743249409819691e+02, 1.551755122553233e+03
900, 4.999999999970184e-05, 2.399999999999334e-03, 1.335415001079883e-04, -9.687977815120132e-06, 3.695996608728319e+01, -4.594474231340952e+03, 2.716132770405418e+02, 4.663183227599634e+03
901, 9.999999999976805e-05, 2.399999999998102e-03, 1.333748831814872e-04, -1.480639715525464e-05, -1.662042478372700e+01, -9.168190661167926e+03, -2.937890834436302e+02, 9.170413616281206e+03
902, 1.499999999998670e-04, 2.399999999996872e-03, 1.332736058986435e-04, -1.993769267493939e-05, -7.660179082344598e+01, -1.373367164240185e+04, -9.224070594423542e+02, 1.378110648910776e+04
903, 1.999999999999366e-04, 2.399999999995640e-03, 1.332375949481584e-04, -2.508494943285704e-05, -1.435058887674427e+02, -1.828993939266657e+04, -1.614768572211235e+03, 1.843157505691354e+04
904, -2.000000000000378e-04, 2.300000000005451e-03, 1.251559294490386e-04, 1.567904397911544e-05, 2.165386167600568e+02, 1.887334168019821e+04, 2.162824880846044e+03, 1.915169826435093e+04
905, -1.500000000000972e-04, 2.300000000004251e-03, 1.246723247001925e-04, 1.074097786097231e-05, 1.872888718326278e+02, 1.414750046487705e+04, 1.911284698995397e+03, 1.447409909199974e+04
906, -1.000000000001708e-04, 2.300000000003051e-03, 1.242558577518003e-04, 5.805388992682291e-06, 1.546256625771523e+02, 9.424799947912672e+03, 1.598268605161194e+03, 9.805813654025429e+03
907, -5.000000000024163e-05, 2.300000000001851e-03, 1.239065718661146e-04, 8.692286243249998e-07, 1.181123277429456e+02, 4.706093088291293e+03, 1.223235520818765e+03, 5.199498823611060e+03
908, -3.461857536746216e-16, 2.300000000000652e-03, 1.236244920116341e-04, -4.070567870171252e-06, 7.729608239459185e+01, -7.743224617100850e+00, 7.856399878776043e+02, 1.573579500993298e+03
909, 4.999999999969163e-05, 2.299999999999453e-03, 1.234096245419245e-04, -9.017081175910471e-06, 3.170792095487582e+01, -4.715807651748147e+03, 2.849323079915698e+02, 4.781594900617086e+03
910, 9.999999999976044e-05, 2.299999999998253e-03, 1.232619568704249e-04, -1.397340821750251e-05, -1.913763678622058e+01, -9.417174041276634e+03, -2.794412439745354e+02, 9.414639552073315e+03
911, 1.499999999998626e-04, 2.299999999997052e-03, 1.231814571413091e-04, -1.894266233876999e-05, -7.574279314579894e+01, -1.411089104910341e+04, -9.080382119662181e+02, 1.415215602458768e+04
912, 1.999999999999347e-04, 2.299999999995853e-03, 1.231680738964218e-04, -2.392797348153239e-05, -1.386267171606937e+02, -1.879598173694834e+04, -1.601419766044546e+03, 1.893026881485595e+04
913, -2.000000000000396e-04, 2.200000000005174e-03, 1.152838065229985e-04, 1.548969448205296e-05, 2.064561043979575e+02, 1.938894284192132e+04, 2.152706240864914e+03, 1.965971449622539e+04
914, -1.500000000001016e-04, 2.200000000004032e-03, 1.148101361393796e-04, 1.071767261788084e-05, 1.767782769972800e+02, 1.453664764200070e+04, 1.907819270519978e+03, 1.485816091095507e+04
915, -1.000000000001784e-04, 2.200000000002889e-03, 1.144053461944260e-04, 5.948304515241143e-06, 1.443472180559661e+02, 9.686886756010961e+03, 1.600610321187883e+03, 1.006518129169103e+04
916, -5.000000000025179e-05, 2.200000000001748e-03, 1.140695022020874e-04, 1.178500597187104e-06, 1.087312663178614e+02, 4.840508048080795e+03, 1.230507225590224e+03, 5.333507630195141e+03
917, -3.590132206278407e-16, 2.200000000000606e-03, 1.138026515638766e-04, -3.594845369265886e-06, 6.948252192469431e+01, -1.615859074853688e+00, 7.969327711305407e+02, 1.595450515242628e+03
918, 4.999999999968146e-05, 2.199999999999464e-03, 1.136048232411228e-04, -8.374856469353602e-06, 2.613644681899495e+01, -4.838587305891488e+03, 2.993049157142817e+02, 4.901415195682619e+03
919, 9.999999999975283e-05, 2.199999999998322e-03, 1.134760274228527e-04, -1.316467283701097e-05, -2.178838440475101e+01, -9.669483177320406e+03, -2.629630199904620e+02, 9.662019096274955e+03
920, 1.499999999998582e-04, 2.199999999997180e-03, 1.134162551894873e-04, -1.796745185027940e-05, -7.479053834497040e+01, -1.449335449224456e+04, -8.904621451100566e+02, 1.452813401026397e+04
921, 1.999999999999328e-04, 2.199999999996038e-03, 1.134254781726035e-04, -2.278636832562578e-05, -1.333858619747118e+02, -1.930922590029116e+04, -1.583787788459933e+03, 1.943569850071253e+04
922, -2.000000000000416e-04, 2.100000000004828e-03, 1.057485205409445e-04, 1.524980446819779e-05, 1.957350172509111e+02, 1.991191718886753e+04, 2.138056545185194e+03, 2.017456276071455e+04
923, -1.500000000001059e-04, 2.100000000003754e-03, 1.052845502591441e-04, 1.064822761575749e-05, 1.656113528519484e+02, 1.493148138773847e+04, 1.900941158023284e+03, 1.524746624958480e+04
924, -1.000000000001860e-04, 2.100000000002678e-03, 1.048912243219170e-04, 6.049496767990675e-06, 1.334328138894873e+02, 9.952937286716991e+03, 1.600662848390186e+03, 1.032817284463935e+04
925, -5.000000000026199e-05, 2.100000000001603e-03, 1.045686316770766e-04, 1.450481645523697e-06, 9.877384754192644e+01, 4.977127193226146e+03, 1.236617519037323e+03, 5.469481046580975e+03
926, -3.718339113174818e-16, 2.100000000000528e-03, 1.043168433592555e-04, -3.151965482685565e-06, 6.119216199909215e+01, 4.918646922288872e+00, 8.081953997496671e+02, 1.617370064396270e+03
927, 4.999999999967128e-05, 2.099999999999452e-03, 1.041359121557339e-04, -7.761010013984287e-06, 2.022847268508690e+01, -4.962795122172088e+03, 3.147812333809508e+02, 5.022636065499734e+03
928, 9.999999999974523e-05, 2.099999999998377e-03, 1.040258722676056e-04, -1.237983522477055e-05, -2.459378665170607e+01, -9.925094775609958e+03, -2.442455216739035e+02, 9.912544745512845e+03
929, 1.499999999998539e-04, 2.099999999997302e-03, 1.039867389665443e-04, -1.701164248247549e-05, -7.376872481362830e+01, -1.488103441969265e+04, -8.695104913527796e+02, 1.490903455415646e+04
930, 1.999999999999309e-04, 2.099999999996226e-03, 1.040185082474610e-04, -2.165965145657089e-05, -1.278083343559299e+02, -1.982964123743384e+04, -1.561644155352702e+03, 1.994786077785265e+04
931, -2.000000000000435e-04, 2.000000000004496e-03, 9.655920914890206e-05, 1.495944768837827e-05, 1.843980655236392e+02, 2.044223451909159e+04, 2.118636536809980e+03, 2.069624170906233e+04
932, -1.500000000001103e-04, 2.000000000003499e-03, 9.610466464159065e-05, 1.053277457371516e-05, 1.538004926169401e+02, 1.533198325735181e+04, 1.890467600192120e+03, 1.564201723017845e+04
933, -1.000000000001936e-04, 2.000000000002501e-03, 9.572254949801654e-05, 6.109156206770688e-06, 1.218854956132884e+02, 1.022294402353941e+04, 1.598300688471087e+03, 1.059479323760769e+04
934, -5.000000000027220e-05, 2.000000000001505e-03, 9.541297731017939e-05, 1.685421752912029e-06, 8.823446255852878e+01, 5.115952731652176e+03, 1.241498994150736e+03, 5.607426326157767e+03
935, -3.846512138753339e-16, 2.000000000000507e-03, 9.517604397583691e-05, -2.741617892229452e-06, 5.241162635595947e+01, 1.187110699393361e+01, 8.194193467161140e+02, 1.639340049166369e+03
936, 4.999999999966107e-05, 1.999999999999510e-03, 9.501182735764681e-05, -7.175170333545172e-06, 1.396381437281275e+01, -5.088412843913809e+03, 3.314124116580214e+02, 5.145248712106355e+03
937, 9.999999999973761e-05, 1.999999999998513e-03, 9.492038693765609e-05, -1.161846190695212e-05, -2.757983308257712e+01, -1.018398436619024e+04, -2.231771253429591e+02, 1.016620800285118e+04
938, 1.499999999998495e-04, 1.999999999997515e-03, 9.490176346713542e-05, -1.607473790911248e-05, -7.270816052314672e+01, -1.527390149586398e+04, -8.450103598183298e+02, 1.529485040303474e+04
939, 1.999999999999290e-04, 1.999999999996517e-03, 9.495597861180130e-05, -2.054726282574195e-05, -1.219282722453579e+02, -2.035719455691240e+04, -1.534753988731658e+03, 2.046675061740612e+04
940, -2.000000000000454e-04, 1.900000000004165e-03, 8.772513989903443e-05, 1.461878068310392e-05, 1.724766476716409e+02, 2.097986186982969e+04, 2.094200581767577e+03, 2.122474932926143e+04
941, -1.500000000001146e-04, 1.900000000003247e-03, 8.727970478380127e-05, 1.037152775376906e-05, 1.413640544237674e+02, 1.573813239888993e+04, 1.876210787492666e+03, 1.604181568487050e+04
942, -1.000000000002012e-04, 1.900000000002328e-03, 8.690850499272937e-05, 6.127555609455016e-06, 1.097119449704103e+02, 1.049689762720670e+04, 1.593394730582101e+03, 1.086504732925918e+04
943, -5.000000000028235e-05, 1.900000000001409e-03, 8.661168000394786e-05, 1.883653021874607e-06, 7.710934022776587e+01, 5.256986112330656e+03, 1.245082060083294e+03, 5.747350756612658e+03
944, -3.974685164331859e-16, 1.900000000000491e-03, 8.638935183987260e-05, -2.363410343724141e-06, 4.312782421155339e+01, 1.925285936943487e+01, 8.305953896302647e+02, 1.661362338277360e+03
945, 4.999999999965091e-05, 1.899999999999572e-03, 8.624162472022630e-05, -6.616884178054150e-06, 7.321213230776493e+00, -5.215420226598726e+03, 3.492504396986255e+02, 5.269243933035466e+03
946, 9.999999999973007e-05, 1.899999999998654e-03, 8.616858471022874e-05, -1.088003777650937e-05, -3.077475662937672e+01, -1.044612386143765e+04, -1.996437884119767e+02, 1.042299993015621e+04
947, 1.499999999998452e-04, 1.899999999997735e-03, 8.617029936384209e-05, -1.515616028776615e-05, -7.164275048964555e+01, -1.567192088746782e+04, -8.167848389194409e+02, 1.568557387676440e+04
948, 1.999999999999271e-04, 1.899999999996817e-03, 8.624681736190590e-05, -1.944856096242669e-05, -1.157841323124374e+02, -2.089184574711585e+04, -1.502876591720035e+03, 2.099236262124556e+04
949, -2.000000000000473e-04, 1.800000000003828e-03, 7.925571017576216e-05, 1.422804700085754e-05, 1.600032410078986e+02, 2.152475620204156e+04, 2.064496856685058e+03, 2.176008405707678e+04
950, -1.500000000001189e-04, 1.800000000002982e-03, 7.881902394636058e-05, 1.016478816394110e-05, 1.283221708554172e+02, 1.614990111857990e+04, 1.857978114196112e+03, 1.644686361193208e+04
951, -1.000000000002088e-04, 1.800000000002135e-03, 7.845839976661606e-05, 6.105054251836165e-06, 9.692029946882030e+01, 1.077478441120671e+04, 1.585812384140241e+03, 1.113894005996577e+04
952, -5.000000000029254e-05, 1.800000000001289e-03, 7.817400427116326e-05, 2.045593824379125e-06, 6.539536697953372e+01, 5.400226524942683e+03, 1.247295059781847e+03, 5.889261698090792e+03
953, -4.102858189910380e-16, 1.800000000000442e-03, 7.796598689854732e-05, -2.016864522969402e-06, 3.332731844208752e+01, 2.707491303872916e+01, 8.417137168434355e+02, 1.683439044653204e+03
954, 4.999999999964072e-05, 1.799999999999596e-03, 7.783447953870959e-05, -6.085612426294528e-06, 2.779709150279359e-01, -5.343795494781414e+03, 3.683482784735551e+02, 5.394612407187240e+03
955, 9.999999999972246e-05, 1.799999999998750e-03, 7.777959617547904e-05, -1.016396202145235e-05, -3.420931384279902e+01, -1.071148178105805e+04, -1.735288424047750e+02, 1.068291141851032e+04
956, 1.499999999998409e-04, 1.799999999997903e-03, 7.780143252385471e-05, -1.425524621287553e-05, -7.060995482552676e+01, -1.607505250103757e+04, -7.846525874703374e+02, 1.608119709309906e+04
957, 1.999999999999252e-04, 1.799999999997057e-03, 7.790006566204950e-05, -1.836281894244930e-05, -1.094185593545599e+02, -2.143354718346359e+04, -1.465765107342533e+03, 2.152469119353766e+04
958, -2.000000000000492e-04, 1.700000000003484e-03, 7.116044688368344e-05, 1.378758157790653e-05, 1.470216840657865e+02, 2.207687153852881e+04, 2.029267332275587e+03, 2.230224244919455e+04
959, -1.500000000001233e-04, 1.700000000002704e-03, 7.073210283598395e-05, 9.912947896619062e-06, 1.147026819885991e+02, 1.656725884751512e+04, 1.835571934903131e+03, 1.685716173300300e+04
960, -1.000000000002164e-04, 1.700000000001925e-03, 7.038166813041693e-05, 6.042102214291431e-06, 8.352365819065585e+01, 1.105658852289922e+04, 1.575417440128795e+03, 1.141647550550298e+04
961, -5.000000000030273e-05, 1.700000000001145e-03, 7.010933786004878e-05, 2.171753075808682e-06, 5.309204313465443e+01, 5.545672031038966e+03, 1.248064150905679e+03, 6.033165953513179e+03
962, -4.231031215488901e-16, 1.700000000000365e-03, 6.991529020275675e-05, -1.701411813730705e-06, 2.299712070341502e+01, 3.534833954736564e+01, 8.527638183415546e+02, 1.705572359091458e+03
963, 4.999999999963053e-05, 1.699999999999585e-03, 6.979968606398260e-05, -5.580725876090981e-06, -7.190274667089170e+00, -5.473515550835692e+03, 3.887597347282422e+02, 5.521344813563416e+03
964, 9.999999999971485e-05, 1.699999999998805e-03, 6.976266871445288e-05, -9.469543948208201e-06, -3.791812218666018e+01, -1.098002409617076e+04, -1.447131516299115e+02, 1.094593306808137e+04
965, 1.499999999998365e-04, 1.699999999998025e-03, 6.980436342254761e-05, -1.337124257231826e-05, -6.965359133739253e+01, -1.648325266472827e+04, -7.484281191776835e+02, 1.648171147485361e+04
966, 1.999999999999232e-04, 1.699999999997246e-03, 6.992487708077067e-05, -1.728922028753312e-05, -1.028833214477570e+02, -2.198224686380137e+04, -1.423166541967415e+03, 2.206372953612272e+04
967, -2.000000000000511e-04, 1.600000000003144e-03, 6.344900628322982e-05, 1.329781521947503e-05, 1.335810601883886e+02, 2.263615395459445e+04, 1.988246897680581e+03, 2.285122075016134e+04
968, -1.500000000001277e-04, 1.600000000002436e-03, 6.302854935783663e-05, 9.616494582404056e-06, 1.005377164424667e+02, 1.699016915468001e+04, 1.808789276278088e+03, 1.727271040408587e+04
969, -1.000000000002240e-04, 1.600000000001727e-03, 6.268786942661691e-05, 5.939244801671225e-06, 6.953829672429833e+01, 1.134229031683496e+04, 1.562069867898552e+03, 1.169765733793290e+04
970, -5.000000000031292e-05, 1.600000000001018e-03, 6.242719137384992e-05, 2.262734623172024e-06, 4.020077325806483e+01, 5.693318844260269e+03, 1.247313198398026e+03, 6.179069896374644e+03
971, -4.359339766338982e-16, 1.600000000000309e-03, 6.224672347133174e-05, -1.416388941728943e-06, 1.212483458294582e+01, 4.408431218722103e+01, 8.637344210419884e+02, 1.727764454021350e+03
972, 4.999999999962034e-05, 1.599999999999600e-03, 6.214665701708180e-05, -5.101500921724379e-06, -1.510853046715170e+01, -5.604555111269583e+03, 4.105394104329719e+02, 5.649432140464970e+03
973, 9.999999999970728e-05, 1.599999999998891e-03, 6.212716596972613e-05, -8.795998694405140e-06, -4.193745242512273e+01, -1.125171221754654e+04, -1.130751704601515e+02, 1.121205575536669e+04
974, 1.499999999998322e-04, 1.599999999998182e-03, 6.218840657775151e-05, -1.250330229865737e-05, -6.881961918673892e+01, -1.689647025299133e+04, -7.079218129229656e+02, 1.688710866389604e+04
975, 1.999999999999214e-04, 1.599999999997473e-03, 6.233051700289420e-05, -1.622685475054083e-05, -9.623273734629288e+01, -2.253788233088004e+04, -1.374822081791635e+03, 2.260947101338908e+04
976, -2.000000000000531e-04, 1.500000000002802e-03, 5.613117370114079e-05, 1.275927916692905e-05, 1.197353049410162e+02, 2.320254063473264e+04, 1.941164390744652e+03, 2.340701558637147e+04
977, -1.500000000001320e-04, 1.500000000002160e-03, 5.571809826548213e-05, 9.276015928628378e-06, 8.586355762904168e+01, 1.741858935874445e+04, 1.777422249159515e+03, 1.769351019735431e+04
978, -1.000000000002316e-04, 1.500000000001518e-03, 5.538668761808531e-05, 5.797127058161174e-06, 5.498329509122277e+01, 1.163186593746056e+04, 1.545626140156154e+03, 1.198248940645176e+04
979, -5.000000000032311e-05, 1.500000000000877e-03, 5.513719779763013e-05, 2.319241734176191e-06, 2.672420786288649e+01, 5.843160799929832e+03, 1.244964027506371e+03, 6.326980033845126e+03
980, -4.487512791917503e-16, 1.500000000000236e-03, 5.496986855535724e-05, -1.161033512274755e-06, 6.975189303652769e-01, 5.329325617361746e+01, 8.746136952878915e+02, 1.750017935770009e+03
981, 4.999999999961016e-05, 1.499999999999595e-03, 5.488492298940481e-05, -4.647115121381388e-06, -2.350438931420672e+01, -5.736888124349252e+03, 4.337428506107244e+02, 5.778865385660638e+03
982, 9.999999999969963e-05, 1.499999999998952e-03, 5.488256717648241e-05, -8.142442831014348e-06, -4.630848252862324e+01, -1.152650530325484e+04, -7.849085121009995e+01, 1.148127006465344e+04
983, 1.499999999998278e-04, 1.499999999998311e-03, 5.496298980155977e-05, -1.165048000988074e-05, -6.816164874912215e+01, -1.731465051318597e+04, -6.629398564729813e+02, 1.729737943054802e+04
984, 1.999999999999195e-04, 1.499999999997670e-03, 5.512636178209302e-05, -1.517471399942069e-05, -8.953127677183170e+01, -2.310038573042366e+04, -1.320466811167293e+03, 2.316190737147366e+04
985, -2.000000000000549e-04, 1.400000000002461e-03, 4.921686312137295e-05, 1.217260978979087e-05, 1.055477928054690e+02, 2.377596260853529e+04, 1.887742192110266e+03, 2.396962285652853e+04
986, -1.500000000001364e-04, 1.400000000001890e-03, 4.881061071602048e-05, 8.892204377897234e-06, 7.072290853376717e+01, 1.785247179487385e+04, 1.741257891533038e+03, 1.811956151887128e+04
987, -1.000000000002392e-04, 1.400000000001320e-03, 4.848793079645961e-05, 5.616498389198947e-06, 3.988195423695151e+01, 1.192528835916782e+04, 1.525939116633136e+03, 1.227097576238565e+04
988, -5.000000000033329e-05, 1.400000000000748e-03, 4.824911195304111e-05, 2.342081688971598e-06, 1.266734648372494e+01, 5.995190491011141e+03, 1.240936411782598e+03, 6.476903263686873e+03
989, -4.615719698813914e-16, 1.400000000000178e-03, 4.809442683768721e-05, -9.344794456227998e-07, -1.129709421465554e+01, 6.298629636877172e+01, 8.853893189637126e+02, 1.772336030964974e+03
990, 4.999999999959998e-05, 1.399999999999606e-03, 4.802413178856658e-05, -4.216642661433685e-06, -3.240642259210381e+01, -5.870485919479303e+03, 4.584266057504271e+02, 5.909635523736986e+03
991, 9.999999999969204e-05, 1.399999999999035e-03, 4.803846645996372e-05, -7.507889863693364e-06, -5.107508320565239e+01, -1.180435788874737e+04, -4.083368900726367e+01, 1.175356653393660e+04
992, 1.499999999998235e-04, 1.399999999998463e-03, 4.813765345546856e-05, -1.081172756043297e-05, -6.773759446260306e+01, -1.773773165685765e+04, -6.132844958937668e+02, 1.771251426694389e+04
993, 1.999999999999176e-04, 1.399999999997893e-03, 4.832189796328060e-05, -1.413168722857398e-05, -8.284922167672198e+01, -2.366967931112356e+04, -1.259830095404047e+03, 2.372102951276731e+04
994, -2.000000000000568e-04, 1.300000000002126e-03, 4.271611680416643e-05, 1.153855340706944e-05, 9.108747353713761e+01, 2.435634032498534e+04, 1.827695996877359e+03, 2.453903801237370e+04
995, -1.500000000001407e-04, 1.300000000001629e-03, 4.231607382496633e-05, 8.465861875486974e-06, 5.516189438632523e+01, 1.829176029587910e+04, 1.700077716678903e+03, 1.855086462212264e+04
996, -1.000000000002468e-04, 1.300000000001133e-03, 4.200153067124727e-05, 5.398217281944422e-06, 2.425901124299503e+01, 1.222252461890907e+04, 1.502857497075511e+03, 1.256312088858630e+04
997, -5.000000000034346e-05, 1.300000000000637e-03, 4.177280991609835e-05, 2.332170458746569e-06, -1.964594963247464e+00, 6.149398114835785e+03, 1.235147583218542e+03, 6.628847667342231e+03
998, -4.743892724392434e-16, 1.300000000000140e-03, 4.163021856785515e-05, -7.357523306507928e-07, -2.387163390042588e+01, 7.317623022148518e+01, 8.960482874791401e+02, 1.794722380176896e+03
999, 4.999999999958981e-05, 1.299999999999644e-03, 4.157404768432365e-05, -3.809049734705654e-06, -4.184434354176574e+01, -6.005314814504789e+03, 4.846485368165772e+02, 6.041731281263818e+03
1000, 9.999999999968445e-05, 1.299999999999148e-03, 4.160457199098069e-05, -6.891245634557233e-06, -5.628416065324473e+01, -1.208521789958052e+04, 2.600959237975076e-02, 1.202893373903976e+04
1001, 1.499999999998191e-04, 1.299999999998652e-03, 4.172204952410008e-05, -9.985889475727632e-06, -6.761157202518120e+01, -1.816564514416110e+04, -5.587531332440547e+02, 1.813250229377620e+04
1002, 1.999999999999157e-04, 1.299999999998155e-03, 4.192672127905125e-05, -1.309655664410985e-05, -7.626705743904290e+01, -2.424567852553622e+04, -1.192635053774165e+03, 2.428682696854719e+04
1003, -2.000000000000587e-04, 1.200000000001781e-03, 3.663910477612393e-05, 1.085797124807053e-05, 7.643228134256742e+01, 2.494358404727799e+04, 1.760735124315302e+03, 2.511525412298382e+04
1004, -1.500000000001450e-04, 1.200000000001350e-03, 3.624460014665323e-05, 7.997904794075166e-06, 3.922905854574560e+01, 1.873638488299761e+04, 1.653657147385383e+03, 1.898741593182783e+04
1005, -1.000000000002543e-04, 1.200000000000919e-03, 3.593754204758908e-05, 5.143256161628892e-06, 8.136657395186148e+00, 1.252352828258198e+04, 1.476223881728039e+03, 1.285892590101260e+04
1006, -5.000000000035367e-05, 1.200000000000488e-03, 3.571828845675643e-05, 2.290537465162767e-06, -1.716981819549574e+01, 6.305767979319682e+03, 1.227509347824835e+03, 6.782820887155691e+03
1007, -4.872353741173022e-16, 1.200000000000057e-03, 3.558718220750594e-05, -5.637647699335022e-07, -3.704014851591660e+01, 8.388173658255573e+01, 9.065744932699138e+02, 1.817176752461403e+03
1008, 4.999999999957962e-05, 1.199999999999626e-03, 3.554455059193973e-05, -3.423189954872559e-06, -5.184714905052715e+01, -6.141325313286230e+03, 5.124671839270430e+02, 6.175130344463336e+03
1009, 9.999999999967686e-05, 1.199999999999196e-03, 3.559070498927766e-05, -6.291303745116817e-06, -6.198263187834596e+01, -1.236901487678826e+04, 4.422278954232002e+01, 1.230735005180693e+04
1010, 1.499999999998148e-04, 1.199999999998765e-03, 3.572594046579311e-05, -9.171698342297073e-06, -6.785332999177581e+01, -1.859831040732489e+04, -4.991354987825937e+02, 1.855732697560358e+04
1011, 1.999999999999137e-04, 1.199999999998334e-03, 3.595053541886736e-05, -1.206799284106635e-05, -6.987892389311514e+01, -2.482829585871613e+04, -1.118596382020590e+03, 2.485928881891051e+04
1012, -2.000000000000607e-04, 1.100000000001707e-03, 3.099612422486758e-05, 1.013184461766885e-05, 6.167549132313161e+01, 2.553759606324552e+04, 1.686564930703600e+03, 2.569825935834595e+04
1013, -1.500000000001494e-04, 1.100000000001301e-03, 3.060642715066382e-05, 7.489369204532180e-06, 2.297093707398858e+01, 1.918624354499207e+04, 1.601765578536242e+03, 1.942919527205689e+04
1014, -1.000000000002619e-04, 1.100000000000895e-03, 3.030614245676673e-05, 4.852706618417245e-06, -8.474409415448463e+00, 1.282821532216981e+04, 1.445869301037633e+03, 1.315837206525635e+04
1015, -5.000000000036384e-05, 1.100000000000489e-03, 3.009566478065785e-05, 2.218330519022102e-06, -3.295914447472774e+01, 6.464264155352637e+03, 1.217918152562803e+03, 6.938818999886620e+03
1016, -5.000628410705213e-16, 1.100000000000083e-03, 2.997537405599663e-05, -4.173118541938613e-07, -5.082226906575329e+01, 9.513499160975903e+01, 9.169385707179906e+02, 1.839676300827215e+03
1017, 4.999999999956943e-05, 1.099999999999677e-03, 2.994563536988862e-05, -3.057800147544176e-06, -6.244111788951636e+01, -6.278424644186265e+03, 5.419371143592489e+02, 6.309772939090019e+03
1018, 9.999999999966927e-05, 1.099999999999272e-03, 3.000679855051941e-05, -5.706741373480088e-06, -6.821345404142903e+01, -1.265562904963982e+04, 9.189923345623436e+01, 1.258875741496169e+04
1019, 1.499999999998105e-04, 1.099999999998866e-03, 3.015919767231300e-05, -8.367770340278616e-06, -6.853717299204959e+01, -1.903561945700782e+04, -4.342048130003924e+02, 1.898695198411677e+04
1020, 1.999999999999118e-04, 1.099999999998460e-03, 3.040315035086073e-05, -1.104454996584709e-05, -6.380441520011914e+01, -2.541745752239291e+04, -1.037412935339338e+03, 2.543840852477812e+04
1021, -2.000000000000626e-04, 1.000000000002109e-03, 2.579759879670928e-05, 9.361280211082128e-06, 4.693512067609890e+01, 2.613827782256328e+04, 1.604895783592091e+03, 2.628803769572936e+04
1022, -1.500000000001537e-04, 1.000000000001674e-03, 2.541191674578688e-05, 6.941416990349660e-06, 6.437033102778969e+00, 1.964117575385894e+04, 1.544169716191393e+03, 1.987613657333768e+04
1023, -1.000000000002696e-04, 1.000000000001239e-03, 2.511763226495916e-05, 4.527785656317696e-06, -2.557813010377959e+01, 1.313642193339303e+04, 1.411602654448626e+03, 1.346137934565680e+04
1024, -5.000000000037402e-05, 1.000000000000804e-03, 2.491517703360601e-05, 2.116821325497174e-06, -4.936069883988557e+01, 6.624807769578541e+03, 1.206230931313507e+03, 7.096794838760705e+03
1025, -5.128852258260569e-16, 1.000000000000369e-03, 2.480496874904805e-05, -2.950669857229676e-07, -6.525180373894636e+01, 1.069929112868756e+02, 9.270719297838732e+02, 1.862127195931337e+03
1026, 4.999999999955924e-05, 9.999999999999337e-04, 2.478741161849908e-05, -2.711497293945985e-06, -7.366056988507671e+01, -6.416434788417595e+03, 5.730935234429528e+02, 6.445504598844829e+03
1027, 9.999999999966167e-05, 9.999999999994987e-04, 2.486289650113020e-05, -5.136116402216883e-06, -7.502263953503666e+01, -1.294483924752489e+04, 1.432102151511485e+02, 1.287300338639690e+04
1028, 1.499999999998061e-04, 9.999999999990637e-04, 2.503179946403236e-05, -7.572601458892567e-06, -6.975279908922812e+01, -1.947741625672129e+04, -3.636988514727320e+02, 1.942129007823521e+04
1029, 1.999999999999099e-04, 9.999999999986283e-04, 2.529448014344354e-05, -1.002466041058518e-05, -5.820391329416270e+01, -2.601313666427847e+04, -9.487493318188616e+02, 2.602420095385495e+04
1030, -2.000000000000644e-04, 9.000000000025380e-04, 2.105407862345664e-05, 8.547515354266526e-06, 3.235861151671543e+01, 2.674554923075692e+04, 1.515454770146480e+03, 2.688458602436165e+04
1031, -1.500000000001581e-04, 9.000000000020734e-04, 2.067155564123589e-05, 6.355343342007994e-06, -1.028439162900395e+01, 2.010097394583467e+04, 1.480638596194265e+03, 2.032810553215332e+04
1032, -1.000000000002772e-04, 9.000000000016087e-04, 2.038243556960282e-05, 4.169843914683889e-06, -4.310825485132000e+01, 1.344796070954300e+04, 1.373196506129852e+03, 1.376777456162878e+04
1033, -5.000000000038420e-05, 9.000000000011442e-04, 2.018718589413007e-05, 1.987412107765860e-06, -6.636362118165334e+01, 6.787322833935707e+03, 1.192238124348271e+03, 7.256634550923529e+03
1034, -5.256991402521199e-16, 9.000000000006796e-04, 2.008626059362520e-05, -1.955781989394327e-07, -8.038548374833772e+01, 1.195477126748087e+02, 9.368335342330739e+02, 1.884304000549408e+03
1035, 4.999999999954906e-05, 9.000000000002148e-04, 2.008010445482132e-05, -2.382777496841684e-06, -8.562033764208263e+01, -6.555120955435463e+03, 6.059321542823401e+02, 6.582025018639923e+03
1036, 9.999999999965402e-05, 8.999999999997502e-04, 2.016915285804001e-05, -4.577867049518656e-06, -8.255897285907440e+01, -1.323637306225772e+04, 1.983221568134043e+02, 1.315979300027150e+04
1037, 1.499999999998018e-04, 8.999999999992857e-04, 2.035382979211455e-05, -6.784565022943836e-06, -7.164805279960228e+01, -1.992351805713991e+04, -2.872975557276862e+02, 1.986018384132772e+04
1038, 1.999999999999080e-04, 8.999999999988212e-04, 2.063454160387111e-05, -9.006628526506454e-06, -5.328460780177238e+01, -2.661540826006739e+04, -8.522113257868973e+02, 2.661675167058231e+04
1039, -2.000000000000664e-04, 8.000000000027327e-04, 1.677624629706607e-05, 7.691922056081874e-06, 1.790772988243907e+01, 2.735918754353659e+04, 1.417937228680914e+03, 2.748795674084287e+04
1040, -1.500000000001624e-04, 8.000000000022627e-04, 1.639595952371708e-05, 5.732584076601909e-06, -2.685667232868309e+01, 2.056578858398133e+04, 1.410893845780917e+03, 2.078507937027129e+04
1041, -1.000000000002848e-04, 8.000000000017928e-04, 1.611110216647951e-05, 3.780373060929671e-06, -6.053494492556547e+01, 1.376330094084024e+04, 1.330401871069715e+03, 1.407758200653684e+04
1042, -5.000000000039436e-05, 8.000000000013229e-04, 1.592217283356855e-05, 1.831641607253680e-06, -8.356219361512194e+01, 6.952299630945827e+03, 1.175739030337989e+03, 7.418409579158769e+03
1043, -5.385198309417610e-16, 8.000000000008525e-04, 1.582966125599745e-05, -1.172646426408958e-07, -9.628118718446194e+01, 1.329258531942580e+02, 9.461191302487766e+02, 1.906069647691285e+03
1044, 4.999999999953886e-05, 8.000000000003829e-04, 1.583405270747626e-05, -2.070014598434430e-06, -9.885110372589702e+01, -6.694768915138675e+03, 6.404666455701338e+02, 6.719145918289300e+03
1045, 9.999999999964645e-05, 7.999999999999128e-04, 1.593583374782730e-05, -4.030310999880218e-06, -9.147556197802828e+01, -1.353061302957522e+04, 2.574053433421582e+02, 1.344899423436931e+04
1046, 1.499999999997974e-04, 7.999999999994429e-04, 1.613548248620546e-05, -6.001908979420254e-06, -7.465771308461649e+01, -2.037414465664772e+04, -2.046825088516372e+02, 2.030361420756433e+04
1047, 1.999999999999061e-04, 7.999999999989728e-04, 1.643346089321202e-05, -7.988622166778313e-06, -4.907180013450352e+01, -2.722430679407221e+04, -7.473855142234188e+02, 2.721631380997839e+04
1048, -2.000000000000683e-04, 7.000000000024487e-04, 1.297494508887508e-05, 6.796011070306006e-06, 2.639381649895313e+00, 2.797817698772299e+04, 1.311608658009886e+03, 2.809825570094834e+04
1049, -1.500000000001667e-04, 7.000000000020254e-04, 1.259589366973871e-05, 5.074706926611799e-06, -4.247350504138831e+01, 2.103754087378001e+04, 1.334288711205189e+03, 2.124825432054867e+04
1050, -1.000000000002923e-04, 7.000000000016023e-04, 1.231430381677248e-05, 3.360989237408751e-06, -7.556455783270167e+01, 1.408671191011874e+04, 1.283057800530375e+03, 1.439288101919482e+04
1051, -5.000000000040459e-05, 7.000000000011791e-04, 1.213071618973580e-05, 1.651172928633545e-06, -9.899053554207649e+01, 7.123278023429482e+03, 1.157227860637337e+03, 7.584053561496660e+03
1052, -5.513337453678241e-16, 7.000000000007558e-04, 1.204566405998070e-05, -5.841141078355289e-08, -1.128683564358194e+02, 1.472534440780685e+02, 9.557150517428511e+02, 1.929048571605689e+03
1053, 4.999999999952868e-05, 7.000000000003326e-04, 1.205968827341234e-05, -1.771437943468708e-06, -1.152703394491873e+02, -6.838764066516002e+03, 6.773171201068646e+02, 6.858600573197584e+03
1054, 9.999999999963887e-05, 6.999999999999092e-04, 1.217331950211116e-05, -3.491618663902351e-06, -1.042162877579049e+02, -1.383188206236548e+04, 3.205985504293905e+02, 1.374263225664872e+04
1055, 1.499999999997930e-04, 6.999999999994860e-04, 1.238708914460396e-05, -5.222736661948640e-06, -7.978077709611171e+01, -2.083140897660639e+04, -1.159738359775372e+02, 2.075292443616647e+04
1056, 1.999999999999042e-04, 6.999999999990628e-04, 1.270150918348043e-05, -6.968663645999157e-06, -4.467671299777680e+01, -2.783913141978792e+04, -6.342653800351710e+02, 2.782338733398674e+04
1057, -2.000000000000702e-04, 6.000000000020976e-04, 9.661265421096046e-06, 5.861441934311652e-06, -1.840701280191433e+01, 2.859718293486995e+04, 1.193739735835562e+03, 2.871501430055277e+04
1058, -1.500000000001711e-04, 6.000000000017323e-04, 9.282321701222016e-06, 4.383334885074695e-06, -5.485654488652563e+01, 2.152509622865328e+04, 1.248397091049970e+03, 2.172391177702526e+04
1059, -1.000000000003000e-04, 6.000000000013669e-04, 9.002809344245627e-06, 2.913295786822774e-06, -8.186467721590452e+01, 1.443513968361169e+04, 1.231600704312850e+03, 1.472449580772608e+04
1060, -5.000000000041474e-05, 6.000000000010013e-04, 8.823365365316427e-06, 1.447691269498633e-06, -1.071482758947400e+02, 7.313560488907617e+03, 1.140367905356763e+03, 7.763290179446187e+03
1061, -5.641662945187267e-16, 6.000000000006360e-04, 8.744694430498219e-06, -1.715915085504142e-08, -1.295742015922197e+02, 1.625486618863449e+02, 9.707756160607632e+02, 1.963404429637341e+03
1062, 4.999999999951849e-05, 6.000000000002706e-04, 8.767422232833100e-06, -1.485009064388339e-06, -1.396209256921011e+02, -7.000581415407511e+03, 7.199549776456039e+02, 7.010429339261800e+03
1063, 9.999999999963128e-05, 5.999999999999052e-04, 8.892101092524031e-06, -2.959657420856304e-06, -1.270617162861377e+02, -1.415761372125212e+04, 3.881423607814199e+02, 1.405201080034408e+04
1064, 1.499999999997888e-04, 5.999999999995398e-04, 9.119193294709556e-06, -4.444914629664888e-06, -8.974136788888245e+01, -2.130474312276259e+04, -2.350062930375827e+01, 2.121505381981402e+04
1065, 1.999999999999023e-04, 5.999999999991742e-04, 9.449213968307591e-06, -5.944626313176945e-06, -3.521525044342798e+01, -2.845477832337146e+04, -5.149646630032813e+02, 2.843821934778446e+04
1066, -2.000000000000721e-04, 5.000000000017480e-04, 6.846683886629449e-06, 4.890104941248974e-06, -5.366118346152462e+01, 2.920576452042763e+04, 1.055425979498287e+03, 2.933546809775173e+04
1067, -1.500000000001754e-04, 5.000000000014432e-04, 6.466500728021046e-06, 3.659841988679594e-06, -6.014844736418218e+01, 2.205485487803334e+04, 1.146259014586323e+03, 2.223351099121380e+04
1068, -1.000000000003076e-04, 5.000000000011384e-04, 6.187320780959790e-06, 2.438379305469496e-06, -7.321567784506033e+01, 1.484838945225262e+04, 1.178346724206237e+03, 1.510656491954236e+04
1069, -5.000000000042491e-05, 5.000000000008338e-04, 6.010301592121750e-06, 1.222528957266296e-06, -1.027491103615303e+02, 7.552127391147697e+03, 1.138611342501709e+03, 7.986418309258058e+03
1070, -5.769852911424733e-16, 5.000000000005289e-04, 5.936647218786966e-06, 8.517339262700861e-09, -1.451282892361000e+02, 1.780728904066002e+02, 1.008823190919565e+03, 2.043368768644310e+03
1071, 4.999999999950832e-05, 5.000000000002242e-04, 5.967333457150315e-06, -1.208005119962216e-06, -1.746601703672268e+02, -7.210207580068673e+03, 7.811027161247913e+02, 7.206900385512958e+03
1072, 9.999999999962365e-05, 4.999999999999196e-04, 6.102665295894846e-06, -2.431444946771671e-06, -1.649545725093503e+02, -1.454856758524536e+04, 4.612015307748157e+02, 1.441315894271984e+04
1073, 1.499999999997844e-04, 4.999999999996149e-04, 6.342706512733385e-06, -3.665735550765513e-06, -1.087203272258898e+02, -2.182174464163814e+04, 6.475920460615544e+01, 2.171341060028532e+04
1074, 1.999999999999003e-04, 4.999999999993100e-04, 6.687555258909165e-06, -4.914294349912414e-06, -1.269176060684504e+01, -2.906114487581176e+04, -3.984439016217337e+02, 2.905938159282156e+04
1075, -2.000000000000740e-04, 4.000000000013997e-04, 4.543000973234257e-06, 3.884241935199642e-06, -1.163800637847821e+02, 2.978387673683192e+04, 8.752084125872780e+02, 2.995144931058729e+04
1076, -1.500000000001797e-04, 4.000000000011572e-04, 4.159580551207115e-06, 2.904565411504818e-06, -4.224820339326516e+01, 2.269772903192928e+04, 1.014346344402729e+03, 2.283029037679110e+04
1077, -1.000000000003152e-04, 4.000000000009148e-04, 3.878003987610995e-06, 1.935728250665768e-06, -6.439855980607217e+01, 1.537506260619498e+04, 1.135062971070901e+03, 1.560546163654378e+04
1078, -5.000000000043512e-05, 4.000000000006724e-04, 3.700602600356667e-06, 9.759204977577679e-07, -1.490231371355931e+02, 7.805031467326284e+03, 1.180527789748450e+03, 8.297081902707399e+03
1079, -5.898025937003254e-16, 4.000000000004300e-04, 3.630301807706549e-06, 2.084765765241822e-08, -1.587327255087830e+02, 1.903280979788597e+02, 1.105286305548085e+03, 2.237962181857060e+03
1080, 4.999999999949812e-05, 4.000000000001875e-04, 3.668480648184744e-06, -9.361971855682319e-07, -1.540697394634772e+02, -7.438219853134582e+03, 8.887484642043360e+02, 7.497888916821656e+03
1081, 9.999999999961606e-05, 3.999999999999452e-04, 3.815103554185658e-06, -1.901993504161589e-06, -1.971010112316412e+02, -1.505306139817199e+04, 5.497022218459684e+02, 1.489658515060248e+04
1082, 1.499999999997800e-04, 3.999999999997027e-04, 4.068608412528858e-06, -2.881039852493852e-06, -1.503094422413326e+02, -2.245399388338437e+04, 1.324849857468078e+02, 2.230525832031270e+04
1083, 1.999999999998984e-04, 3.999999999994603e-04, 4.428018401150933e-06, -3.875423283983327e-06, 3.492250269501892e+01, -2.963982226334159e+04, -3.082894599334513e+02, 2.968114968281790e+04
1084, -2.000000000000760e-04, 3.000000000010516e-04, 2.759861965418897e-06, 2.846816325400698e-06, -5.680163636346697e+01, 3.048637563046966e+04, 6.331337977353028e+02, 3.056941463581746e+04
1085, -1.500000000001842e-04, 3.000000000008717e-04, 2.370829179462233e-06, 2.115235074219390e-06, -4.755431215698263e+01, 2.345957174760674e+04, 8.775907291799729e+02, 2.357256111544507e+04
1086, -1.000000000003227e-04, 3.000000000006917e-04, 2.082452126431062e-06, 1.402512160685710e-06, -4.180311236864613e+02, 1.559522932001769e+04, 1.138063766354789e+03, 1.617421610412878e+04
1087, -5.000000000044532e-05, 3.000000000005118e-04, 1.902713661990710e-06, 7.081976827947298e-07, -3.571747151668569e+02, 7.885725459652164e+03, 1.283689431119225e+03, 8.633471927000182e+03
1088, -6.026207432911247e-16, 3.000000000003319e-04, 1.834596983879254e-06, 2.235072428150184e-08, -1.726712225916917e+02, 1.911765407437722e+02, 1.256338723877339e+03, 2.538884233544172e+03
1089, 4.999999999948792e-05, 3.000000000001520e-04, 1.879397095731457e-06, -6.649000565241471e-07, 2.985680252987504e+01, -7.514880163954285e+03, 1.061295423903770e+03, 7.837630241382210e+03
1090, 9.999999999960845e-05, 2.999999999999720e-04, 2.037186060427201e-06, -1.363481408551495e-06, 1.440575239389145e+02, -1.525894049342517e+04, 6.902782909915244e+02, 1.546474326974032e+04
1091, 1.499999999997756e-04, 2.999999999997920e-04, 2.306328487657220e-06, -2.083540216619835e-06, -1.486661280408923e+02, -2.319705348371807e+04, 2.004766119935496e+02, 2.305187461325359e+04
1092, 1.999999999998966e-04, 2.999999999996122e-04, 2.680267813910933e-06, -2.825918877562046e-06, -3.988741602483879e+01, -3.034727296045093e+04, -2.724937752734963e+02, 3.031228513274344e+04
1093, -2.000000000000778e-04, 2.000000000007014e-04, 1.492785564718214e-06, 1.778303553435808e-06, 3.538315773375275e+02, 3.144891636627618e+04, 4.851749224524781e+02, 3.111022142082552e+04
1094, -1.500000000001885e-04, 2.000000000005817e-04, 1.093642035835702e-06, 1.289508201909124e-06, -1.594632216796412e+03, 2.211215231950505e+04, 8.992563711181685e+02, 2.377490864618850e+04
1095, -1.000000000003304e-04, 2.000000000004620e-04, 8.065317246845959e-07, 8.470468590159213e-07, -1.199265393352273e+03, 1.466334422072937e+04, 1.178306891154511e+03, 1.603670827469665e+04
1096, -5.000000000045550e-05, 2.000000000003424e-04, 6.316585390045132e-07, 4.265232887378069e-07, -6.911832255480604e+02, 7.394096326265248e+03, 1.222528463469100e+03, 8.446895808931165e+03
1097, -6.154388928819240e-16, 2.000000000002227e-04, 5.679766901264214e-07, 1.606456961653437e-08, -1.929699783177421e+02, 1.626188946222096e+02, 1.180647194358817e+03, 2.387918473639351e+03
1098, 4.999999999947777e-05, 2.000000000001030e-04, 6.154121528007132e-07, -3.952392804492847e-07, 3.269238862975208e+02, -7.077443121228824e+03, 1.071842695999426e+03, 7.708439390824443e+03
1099, 9.999999999960084e-05, 1.999999999999833e-04, 7.753100330501584e-07, -8.183575944079241e-07, 9.011627565071130e+02, -1.437123339002743e+04, 8.729738619015395e+02, 1.537187098277032e+04
1100, 1.499999999997714e-04, 1.999999999998636e-04, 1.050031801018651e-06, -1.265261940803900e-06, 1.412233401130200e+03, -2.184910794368824e+04, 4.303855729766692e+02, 2.327726204101044e+04
1101, 1.999999999998946e-04, 1.999999999997439e-04, 1.440603026321691e-06, -1.760531740630731e-06, -4.316139199335603e+02, -3.129062362843793e+04, -1.555165414101021e+02, 3.086057714574008e+04
1102, -2.000000000000798e-04, 1.000000000003506e-04, 6.576219785817420e-07, 6.857295448271050e-07, -9.850624735617635e+03, 1.752357171697624e+04, 1.854822559117441e+03, 2.762441127568960e+04
1103, -1.500000000001928e-04, 1.000000000002906e-04, 3.107219240220260e-07, 4.938719803179964e-07, -4.619392323148625e+03, 1.477530049809523e+04, 1.495187127963667e+03, 1.962387443449740e+04
1104, -1.000000000003380e-04, 1.000000000002307e-04, 7.787931346520482e-08, 3.219214857631777e-07, -1.951734980114541e+03, 1.060203942054741e+04, 5.877187537781317e+02, 1.260868371547503e+04
1105, -5.000000000046567e-05, 1.000000000001708e-04, -5.836754820263795e-08, 1.618214944006017e-07, -7.762476185480344e+02, 5.513537570147249e+03, 1.104075538849111e+01, 6.289823949288942e+03
1106, -6.282434899455673e-16, 1.000000000001108e-04, -1.062519737629720e-07, 6.235373001500959e-09, -1.955371964537164e+02, 7.453768187759692e+01, -2.182391773581451e+02, 5.132775019826149e+02
1107, 4.999999999946757e-05, 1.000000000000509e-04, -6.811833177787147e-08, -1.497312530647237e-07, 3.954636211253141e+02, -5.376751737780726e+03, -8.484414622995689e+01, 5.774709020044969e+03
1108, 9.999999999959325e-05, 9.999999999999091e-05, 5.919799893634549e-08, -3.110265777219391e-07, 1.610204789270364e+03, -1.049716429824260e+04, 3.922074654561957e+02, 1.213275290299373e+04
1109, 1.499999999997670e-04, 9.999999999993101e-05, 2.848816888066780e-07, -4.851864653025887e-07, 4.383069807591562e+03, -1.469677329339663e+04, 1.193563529176767e+03, 1.922859298937523e+04
1110, 1.999999999998927e-04, 9.999999999987105e-05, 6.277429023545718e-07, -6.802233033587279e-07, 9.825404196745480e+03, -1.740612155364366e+04, 1.417675629215214e+03, 2.737873648386262e+04
