"PointID","x","y","Displacement_x","Displacement_y","Sxx","Syy","Sxy","Von_Mises_Stress"
0, -2.500000000000000e-04, 0.000000000000000e+00, 0.000000000000000e+00, 0.000000000000000e+00, 6.873243933246228e+04, 8.398549301146460e+04, 8.715605323193955e+03, 2.316252903146097e+04
1, 2.500000000000000e-04, 0.000000000000000e+00, 0.000000000000000e+00, 0.000000000000000e+00, -7.010182802163798e+04, -8.569517115653200e+04, 8.492983355686789e+03, 2.305808784878827e+04
2, 2.500000000000000e-04, 1.000000000000000e-02, 1.309025722291359e-03, -1.423710977389304e-04, 3.095990374434230e+01, 2.841165658357163e+01, 3.376556766025455e+00, 7.217901770538641e+00
3, -2.500000000000000e-04, 1.000000000000000e-02, 1.316725784175457e-03, -5.498539373201501e-05, 2.444129964763396e+01, 6.441644191018963e+01, 5.658808837105287e+00, 4.154636528904988e+01
4, -2.000000000000817e-04, 0.000000000000000e+00, 0.000000000000000e+00, 0.000000000000000e+00, 4.652458827455524e+04, 5.685351775051415e+04, 4.983604866956039e+03, 1.435381670494383e+04
5, -1.500000000001972e-04, 0.000000000000000e+00, 0.000000000000000e+00, 0.000000000000000e+00, 3.354631794735162e+04, 4.100881657536704e+04, 2.352383534201295e+03, 8.821775271511833e+03
6, -1.000000000003456e-04, 0.000000000000000e+00, 0.000000000000000e+00, 0.000000000000000e+00, 2.189735132596382e+04, 2.676897729345283e+04, 5.868825243634720e+02, 5.011034220270933e+03
7, -5.000000000047588e-05, 0.000000000000000e+00, 0.000000000000000e+00, 0.000000000000000e+00, 1.102165695337494e+04, 1.347061078194102e+04, -4.455279310577878e+02, 2.606022909312007e+03
8, -6.410887445906788e-16, 0.000000000000000e+00, 0.000000000000000e+00, 0.000000000000000e+00, 4.183233103990090e+02, 5.081688090174681e+02, -8.074457645277164e+02, 1.617388903213136e+03
9, 4.999999999945738e-05, 0.000000000000000e+00, 0.000000000000000e+00, 0.000000000000000e+00, -1.024742176583695e+04, -1.252527280715882e+04, -5.167923192223088e+02, 2.501380133302384e+03
10, 9.999999999958566e-05, 0.000000000000000e+00, 0.000000000000000e+00, 0.000000000000000e+00, -2.131359319402188e+04, -2.604456617296766e+04, 4.502853522461070e+02, 4.815924928952350e+03
11, 1.499999999997626e-04, 0.000000000000000e+00, 0.000000000000000e+00, 0.000000000000000e+00, -3.329543289707685e+04, -4.068574631039199e+04, 2.163263175362366e+03, 8.563618546533959e+03
12, 1.999999999998909e-04, 0.000000000000000e+00, 0.000000000000000e+00, 0.000000000000000e+00, -4.673383646630163e+04, -5.712626588971045e+04, 4.764512269079570e+03, 1.409981907576731e+04
13, 2.500000000000000e-04, 9.999999999981111e-05, 1.070877707413382e-06, -9.717004099724572e-07, 3.720687247413388e+03, -2.864424667572647e+04, 2.069245823670109e+03, 3.262845477438847e+04
14, 2.500000000000000e-04, 1.999999999996242e-04, 1.837398678711570e-06, -2.191350377635701e-06, -7.552964513664179e+03, -4.163603224825788e+04, -4.822658412293622e+02, 3.409671285574855e+04
15, 2.500000000000000e-04, 2.999999999994322e-04, 3.021262050310827e-06, -3.426863217115608e-06, -8.043474957566985e+03, -4.226542910556808e+04, -4.447665165167035e+02, 3.423351303510563e+04
16, 2.500000000000000e-04, 3.999999999992179e-04, 4.682385248761533e-06, -4.672843144045928e-06, -8.766237159843544e+03, -4.264385972645714e+04, -5.465016060530374e+02, 3.389524991481256e+04
17, 2.500000000000000e-04, 4.999999999990053e-04, 6.830401260352537e-06, -5.910259121162014e-06, -8.787279381928842e+03, -4.204498490543335e+04, -6.693666745749745e+02, 3.328463885440652e+04
18, 2.500000000000000e-04, 5.999999999988090e-04, 9.457200870136545e-06, -7.135518120114349e-06, -8.660550712946339e+03, -4.121468118918045e+04, -8.039989591040078e+02, 3.259381948113225e+04
19, 2.500000000000000e-04, 6.999999999986395e-04, 1.255256223408305e-05, -8.349052438227762e-06, -8.483467422243069e+03, -4.031866021442877e+04, -9.335123299549974e+02, 3.188989308850603e+04
20, 2.500000000000000e-04, 7.999999999985029e-04, 1.610620289640800e-05, -9.552727663592560e-06, -8.301332117750595e+03, -3.942196110351564e+04, -1.054551600168474e+03, 3.119201604223926e+04
21, 2.500000000000000e-04, 8.999999999983563e-04, 2.010815310323401e-05, -1.074857043593353e-05, -8.122018666347298e+03, -3.853591685563242e+04, -1.166366221404956e+03, 3.050322677550588e+04
22, 2.500000000000000e-04, 9.999999999981935e-04, 2.454865682815754e-05, -1.193849736954239e-05, -7.946573261355472e+03, -3.766144714569016e+04, -1.269250950205714e+03, 2.982310717984141e+04
23, 2.500000000000000e-04, 1.099999999998054e-03, 2.941809791223566e-05, -1.312427237599235e-05, -7.774316905509819e+03, -3.679753750371725e+04, -1.363599920902054e+03, 2.915107121306777e+04
24, 2.500000000000000e-04, 1.199999999997903e-03, 3.470696684345787e-05, -1.430752293122276e-05, -7.604758456724123e+03, -3.594365174107026e+04, -1.449787225878727e+03, 2.848684616771122e+04
25, 2.500000000000000e-04, 1.299999999997659e-03, 4.040585238245819e-05, -1.548975516336313e-05, -7.437633866833296e+03, -3.509965532016443e+04, -1.528153321520889e+03, 2.783035107900820e+04
26, 2.500000000000000e-04, 1.399999999997322e-03, 4.650544130439135e-05, -1.667236315716948e-05, -7.272803351445467e+03, -3.426559165781915e+04, -1.599020919662774e+03, 2.718157633690108e+04
27, 2.500000000000000e-04, 1.499999999997028e-03, 5.299651988055438e-05, -1.785663475468342e-05, -7.110170351500073e+03, -3.344154718600575e+04, -1.662702425006721e+03, 2.654052982548079e+04
28, 2.500000000000000e-04, 1.599999999996764e-03, 5.986997529136719e-05, -1.904375608768616e-05, -6.949653815838542e+03, -3.262760790646800e+04, -1.719502731230941e+03, 2.590722070873904e+04
29, 2.500000000000000e-04, 1.699999999996466e-03, 6.711679675023229e-05, -2.023481574557250e-05, -6.791181338814955e+03, -3.182384996066563e+04, -1.769720003125773e+03, 2.528165607489433e+04
30, 2.500000000000000e-04, 1.799999999996210e-03, 7.472807646952220e-05, -2.143080880321480e-05, -6.634684676446259e+03, -3.103033661193328e+04, -1.813645791297747e+03, 2.466384150092195e+04
31, 2.500000000000000e-04, 1.899999999995898e-03, 8.269501036666340e-05, -2.263264077779990e-05, -6.480106751211209e+03, -3.024712605342872e+04, -1.851564624000406e+03, 2.405378084084452e+04
32, 2.500000000000000e-04, 1.999999999995521e-03, 9.100889893118503e-05, -2.384113155475027e-05, -6.327391487191595e+03, -2.947426366473730e+04, -1.883754582002565e+03, 2.345147792580463e+04
33, 2.500000000000000e-04, 2.099999999995151e-03, 9.966114773617715e-05, -2.505701915275202e-05, -6.176492854294685e+03, -2.871179065378590e+04, -1.910486662854423e+03, 2.285693514160488e+04
34, 2.500000000000000e-04, 2.199999999994897e-03, 1.086432681180857e-04, -2.628096348123630e-05, -6.027368817946891e+03, -2.795974018511675e+04, -1.932025068904294e+03, 2.227015485475910e+04
35, 2.500000000000000e-04, 2.299999999994653e-03, 1.179468776963400e-04, -2.751354996200126e-05, -5.879981136326247e+03, -2.721813739567925e+04, -1.948627465670715e+03, 2.169113894078480e+04
36, 2.500000000000000e-04, 2.399999999994409e-03, 1.275637007417504e-04, -2.875529305702879e-05, -5.734302618338601e+03, -2.648700669914631e+04, -1.960544368930191e+03, 2.111988786797289e+04
37, 2.500000000000000e-04, 2.499999999994080e-03, 1.374855687966047e-04, -3.000663976067675e-05, -5.590307623674606e+03, -2.576636509717065e+04, -1.968019265933468e+03, 2.055640276162531e+04
38, 2.500000000000000e-04, 2.599999999993751e-03, 1.477044210811337e-04, -3.126797299260394e-05, -5.447971646781302e+03, -2.505622139200570e+04, -1.971289614987796e+03, 2.000068471467234e+04
39, 2.500000000000000e-04, 2.699999999993507e-03, 1.582123046954340e-04, -3.253961483195525e-05, -5.307278312509543e+03, -2.435658291941213e+04, -1.970586026650172e+03, 1.945273356524156e+04
40, 2.500000000000000e-04, 2.799999999993264e-03, 1.690013749949187e-04, -3.382182974637096e-05, -5.168216777868611e+03, -2.366745449747979e+04, -1.966132133491426e+03, 1.891254870375951e+04
41, 2.500000000000000e-04, 2.899999999993009e-03, 1.800638960232683e-04, -3.511482771320495e-05, -5.030773665367037e+03, -2.298883180677661e+04, -1.958145334421063e+03, 1.838013016311654e+04
42, 2.500000000000000e-04, 2.999999999992623e-03, 1.913922405318315e-04, -3.641876722537430e-05, -4.894948981458514e+03, -2.232071560773640e+04, -1.946836176316685e+03, 1.785547610407411e+04
43, 2.500000000000000e-04, 3.099999999992220e-03, 2.029788905385513e-04, -3.773375829354737e-05, -4.760733201848401e+03, -2.166309317534154e+04, -1.932409171719368e+03, 1.733858683691735e+04
44, 2.500000000000000e-04, 3.199999999991949e-03, 2.148164372132729e-04, -3.905986527153951e-05, -4.628126874284319e+03, -2.101595437727630e+04, -1.915062870490388e+03, 1.682946087845786e+04
45, 2.500000000000000e-04, 3.299999999991705e-03, 2.268975811299941e-04, -4.039710963832012e-05, -4.497132720658932e+03, -2.037928616797810e+04, -1.894989202165655e+03, 1.632809647293553e+04
46, 2.500000000000000e-04, 3.399999999991461e-03, 2.392151324559171e-04, -4.174547271180635e-05, -4.367755902799418e+03, -1.975307368277697e+04, -1.872373665748398e+03, 1.583449196430519e+04
47, 2.500000000000000e-04, 3.499999999991149e-03, 2.517620111507007e-04, -4.310489830265211e-05, -4.239997563411739e+03, -1.913729417876820e+04, -1.847396463775253e+03, 1.534864623422497e+04
48, 2.500000000000000e-04, 3.599999999990803e-03, 2.645312468184160e-04, -4.447529518328772e-05, -4.113867763500268e+03, -1.853192825935434e+04, -1.820231777505661e+03, 1.487055625581886e+04
49, 2.500000000000000e-04, 3.699999999990560e-03, 2.775159788549436e-04, -4.585653957765805e-05, -3.989385031596270e+03, -1.793696095989072e+04, -1.791046873893703e+03, 1.440021770298895e+04
50, 2.500000000000000e-04, 3.799999999990315e-03, 2.907094569446228e-04, -4.724847760488685e-05, -3.866551686796508e+03, -1.735236092492906e+04, -1.760003838488560e+03, 1.393762909727760e+04
51, 2.500000000000000e-04, 3.899999999990071e-03, 3.041050406426030e-04, -4.865092752823432e-05, -3.745379948936116e+03, -1.677810189981941e+04, -1.727259739516623e+03, 1.348278703681310e+04
52, 2.500000000000000e-04, 3.999999999989709e-03, 3.176961994481169e-04, -5.006368199304384e-05, -3.625884198171946e+03, -1.621415729177884e+04, -1.692965649470854e+03, 1.303568756300873e+04
53, 2.500000000000000e-04, 4.099999999989249e-03, 3.314765128868825e-04, -5.148651019838381e-05, -3.508078019833268e+03, -1.566049793479059e+04, -1.657267300087180e+03, 1.259632682194314e+04
54, 2.500000000000000e-04, 4.199999999988788e-03, 3.454396704212410e-04, -5.291915998119580e-05, -3.391976710143924e+03, -1.511709495625456e+04, -1.620305286738131e+03, 1.216470117899337e+04
55, 2.500000000000000e-04, 4.299999999988333e-03, 3.595794714308554e-04, -5.436135987458665e-05, -3.277598761544828e+03, -1.458392170758549e+04, -1.582214741722040e+03, 1.174080714924897e+04
56, 2.500000000000000e-04, 4.399999999988144e-03, 3.738898253612692e-04, -5.581282110417664e-05, -3.164954652185689e+03, -1.406094324020278e+04, -1.543126493570122e+03, 1.132464237010736e+04
57, 2.500000000000000e-04, 4.499999999988117e-03, 3.883647513675472e-04, -5.727323938903958e-05, -3.054068008234426e+03, -1.354813443781568e+04, -1.503165638604740e+03, 1.091620162770880e+04
58, 2.500000000000000e-04, 4.599999999988090e-03, 4.029983786535419e-04, -5.874229682557618e-05, -2.944956075219753e+03, -1.304546416711113e+04, -1.462451795576500e+03, 1.051548024257109e+04
59, 2.500000000000000e-04, 4.699999999988035e-03, 4.177849464372722e-04, -6.021966359615489e-05, -2.837629083362693e+03, -1.255289499756885e+04, -1.421100777064375e+03, 1.012247506581409e+04
60, 2.500000000000000e-04, 4.799999999987717e-03, 4.327188034015999e-04, -6.170499965296310e-05, -2.732114419291776e+03, -1.207040350629495e+04, -1.379223982172887e+03, 9.737180199854880e+03
61, 2.500000000000000e-04, 4.899999999987257e-03, 4.477944081644642e-04, -6.319795638210768e-05, -2.628422017863146e+03, -1.159795181709834e+04, -1.336927666325742e+03, 9.359592253902778e+03
62, 2.500000000000000e-04, 4.999999999986965e-03, 4.630063289359608e-04, -6.469817812644923e-05, -2.526571142574936e+03, -1.113550949552862e+04, -1.294313575792826e+03, 8.989705784667443e+03
63, 2.500000000000000e-04, 5.099999999987202e-03, 4.783492435529025e-04, -6.620530368207873e-05, -2.426578959537658e+03, -1.068304390504043e+04, -1.251479162298290e+03, 8.627514924413837e+03
64, 2.500000000000000e-04, 5.199999999987608e-03, 4.938179393266477e-04, -6.771896769928491e-05, -2.328463595112531e+03, -1.024052330451929e+04, -1.208517499861742e+03, 8.273013177501050e+03
65, 2.500000000000000e-04, 5.299999999988015e-03, 5.094073130330379e-04, -6.923880207983444e-05, -2.232238346724153e+03, -9.807912332119980e+03, -1.165517808268084e+03, 7.926194760322462e+03
66, 2.500000000000000e-04, 5.399999999988211e-03, 5.251123706595576e-04, -7.076443726664604e-05, -2.137919453994739e+03, -9.385178321884156e+03, -1.122565492081107e+03, 7.587053066523720e+03
67, 2.500000000000000e-04, 5.499999999988184e-03, 5.409282272970654e-04, -7.229550350347707e-05, -2.045525503019332e+03, -8.972291282114233e+03, -1.079741558245072e+03, 7.255580713412689e+03
68, 2.500000000000000e-04, 5.599999999988157e-03, 5.568501072030997e-04, -7.383163206099438e-05, -1.955070076634390e+03, -8.569217648696733e+03, -1.037122881361566e+03, 6.931770595540006e+03
69, 2.500000000000000e-04, 5.699999999988293e-03, 5.728733436578888e-04, -7.537245636349940e-05, -1.866566517145498e+03, -8.175923286669669e+03, -9.947827507762927e+02, 6.615614387954356e+03
70, 2.500000000000000e-04, 5.799999999988694e-03, 5.889933787702816e-04, -7.691761302265035e-05, -1.780029820934192e+03, -7.792375512553796e+03, -9.527909761067826e+02, 6.307102606755251e+03
71, 2.500000000000000e-04, 5.899999999989099e-03, 6.052057632593154e-04, -7.846674287608227e-05, -1.695472897653117e+03, -7.418541658966842e+03, -9.112144641117245e+02, 6.006227039094567e+03
72, 2.500000000000000e-04, 5.999999999989505e-03, 6.215061562292580e-04, -8.001949203582920e-05, -1.612910824922009e+03, -7.054393531032360e+03, -8.701165601420398e+02, 5.712980426522718e+03
73, 2.500000000000000e-04, 6.099999999989911e-03, 6.378903252723245e-04, -8.157551291370259e-05, -1.532353014286263e+03, -6.699899343101699e+03, -8.295569625790845e+02, 5.427356085342811e+03
74, 2.500000000000000e-04, 6.199999999990317e-03, 6.543541463390724e-04, -8.313446506371755e-05, -1.453815859492357e+03, -6.355032986995146e+03, -7.895909138243330e+02, 5.149344091794845e+03
75, 2.500000000000000e-04, 6.299999999990723e-03, 6.708936038790541e-04, -8.469601601547774e-05, -1.377296644746782e+03, -6.019751121260422e+03, -7.502723639100096e+02, 4.878936159316904e+03
76, 2.500000000000000e-04, 6.399999999990975e-03, 6.875047898309032e-04, -8.625984188264127e-05, -1.302821789968679e+03, -5.694033952189075e+03, -7.116510750689347e+02, 4.616116686590516e+03
77, 2.500000000000000e-04, 6.499999999990961e-03, 7.041839044097123e-04, -8.782562820528669e-05, -1.230395658547854e+03, -5.377843937440723e+03, -6.737719039825041e+02, 4.360871649163302e+03
78, 2.500000000000000e-04, 6.599999999990934e-03, 7.209272557920242e-04, -8.939307056121683e-05, -1.160011589955775e+03, -5.071134643256555e+03, -6.366787650116715e+02, 4.113188901245355e+03
79, 2.500000000000000e-04, 6.699999999991035e-03, 7.377312590032678e-04, -9.096187515906564e-05, -1.091695261587447e+03, -4.773886094319969e+03, -6.004134536130754e+02, 3.873049778892306e+03
80, 2.500000000000000e-04, 6.799999999991401e-03, 7.545924365069615e-04, -9.253175948475411e-05, -1.025443902472977e+03, -4.486056930060660e+03, -5.650138698747550e+02, 3.640440250754430e+03
81, 2.500000000000000e-04, 6.899999999991809e-03, 7.715074176713034e-04, -9.410245292216791e-05, -9.612686441459331e+02, -4.207620240699008e+03, -5.305143865427365e+02, 3.415344894115081e+03
82, 2.500000000000000e-04, 6.999999999992214e-03, 7.884729390566006e-04, -9.567369738869743e-05, -8.991529694101766e+02, -3.938526916028241e+03, -4.969492794332228e+02, 3.197753638524622e+03
83, 2.500000000000000e-04, 7.099999999992620e-03, 8.054858429577001e-04, -9.724524766124533e-05, -8.391164177017904e+02, -3.678756615102618e+03, -4.643513024057758e+02, 2.987648737532304e+03
84, 2.500000000000000e-04, 7.199999999993026e-03, 8.225430779334087e-04, -9.881687188143124e-05, -7.811843754229445e+02, -3.428295402640968e+03, -4.327456498332863e+02, 2.785008434496706e+03
85, 2.500000000000000e-04, 7.299999999993359e-03, 8.396416998576055e-04, -1.003883521210688e-04, -7.253142493751817e+02, -3.187073297973159e+03, -4.021583378685207e+02, 2.589822953065075e+03
86, 2.500000000000000e-04, 7.399999999993427e-03, 8.567788694043448e-04, -1.019594844658721e-04, -6.715393480294008e+02, -2.955079704631893e+03, -3.726134150440128e+02, 2.402065691964998e+03
87, 2.500000000000000e-04, 7.499999999993399e-03, 8.739518534208183e-04, -1.035300793918087e-04, -6.198489664302475e+02, -2.732263567802404e+03, -3.441304084608753e+02, 2.221710692281983e+03
88, 2.500000000000000e-04, 7.599999999993372e-03, 8.911580241016263e-04, -1.050999617725776e-04, -5.702515600224790e+02, -2.518587280227034e+03, -3.167234066994970e+02, 2.048723247300704e+03
89, 2.500000000000000e-04, 7.699999999993440e-03, 9.083948594545101e-04, -1.066689711865141e-04, -5.227134896231551e+02, -2.313978779701190e+03, -2.904066684245473e+02, 1.883076066360605e+03
90, 2.500000000000000e-04, 7.799999999993771e-03, 9.256599410287478e-04, -1.082369619604654e-04, -4.772231808399696e+02, -2.118386813980680e+03, -2.651982731904592e+02, 1.724743043805779e+03
91, 2.500000000000000e-04, 7.899999999994177e-03, 9.429509529289420e-04, -1.098038035513582e-04, -4.338187216025603e+02, -1.931802490882903e+03, -2.411122513373259e+02, 1.573688610878009e+03
92, 2.500000000000000e-04, 7.999999999994584e-03, 9.602656836069745e-04, -1.113693808563775e-04, -3.924745018558461e+02, -1.754165915526004e+03, -2.181581328825718e+02, 1.429886495437408e+03
93, 2.500000000000000e-04, 8.099999999994990e-03, 9.776020244088529e-04, -1.129335943241947e-04, -3.531804435805795e+02, -1.585430416376961e+03, -1.963447869966827e+02, 1.293307812154467e+03
94, 2.500000000000000e-04, 8.199999999995398e-03, 9.949579694565199e-04, -1.144963600627936e-04, -3.159345653141407e+02, -1.425551288434876e+03, -1.756781545837916e+02, 1.163916031430560e+03
95, 2.500000000000000e-04, 8.299999999995804e-03, 1.012331615257407e-03, -1.160576096431205e-04, -2.807313325585475e+02, -1.274474093712308e+03, -1.561611278134687e+02, 1.041666869351904e+03
96, 2.500000000000000e-04, 8.399999999996209e-03, 1.029721160341546e-03, -1.176172899626771e-04, -2.475565729152505e+02, -1.132131473117304e+03, -1.377927683809121e+02, 9.265096557185872e+02
97, 2.500000000000000e-04, 8.499999999996616e-03, 1.047124904851835e-03, -1.191753630314300e-04, -2.163733621447244e+02, -9.984323100263633e+02, -1.205707634119631e+02, 8.183919806063047e+02
98, 2.500000000000000e-04, 8.599999999997021e-03, 1.064541248654711e-03, -1.207318056719132e-04, -1.871599848124067e+02, -8.732951171178586e+02, -1.044939183977575e+02, 7.172568129423998e+02
99, 2.500000000000000e-04, 8.699999999997429e-03, 1.081968690078226e-03, -1.222866094084530e-04, -1.599256381529394e+02, -7.566595505023993e+02, -8.955884526793140e+01, 6.230365231756433e+02
100, 2.500000000000000e-04, 8.799999999997834e-03, 1.099405826149546e-03, -1.238397802864692e-04, -1.346504281717584e+02, -6.484419902469785e+02, -7.575692153052496e+01, 5.356661403325986e+02
101, 2.500000000000000e-04, 8.899999999997930e-03, 1.116851351728925e-03, -1.253913389358881e-04, -1.112885643391602e+02, -5.485416812970628e+02, -6.308095945378122e+01, 4.550902306925953e+02
102, 2.500000000000000e-04, 8.999999999997496e-03, 1.134304057538291e-03, -1.269413205003337e-04, -8.980729447075353e+01, -4.568637950875708e+02, -5.152603370626704e+01, 3.812482173637814e+02
103, 2.500000000000000e-04, 9.099999999997034e-03, 1.151762829112515e-03, -1.284897741203728e-04, -7.020281586969556e+01, -3.733251238382792e+02, -4.107879377253072e+01, 3.140589160960493e+02
104, 2.500000000000000e-04, 9.199999999996832e-03, 1.169226647511288e-03, -1.300367623679890e-04, -5.243042396768833e+01, -2.977846918332223e+02, -3.171474697176385e+01, 2.534206334570336e+02
105, 2.500000000000000e-04, 9.299999999997156e-03, 1.186694588641944e-03, -1.315823597906798e-04, -3.638395485285919e+01, -2.300142361807096e+02, -2.340128651561584e+01, 1.992063419910277e+02
106, 2.500000000000000e-04, 9.399999999997563e-03, 1.204165819258578e-03, -1.331266507639011e-04, -2.198775417293898e+01, -1.697743816198445e+02, -1.609771516562919e+01, 1.512528776134370e+02
107, 2.500000000000000e-04, 9.499999999997968e-03, 1.221639593521126e-03, -1.346697276544516e-04, -9.079107470560949e+00, -1.167078497730743e+02, -9.766186167720008e+00, 1.093867438891527e+02
108, 2.500000000000000e-04, 9.599999999998375e-03, 1.239115245314117e-03, -1.362116876973981e-04, 2.284093050505103e+00, -7.064767035879973e+01, -4.355357593738389e+00, 7.345011009568435e+01
109, 2.500000000000000e-04, 9.699999999998783e-03, 1.256592184645298e-03, -1.377526343730184e-04, 1.211106802439432e+01, -3.165835825912956e+01, 9.450536032625223e-02, 4.376983438672521e+01
110, 2.500000000000000e-04, 9.799999999999188e-03, 1.274069869744600e-03, -1.392926935095588e-04, 1.877176766857215e+01, -1.863118454451170e+00, 3.300836378105601e+00, 2.166519347917856e+01
111, 2.500000000000000e-04, 9.899999999999593e-03, 1.291547831982141e-03, -1.408320562440855e-04, 2.023756380912084e+01, 1.432320200663278e+01, 4.573441416115390e+00, 1.089243503892899e+01
112, 2.000000000000817e-04, 1.000000000000000e-02, 1.309795201154494e-03, -1.336323762171585e-04, 3.058242493119481e+01, 2.916963363410393e+01, 5.257790737265085e+00, 1.061006281775079e+01
113, 1.500000000001972e-04, 1.000000000000000e-02, 1.310564717098093e-03, -1.248938647579764e-04, 2.602595993095620e+01, 2.830709905185192e+01, 8.874162314750031e+00, 1.789431817206230e+01
114, 1.000000000003456e-04, 1.000000000000000e-02, 1.311334337998179e-03, -1.161555152697041e-04, 1.827717436437294e+01, 2.764407762792315e+01, 1.211366832023123e+01, 2.597504027790914e+01
115, 5.000000000047588e-05, 1.000000000000000e-02, 1.312104120666026e-03, -1.074172549625179e-04, 8.655759813459429e+00, 2.759872438801791e+01, 1.461916520768477e+01, 3.483842522777546e+01
116, 6.410887445906788e-16, 1.000000000000000e-02, 1.312874099936155e-03, -9.867899354146228e-05, -6.945914177135686e-01, 2.926021377888217e+01, 1.594742285792606e+01, 4.375581718587838e+01
117, -4.999999999945738e-05, 1.000000000000000e-02, 1.313644287420255e-03, -8.994062095186822e-05, -6.700366278839511e+00, 3.473246242828659e+01, 1.570336950173111e+01, 5.199098527154153e+01
118, -9.999999999958566e-05, 1.000000000000000e-02, 1.314414666270191e-03, -8.120203144546965e-05, -5.539948121765535e+00, 4.657166911220548e+01, 1.384208074672110e+01, 5.900875738680567e+01
119, -1.499999999997626e-04, 1.000000000000000e-02, 1.315185179059109e-03, -7.246316901442607e-05, 8.236668558162215e+00, 6.750618155275302e+01, 1.129724631428375e+01, 6.343016843551938e+01
120, -1.999999999998909e-04, 1.000000000000000e-02, 1.315955682624760e-03, -6.372414704408699e-05, 4.643199053417869e+01, 1.010262246391972e+02, 1.031051548485501e+01, 5.835886664224472e+01
121, -2.500000000000000e-04, 9.899999999999590e-03, 1.299248015495548e-03, -5.344779672505731e-05, -2.423540831358330e+01, 5.043301187629685e+01, 1.613918254227544e+00, 7.473815559791275e+01
122, -2.500000000000000e-04, 9.799999999999181e-03, 1.281769583913601e-03, -5.191158824837356e-05, 1.029116136685970e+01, 1.105495911453829e+02, 9.607762623012029e+00, 1.020832461872939e+02
123, -2.500000000000000e-04, 9.699999999999055e-03, 1.264291326090591e-03, -5.037640119500655e-05, 2.160672221395163e+01, 1.463738865233179e+02, 1.700128044261908e+01, 1.293175140364009e+02
124, -2.500000000000000e-04, 9.599999999999458e-03, 1.246813555798284e-03, -4.884241128296787e-05, 3.029306033866578e+01, 1.850093729286569e+02, 2.501345617522480e+01, 1.626032882224816e+02
125, -2.500000000000000e-04, 9.499999999999916e-03, 1.229336644407544e-03, -4.730991992724830e-05, 4.065976820380293e+01, 2.314224860537805e+02, 3.389864226675091e+01, 2.024521827781236e+02
126, -2.500000000000000e-04, 9.400000000000373e-03, 1.211861078559199e-03, -4.577924361171548e-05, 5.253612553434793e+01, 2.853303988403606e+02, 4.369783760868619e+01, 2.486587575991945e+02
127, -2.500000000000000e-04, 9.300000000000832e-03, 1.194387419285483e-03, -4.425070954416655e-05, 6.693911449687536e+01, 3.474813367935391e+02, 5.441694392889222e+01, 3.009131995067539e+02
128, -2.500000000000000e-04, 9.200000000001289e-03, 1.176916350570918e-03, -4.272466457591090e-05, 8.273919729482006e+01, 4.168745528286290e+02, 6.612471923057291e+01, 3.593554643956222e+02
129, -2.500000000000000e-04, 9.100000000001746e-03, 1.159448617515834e-03, -4.120146560719968e-05, 1.007156294145187e+02, 4.941803065185676e+02, 7.884156338227854e+01, 4.238849143279822e+02
130, -2.500000000000000e-04, 9.000000000002204e-03, 1.141985068672096e-03, -3.968149216295483e-05, 1.207706583901309e+02, 5.794688583316190e+02, 9.255842192393925e+01, 4.946435934142494e+02
131, -2.500000000000000e-04, 8.900000000002661e-03, 1.124526650124452e-03, -3.816514610539429e-05, 1.427525172108883e+02, 6.727389361537381e+02, 1.073121028884171e+02, 5.717946781574684e+02
132, -2.500000000000000e-04, 8.800000000003118e-03, 1.107074398236438e-03, -3.665284965792262e-05, 1.667141676447591e+02, 7.741270795007208e+02, 1.231367070966059e+02, 6.554395777092802e+02
133, -2.500000000000000e-04, 8.700000000003576e-03, 1.089629444996380e-03, -3.514504498466979e-05, 1.925613944666550e+02, 8.836306315357201e+02, 1.400565779680170e+02, 7.456809442058077e+02
134, -2.500000000000000e-04, 8.600000000004033e-03, 1.072193014855726e-03, -3.364219308380737e-05, 2.203286535655194e+02, 1.001352237074967e+03, 1.580881321737393e+02, 8.425943674952169e+02
135, -2.500000000000000e-04, 8.500000000004490e-03, 1.054766427561357e-03, -3.214477442677102e-05, 2.500249318279216e+02, 1.127368073739957e+03, 1.772461343172754e+02, 9.462535374738385e+02
136, -2.500000000000000e-04, 8.400000000004949e-03, 1.037351098593898e-03, -3.065328825364358e-05, 2.817737952499115e+02, 1.261865521582738e+03, 1.975242092051112e+02, 1.056713322010506e+03
137, -2.500000000000000e-04, 8.300000000005149e-03, 1.019948545410450e-03, -2.916825456672450e-05, 3.154937498864206e+02, 1.404846766576312e+03, 2.189336159722272e+02, 1.174060350996517e+03
138, -2.500000000000000e-04, 8.200000000005172e-03, 1.002560382902779e-03, -2.769021166837436e-05, 3.513239281197538e+02, 1.556510140297811e+03, 2.414612966251244e+02, 1.298340493513022e+03
139, -2.500000000000000e-04, 8.100000000005195e-03, 9.851883311198749e-04, -2.621971904319275e-05, 3.891515182739748e+02, 1.716836458844454e+03, 2.651171748262242e+02, 1.429648826449696e+03
140, -2.500000000000000e-04, 8.000000000005220e-03, 9.678342094008156e-04, -2.475735456693903e-05, 4.289796989459571e+02, 1.885860241454588e+03, 2.899138464227091e+02, 1.568024575231741e+03
141, -2.500000000000000e-04, 7.900000000005243e-03, 9.504999368345139e-04, -2.330371345358183e-05, 4.710478667515371e+02, 2.063859427853894e+03, 3.158142970887231e+02, 1.713476976840922e+03
142, -2.500000000000000e-04, 7.800000000005240e-03, 9.331875457257788e-04, -2.185941271131133e-05, 5.150280000862200e+02, 2.250610658290804e+03, 3.428318346648601e+02, 1.866114099110552e+03
143, -2.500000000000000e-04, 7.700000000005121e-03, 9.158991649420473e-04, -2.042508502615191e-05, 5.610566052447880e+02, 2.446260862883374e+03, 3.709591771610310e+02, 2.025941247296824e+03
144, -2.500000000000000e-04, 7.600000000005145e-03, 8.986370285324589e-04, -1.900138176935290e-05, 6.091287105658329e+02, 2.650849715296053e+03, 4.001857047768768e+02, 2.192993172444374e+03
145, -2.500000000000000e-04, 7.500000000005337e-03, 8.814034764221031e-04, -1.758897142532404e-05, 6.591045580912416e+02, 2.864279198573919e+03, 4.305095295183218e+02, 2.367308390356494e+03
146, -2.500000000000000e-04, 7.400000000005796e-03, 8.642009472267215e-04, -1.618853791512141e-05, 7.112506472064928e+02, 3.086830974119063e+03, 4.618940391079757e+02, 2.548875497757384e+03
147, -2.500000000000000e-04, 7.300000000006254e-03, 8.470319924499659e-04, -1.480078480786808e-05, 7.654451336599871e+02, 3.318475175422393e+03, 4.943199699569446e+02, 2.737767580517800e+03
148, -2.500000000000000e-04, 7.200000000006711e-03, 8.298992697417336e-04, -1.342643262883039e-05, 8.216513290386758e+02, 3.559212070338104e+03, 5.277804049349285e+02, 2.934015582037182e+03
149, -2.500000000000000e-04, 7.100000000007169e-03, 8.128055418698888e-04, -1.206621741766379e-05, 8.799653369152206e+02, 3.809163655607071e+03, 5.622421301404598e+02, 3.137621334999922e+03
150, -2.500000000000000e-04, 7.000000000007627e-03, 7.957536831262944e-04, -1.072089213859143e-05, 9.402596754496503e+02, 4.068270466823340e+03, 5.976831970779592e+02, 3.348634397366720e+03
151, -2.500000000000000e-04, 6.900000000008085e-03, 7.787466732998638e-04, -9.391224908216634e-06, 1.002587006953774e+03, 4.336610777660968e+03, 6.340796428736406e+02, 3.567063565128559e+03
152, -2.500000000000000e-04, 6.800000000008542e-03, 7.617876016747532e-04, -8.077998889554403e-06, 1.066891582533814e+03, 4.614169875691647e+03, 6.714033633917147e+02, 3.792929368522907e+03
153, -2.500000000000000e-04, 6.700000000009001e-03, 7.448796649085999e-04, -6.782011196870055e-06, 1.133229259021351e+03, 4.901040072005215e+03, 7.096155013119521e+02, 4.026240797722732e+03
154, -2.500000000000000e-04, 6.600000000009459e-03, 7.280261707543525e-04, -5.504073877156007e-06, 1.201577860406991e+03, 5.197249331569381e+03, 7.486792103194617e+02, 4.267021530918178e+03
155, -2.500000000000000e-04, 6.500000000009916e-03, 7.112305382423319e-04, -4.245012468965086e-06, 1.271806518294079e+03, 5.502718395543998e+03, 7.885662146104005e+02, 4.515303091970056e+03
156, -2.500000000000000e-04, 6.400000000010177e-03, 6.944962919200292e-04, -3.005664356595231e-06, 1.344024082193507e+03, 5.817573537862291e+03, 8.292356948080273e+02, 4.771076616707123e+03
157, -2.500000000000000e-04, 6.300000000010201e-03, 6.778270685057084e-04, -1.786879554440059e-06, 1.418225400733550e+03, 6.141860116006137e+03, 8.706368313485045e+02, 5.034357843035255e+03
158, -2.500000000000000e-04, 6.200000000010225e-03, 6.612266172875198e-04, -5.895200934021798e-07, 1.494372626800221e+03, 6.475592770664914e+03, 9.127213964681381e+02, 5.305166869376155e+03
159, -2.500000000000000e-04, 6.100000000010248e-03, 6.446987994322424e-04, 5.855410313281602e-07, 1.572398699914162e+03, 6.818752103671775e+03, 9.554462960711868e+02, 5.583523487532196e+03
160, -2.500000000000000e-04, 6.000000000010509e-03, 6.282475857484980e-04, 1.737421303129470e-06, 1.652348033467709e+03, 7.171414492002442e+03, 9.987581790346704e+02, 5.869426392287216e+03
161, -2.500000000000000e-04, 5.900000000010967e-03, 6.118770601481779e-04, 2.865228686100649e-06, 1.734230016244190e+03, 7.533637011001116e+03, 1.042594166742910e+03, 6.162883406080382e+03
162, -2.500000000000000e-04, 5.800000000011424e-03, 5.955914214033255e-04, 3.968062236726391e-06, 1.817972371792063e+03, 7.905406670169015e+03, 1.086893826423396e+03, 6.463915925870730e+03
163, -2.500000000000000e-04, 5.700000000011876e-03, 5.793949810717992e-04, 5.045013500014423e-06, 1.903515712083348e+03, 8.286713101660911e+03, 1.131601174662299e+03, 6.772539685250889e+03
164, -2.500000000000000e-04, 5.600000000012062e-03, 5.632921621549443e-04, 6.095167891143696e-06, 1.990857160878512e+03, 8.677590433396714e+03, 1.176655369667149e+03, 7.088756822861686e+03
165, -2.500000000000000e-04, 5.500000000012085e-03, 5.472875002532402e-04, 7.117605587078146e-06, 2.080037430907639e+03, 9.078117272726529e+03, 1.221981979891527e+03, 7.412562398333681e+03
166, -2.500000000000000e-04, 5.400000000012110e-03, 5.313856468915175e-04, 8.111401897620953e-06, 2.171017078634327e+03, 9.488310675152836e+03, 1.267503215006847e+03, 7.743968180323416e+03
167, -2.500000000000000e-04, 5.300000000012160e-03, 5.155913688372122e-04, 9.075628545080667e-06, 2.263748329703707e+03, 9.908176925793714e+03, 1.313143152405201e+03, 8.082986348841207e+03
168, -2.500000000000000e-04, 5.200000000012475e-03, 4.999095473152004e-04, 1.000935508228513e-05, 2.358209367549289e+03, 1.033774275829095e+04, 1.358822446251405e+03, 8.429623176376732e+03
169, -2.500000000000000e-04, 5.100000000012934e-03, 4.843451785874114e-04, 1.091165004666765e-05, 2.454387302140521e+03, 1.077704409804373e+04, 1.404455794912507e+03, 8.783882994544454e+03
170, -2.500000000000000e-04, 5.000000000013221e-03, 4.689033749409958e-04, 1.178158213050084e-05, 2.552255121511817e+03, 1.122610703542106e+04, 1.449953157567631e+03, 9.145772994175422e+03
171, -2.500000000000000e-04, 4.900000000012981e-03, 4.535893649601281e-04, 1.261822146915135e-05, 2.651767777869942e+03, 1.168493946198592e+04, 1.495224697025737e+03, 9.515302320635827e+03
172, -2.500000000000000e-04, 4.800000000012570e-03, 4.384084927273449e-04, 1.342064135650418e-05, 2.752932856827007e+03, 1.215359248561655e+04, 1.540172936120579e+03, 9.892468455799430e+03
173, -2.500000000000000e-04, 4.700000000012160e-03, 4.233662198462975e-04, 1.418791939140568e-05, 2.855745396937532e+03, 1.263211289625385e+04, 1.584689941906331e+03, 1.027727251412576e+04
174, -2.500000000000000e-04, 4.600000000011960e-03, 4.084681270815952e-04, 1.491913868937044e-05, 2.960112055816454e+03, 1.312047141750223e+04, 1.628671523549467e+03, 1.066973224055222e+04
175, -2.500000000000000e-04, 4.500000000011985e-03, 3.937199113318849e-04, 1.561339007360256e-05, 3.066018430334791e+03, 1.361869883648015e+04, 1.672012232704793e+03, 1.106984929344126e+04
176, -2.500000000000000e-04, 4.400000000012010e-03, 3.791273866467861e-04, 1.626977363659226e-05, 3.173480131491226e+03, 1.412685358743765e+04, 1.714594891899462e+03, 1.147761877040454e+04
177, -2.500000000000000e-04, 4.300000000011870e-03, 3.646964867067762e-04, 1.688740012848644e-05, 3.282456066589681e+03, 1.464494837994484e+04, 1.756296802954816e+03, 1.189304609472831e+04
178, -2.500000000000000e-04, 4.200000000011467e-03, 3.504332643159338e-04, 1.746539285285601e-05, 3.392909151363063e+03, 1.517299620059026e+04, 1.796993747817382e+03, 1.231613563607308e+04
179, -2.500000000000000e-04, 4.100000000011056e-03, 3.363438912633304e-04, 1.800288963069008e-05, 3.504824133460637e+03, 1.571102811028982e+04, 1.836554730516616e+03, 1.274688780199670e+04
180, -2.500000000000000e-04, 4.000000000010646e-03, 3.224346594178339e-04, 1.849904454890552e-05, 3.618160007958030e+03, 1.625905370404421e+04, 1.874844774205502e+03, 1.318530868600406e+04
181, -2.500000000000000e-04, 3.900000000010236e-03, 3.087119803160820e-04, 1.895303005437171e-05, 3.732888195323575e+03, 1.681708978084136e+04, 1.911726154582757e+03, 1.363140193417131e+04
182, -2.500000000000000e-04, 3.800000000009824e-03, 2.951823852617084e-04, 1.936403907976020e-05, 3.849010667590202e+03, 1.738517710588482e+04, 1.947052744237229e+03, 1.408516451450179e+04
183, -2.500000000000000e-04, 3.700000000009415e-03, 2.818525270498102e-04, 1.973128702648106e-05, 3.966493101695142e+03, 1.796332586148686e+04, 1.980671967737088e+03, 1.454660005226983e+04
184, -2.500000000000000e-04, 3.600000000009160e-03, 2.687291797437194e-04, 2.005401402512902e-05, 4.085306639027353e+03, 1.855154783476882e+04, 2.012427757564498e+03, 1.501571164650653e+04
185, -2.500000000000000e-04, 3.500000000009170e-03, 2.558192387685752e-04, 2.033148728571497e-05, 4.205429557389894e+03, 1.914985845029783e+04, 2.042158635060811e+03, 1.549250149259942e+04
186, -2.500000000000000e-04, 3.400000000009196e-03, 2.431297212324876e-04, 2.056300343490728e-05, 4.326849627204214e+03, 1.975827772282315e+04, 2.069697257178979e+03, 1.597696967562229e+04
187, -2.500000000000000e-04, 3.300000000009092e-03, 2.306677666061590e-04, 2.074789100548707e-05, 4.449551120036824e+03, 2.037681884404568e+04, 2.094869203754751e+03, 1.646911549159865e+04
188, -2.500000000000000e-04, 3.200000000008720e-03, 2.184406372125766e-04, 2.088551299025642e-05, 4.573509507514812e+03, 2.100548458476353e+04, 2.117494283193895e+03, 1.696894024672013e+04
189, -2.500000000000000e-04, 3.100000000008311e-03, 2.064557181958883e-04, 2.097526947029241e-05, 4.698706203402508e+03, 2.164427870542863e+04, 2.137387578793455e+03, 1.747644500661808e+04
190, -2.500000000000000e-04, 3.000000000007901e-03, 1.947205176456217e-04, 2.101660035713655e-05, 4.825134627432277e+03, 2.229321019643982e+04, 2.154357561607841e+03, 1.799162833368858e+04
191, -2.500000000000000e-04, 2.900000000007490e-03, 1.832426672260149e-04, 2.100898818545611e-05, 4.952785132748631e+03, 2.295228112967788e+04, 2.168205314400463e+03, 1.851448927961692e+04
192, -2.500000000000000e-04, 2.800000000007079e-03, 1.720299225393802e-04, 2.095196098706470e-05, 5.081638480201841e+03, 2.362148092710958e+04, 2.178726944964860e+03, 1.904502985975674e+04
193, -2.500000000000000e-04, 2.700000000006744e-03, 1.610901627605646e-04, 2.084509530090258e-05, 5.211695393350840e+03, 2.430080876128571e+04, 2.185713377298779e+03, 1.958324848038958e+04
194, -2.500000000000000e-04, 2.600000000006672e-03, 1.504313911120197e-04, 2.068801929392098e-05, 5.342965517613839e+03, 2.499026426025049e+04, 2.188946664294027e+03, 2.012914051515632e+04
195, -2.500000000000000e-04, 2.500000000006697e-03, 1.400617357050669e-04, 2.048041591000572e-05, 5.475435394921631e+03, 2.568982169601131e+04, 2.188202568421595e+03, 2.068270619264968e+04
196, -2.500000000000000e-04, 2.400000000006722e-03, 1.299894489220875e-04, 2.022202617130629e-05, 5.609114064262623e+03, 2.639946705444937e+04, 2.183251407471842e+03, 2.124394323776728e+04
197, -2.500000000000000e-04, 2.300000000006651e-03, 1.202229077846929e-04, 1.991265249950848e-05, 5.744012002972331e+03, 2.711917880836962e+04, 2.173856585588934e+03, 2.181284863967546e+04
198, -2.500000000000000e-04, 2.200000000006315e-03, 1.107706141542374e-04, 1.955216226402446e-05, 5.880139000950690e+03, 2.784892664530292e+04, 2.159774326886809e+03, 2.238942007143018e+04
199, -2.500000000000000e-04, 2.100000000005904e-03, 1.016411945847969e-04, 1.914049127889352e-05, 6.017517975722661e+03, 2.858868164446919e+04, 2.140754805534143e+03, 2.297365347329443e+04
200, -2.500000000000000e-04, 2.000000000005494e-03, 9.284340060171889e-05, 1.867764753811163e-05, 6.156169488584348e+03, 2.933840261800873e+04, 2.116540671001996e+03, 2.356554498659015e+04
201, -2.500000000000000e-04, 1.900000000005083e-03, 8.438610855577699e-05, 1.816371497158926e-05, 6.296123602228205e+03, 3.009804587734053e+04, 2.086867904536184e+03, 2.416508999764787e+04
202, -2.500000000000000e-04, 1.800000000004675e-03, 7.627831966785903e-05, 1.759885732382063e-05, 6.437411289697409e+03, 3.086755739105228e+04, 2.051465877260287e+03, 2.477228466483861e+04
203, -2.500000000000000e-04, 1.700000000004264e-03, 6.852915973152104e-05, 1.698332213070747e-05, 6.580075294381886e+03, 3.164687972498597e+04, 2.010057671736380e+03, 2.538712295115336e+04
204, -2.500000000000000e-04, 1.600000000003854e-03, 6.114787908589505e-05, 1.631744488042243e-05, 6.724163159712880e+03, 3.243594673120552e+04, 1.962358478199956e+03, 2.600959856697392e+04
205, -2.500000000000000e-04, 1.500000000003443e-03, 5.414385242028904e-05, 1.560165314008533e-05, 6.869728171038407e+03, 3.323468396145918e+04, 1.908077328505627e+03, 2.663970589546872e+04
206, -2.500000000000000e-04, 1.400000000003032e-03, 4.752657844531163e-05, 1.483647088131935e-05, 7.016833032057509e+03, 3.404300987798834e+04, 1.846916414713508e+03, 2.727743822061157e+04
207, -2.500000000000000e-04, 1.300000000002622e-03, 4.130567964335737e-05, 1.402252289933432e-05, 7.165546280979468e+03, 3.486083200536976e+04, 1.778571007119714e+03, 2.792278837553807e+04
208, -2.500000000000000e-04, 1.200000000002211e-03, 3.549090184965700e-05, 1.316053936160116e-05, 7.315949409191654e+03, 3.568805243326927e+04, 1.702729825999465e+03, 2.857574820455743e+04
209, -2.500000000000000e-04, 1.100000000002113e-03, 3.009211378534025e-05, 1.225136040651170e-05, 7.468153973838285e+03, 3.652458860250342e+04, 1.619076773194754e+03, 2.923631357951759e+04
210, -2.500000000000000e-04, 1.000000000002544e-03, 2.511930665632492e-05, 1.129594034376456e-05, 7.622356134874141e+03, 3.737045178585026e+04, 1.527296423577749e+03, 2.990451023376771e+04
211, -2.500000000000000e-04, 9.000000000030026e-04, 2.058259494482763e-05, 1.029534991726301e-05, 7.778891910478540e+03, 3.822586398050608e+04, 1.427086150267577e+03, 3.058045793892203e+04
212, -2.500000000000000e-04, 8.000000000032027e-04, 1.649222297793847e-05, 9.250775273474207e-06, 7.938137951127339e+03, 3.909119673582660e+04, 1.318130007472581e+03, 3.126440369668557e+04
213, -2.500000000000000e-04, 7.000000000028719e-04, 1.285859030138117e-05, 8.163518576047241e-06, 8.098620362057637e+03, 3.996453492077602e+04, 1.199942493803039e+03, 3.195615681863633e+04
214, -2.500000000000000e-04, 6.000000000024631e-04, 9.692306324344537e-06, 7.035059970979153e-06, 8.252211680945207e+03, 4.083374566510891e+04, 1.070875686819110e+03, 3.265185225538814e+04
215, -2.500000000000000e-04, 5.000000000020526e-04, 7.004247433758882e-06, 5.867346524485038e-06, 8.355360103809769e+03, 4.163557812846157e+04, 9.266627300671900e+02, 3.333178253603519e+04
216, -2.500000000000000e-04, 4.000000000016421e-04, 4.805124132562776e-06, 4.664091232895037e-06, 8.316807742544752e+03, 4.221340014479823e+04, 7.508275119851803e+02, 3.392983855392659e+04
217, -2.500000000000000e-04, 3.000000000012316e-04, 3.103273609351811e-06, 3.433389677058817e-06, 7.604848786729733e+03, 4.184605504664779e+04, 5.403316993413495e+02, 3.425825505648973e+04
218, -2.500000000000000e-04, 2.000000000008210e-04, 1.888958730185520e-06, 2.199558529338655e-06, 7.142916183838620e+03, 4.126534362856454e+04, 2.068511264495925e+02, 3.412493522740576e+04
219, -2.500000000000000e-04, 1.000000000004105e-04, 1.098947595856720e-06, 9.730888514928096e-07, -3.697573285399373e+03, 2.860234498796896e+04, 2.584435756373050e+03, 3.271088432282979e+04
220, -1.999999999998928e-04, 9.899999999999593e-03, 1.298477228889074e-03, -6.218715799485119e-05, -3.290780203391979e-01, 7.310651178208549e+01, 8.923428901452024e+00, 7.557311812454914e+01
221, -1.499999999997670e-04, 9.899999999999591e-03, 1.297706545230093e-03, -7.092608067507486e-05, 3.788046256149443e+00, 6.641971708412274e+01, 1.529340874787635e+01, 6.970136006723315e+01
222, -9.999999999959327e-05, 9.899999999999591e-03, 1.296936070094431e-03, -7.966467958422796e-05, 9.323645616923557e+00, 5.768635306589655e+01, 1.912985636175910e+01, 6.166649892349241e+01
223, -4.999999999946756e-05, 9.899999999999593e-03, 1.296165832338282e-03, -8.840297254167309e-05, 1.460151947218571e+01, 4.865449982827765e+01, 2.157630145195652e+01, 5.497047033194447e+01
224, 6.282680539010377e-16, 9.899999999999593e-03, 1.295395816164233e-03, -9.714103760797940e-05, 1.843713871491396e+01, 3.965699259581486e+01, 2.226420857205429e+01, 4.932607963427184e+01
225, 5.000000000046569e-05, 9.899999999999590e-03, 1.294625992739535e-03, -1.058789910327125e-04, 2.095039838426777e+01, 3.134308479942555e+01, 2.103662700848959e+01, 4.333781990941699e+01
226, 1.000000000003380e-04, 9.899999999999590e-03, 1.293856327540408e-03, -1.146169600801067e-04, 2.228144996086545e+01, 2.421689627930069e+01, 1.800903680280789e+01, 3.607003713210040e+01
227, 1.500000000001929e-04, 9.899999999999593e-03, 1.293086779588597e-03, -1.233550650693894e-04, 2.258638972027794e+01, 1.893174107539035e+01, 1.346915824264893e+01, 2.718509429410993e+01
228, 2.000000000000797e-04, 9.899999999999593e-03, 1.292317299870344e-03, -1.320934095792650e-04, 2.169310318133168e+01, 1.581216157871295e+01, 7.926369841559147e+00, 1.690842481114445e+01
229, -1.999999999998947e-04, 9.799999999999184e-03, 1.280998517477483e-03, -6.065071658422627e-05, 5.461464448913452e+00, 9.360279171108040e+01, 1.519855960018020e+01, 9.323560707807577e+01
230, -1.499999999997712e-04, 9.799999999999181e-03, 1.280227718890558e-03, -6.938930098341733e-05, 1.129488903917182e+01, 8.079735166168058e+01, 2.269537747073331e+01, 8.301152296367958e+01
231, -9.999999999960086e-05, 9.799999999999184e-03, 1.279457198509212e-03, -7.812745285961456e-05, 1.501882980111018e+01, 6.525213293891650e+01, 2.764586799682221e+01, 7.470315129447764e+01
232, -4.999999999947776e-05, 9.799999999999184e-03, 1.278686964547524e-03, -8.686529159886166e-05, 1.915362576231546e+01, 5.081021230897704e+01, 3.028663696026973e+01, 6.834662380278181e+01
233, 6.154473632113966e-16, 9.799999999999184e-03, 1.277917002516850e-03, -9.560292997058777e-05, 2.293529281245525e+01, 3.789536737627078e+01, 3.066208718665011e+01, 6.312256485221313e+01
234, 5.000000000045551e-05, 9.799999999999184e-03, 1.277147281489216e-03, -1.043404950769235e-04, 2.566512505869688e+01, 2.654899296991830e+01, 2.865590317742415e+01, 5.731862149546269e+01
235, 1.000000000003303e-04, 9.799999999999184e-03, 1.276377761055695e-03, -1.130781229582369e-04, 2.700606573459169e+01, 1.692508900617057e+01, 2.427466831466080e+01, 4.958491886598340e+01
236, 1.500000000001885e-04, 9.799999999999188e-03, 1.275608393266045e-03, -1.218159493354966e-04, 2.672966432550796e+01, 9.280307226299481e+00, 1.769305518755133e+01, 3.945449113414905e+01
237, 2.000000000000778e-04, 9.799999999999188e-03, 1.274839121146449e-03, -1.305541002508587e-04, 2.419617268646221e+01, 3.718197154026067e+00, 9.189014351898683e+00, 2.751543968292444e+01
238, -1.999999999998966e-04, 9.699999999999027e-03, 1.263519972153934e-03, -5.911504026977215e-05, 8.287488799793227e+00, 1.159680523998967e+02, 2.292366137865631e+01, 1.170345281583565e+02
239, -1.499999999997756e-04, 9.699999999998999e-03, 1.262748969210161e-03, -6.785307151583143e-05, 1.361009829923504e+01, 9.622896451936305e+01, 3.124878701164456e+01, 1.035945163331337e+02
240, -9.999999999960846e-05, 9.699999999998973e-03, 1.261978331560823e-03, -7.659062564349151e-05, 1.855221712214049e+01, 7.621862630972066e+01, 3.663548023870911e+01, 9.324188113649795e+01
241, -4.999999999948794e-05, 9.699999999998947e-03, 1.261208055747128e-03, -8.532784543568093e-05, 2.269951379177041e+01, 5.644996962438259e+01, 3.906313651932452e+01, 8.510468734340455e+01
242, 6.026266725217555e-16, 9.699999999998920e-03, 1.260438125682280e-03, -9.406488008955843e-05, 2.612906560303404e+01, 3.793240767659390e+01, 3.856327724193007e+01, 7.802451083254104e+01
243, 5.000000000044535e-05, 9.699999999998892e-03, 1.259668511174686e-03, -1.028018807733504e-04, 2.845540212093735e+01, 2.111057310507416e+01, 3.517191693516213e+01, 7.072624319761402e+01
244, 1.000000000003228e-04, 9.699999999998864e-03, 1.258899169642918e-03, -1.115390019604353e-04, 2.927533624526041e+01, 6.291277914594964e+00, 2.894013172499806e+01, 6.227673590024119e+01
245, 1.500000000001842e-04, 9.699999999998836e-03, 1.258130047419925e-03, -1.202763987581483e-04, 2.821658264176066e+01, -6.205206548273138e+00, 1.997325552123440e+01, 5.273123662032977e+01
246, 2.000000000000759e-04, 9.699999999998809e-03, 1.257361078687751e-03, -1.290142252609468e-04, 2.507483340202198e+01, -1.579733433864553e+01, 8.412609643400780e+00, 4.419979750938030e+01
247, -1.999999999998985e-04, 9.599999999999352e-03, 1.246041857978656e-03, -5.758038134933722e-05, 1.052544706250320e+01, 1.429852036420652e+02, 3.160544543151760e+01, 1.467692196504954e+02
248, -1.499999999997800e-04, 9.599999999999241e-03, 1.245270609882826e-03, -6.631765388297627e-05, 1.587720223033452e+01, 1.162611443377860e+02, 4.068456952239637e+01, 1.292202484981475e+02
249, -9.999999999961608e-05, 9.599999999999132e-03, 1.244499825041708e-03, -7.505439962686250e-05, 2.094083561619848e+01, 8.949346702475573e+01, 4.614680653447926e+01, 1.149677097552184e+02
250, -4.999999999949810e-05, 9.599999999999024e-03, 1.243729500237495e-03, -8.379079141299403e-05, 2.526882725111136e+01, 6.324334740440050e+01, 4.804243103674786e+01, 1.033168180915153e+02
251, 5.898059818321144e-16, 9.599999999998917e-03, 1.242959616918551e-03, -9.252700569029781e-05, 2.850177825036869e+01, 3.806188506130147e+01, 4.642193890339573e+01, 9.333478070065235e+01
252, 5.000000000043517e-05, 9.599999999998809e-03, 1.242190142943498e-03, -1.012632212174143e-04, 3.037954245034701e+01, 1.454605860766098e+01, 4.135590281994270e+01, 8.421366874092814e+01
253, 1.000000000003152e-04, 9.599999999998698e-03, 1.241421032978954e-03, -1.099996174774404e-04, 3.058388622480749e+01, -6.811051863430844e+00, 3.293182701505521e+01, 7.573904090243853e+01
254, 1.500000000001798e-04, 9.599999999998591e-03, 1.240652228931994e-03, -1.187363743320385e-04, 2.883504815214270e+01, -2.550851128023466e+01, 2.125146040880925e+01, 6.899072930335697e+01
255, 2.000000000000740e-04, 9.599999999998483e-03, 1.239883660458502e-03, -1.274736713318937e-04, 2.491420277749136e+01, -4.100229277711433e+01, 6.422833847982117e+00, 6.715650053982482e+01
256, -1.999999999999004e-04, 9.499999999999719e-03, 1.228564558327487e-03, -5.604698582678675e-05, 1.241521528113025e+01, 1.745976745299055e+02, 4.099961446899513e+01, 1.817333861303574e+02
257, -1.499999999997843e-04, 9.499999999999528e-03, 1.227793042862769e-03, -6.478326099019053e-05, 1.815234027440303e+01, 1.399346077117119e+02, 5.070216599779821e+01, 1.584732129088237e+02
258, -9.999999999962368e-05, 9.499999999999330e-03, 1.227022109033700e-03, -7.351895061243565e-05, 2.332613450008218e+01, 1.051742193007915e+02, 5.609385437918178e+01, 1.388711308443750e+02
259, -4.999999999950831e-05, 9.499999999999136e-03, 1.226251751698929e-03, -8.225426077143979e-05, 2.760697898487885e+01, 7.098844018094941e+01, 5.727368237729915e+01, 1.224869378657543e+02
260, 5.769988436696294e-16, 9.499999999998942e-03, 1.225481950426953e-03, -9.098939808940137e-05, 3.064913066576626e+01, 3.797203336004802e+01, 5.433725494162829e+01, 1.089209529991174e+02
261, 5.000000000042495e-05, 9.499999999998747e-03, 1.224712670304964e-03, -9.972456969440651e-05, 3.213244721145345e+01, 6.694087766425294e+00, 4.738411280131425e+01, 9.812301827361989e+01
262, 1.000000000003075e-04, 9.499999999998551e-03, 1.223943862680466e-03, -1.084599827313200e-04, 3.177504121676648e+01, -2.227615212892290e+01, 3.652383076195191e+01, 9.087074532655663e+01
263, 1.500000000001755e-04, 9.499999999998359e-03, 1.223175465677405e-03, -1.171958436796385e-04, 2.931022499585621e+01, -4.839043295058782e+01, 2.187676036416168e+01, 8.917265736443048e+01
264, 2.000000000000721e-04, 9.499999999998164e-03, 1.222407404737980e-03, -1.259323577784542e-04, 2.450888276747572e+01, -7.110759028081014e+01, 3.579068688557980e+00, 9.588403855127945e+01
265, -1.999999999999023e-04, 9.400000000000087e-03, 1.211088569322296e-03, -5.451511957426758e-05, 1.396771116445344e+01, 2.107328957149974e+02, 5.113080133242084e+01, 2.217520534984774e+02
266, -1.499999999997887e-04, 9.399999999999811e-03, 1.210316774433509e-03, -6.325010852072406e-05, 2.021090030512115e+01, 1.668133972266138e+02, 6.128466585417101e+01, 1.910903796088276e+02
267, -9.999999999963125e-05, 9.399999999999530e-03, 1.209545700961935e-03, -7.198445032218780e-05, 2.564618449121427e+01, 1.228802368202006e+02, 6.645158075703968e+01, 1.646745617050597e+02
268, -4.999999999951849e-05, 9.399999999999249e-03, 1.208775340298074e-03, -8.071838363293119e-05, 2.994271730216457e+01, 7.957405638557839e+01, 6.676284291807060e+01, 1.424513200964620e+02
269, 5.641646004528322e-16, 9.399999999998968e-03, 1.208005668749249e-03, -8.945214634669367e-05, 3.279335693311048e+01, 3.752912362337990e+01, 6.234296754612726e+01, 1.247758385905483e+02
270, 5.000000000041476e-05, 9.399999999998687e-03, 1.207236647981056e-03, -9.818597556560219e-05, 3.389508500253896e+01, -2.647657951579026e+00, 5.331754587701941e+01, 1.127227344239086e+02
271, 1.000000000003000e-04, 9.399999999998406e-03, 1.206468225480501e-03, -1.069201073337541e-04, 3.295695125126459e+01, -4.036915357395870e+01, 3.981856218313929e+01, 1.082533566508206e+02
272, 1.500000000001711e-04, 9.399999999998125e-03, 1.205700335019642e-03, -1.156547761614165e-04, 2.970416071275182e+01, -7.506328590673019e+01, 2.198923878630319e+01, 1.136236082896959e+02
273, 2.000000000000702e-04, 9.399999999997844e-03, 1.204932897108093e-03, -1.243902142709746e-04, 2.386043594795890e+01, -1.061886333570277e+02, -1.170115948040973e-02, 1.300490714106093e+02
274, -1.999999999999042e-04, 9.300000000000464e-03, 1.193614467869991e-03, -5.298505857104647e-05, 1.606932566049057e+01, 2.520650946288307e+02, 6.200734711567878e+01, 2.665964128720701e+02
275, -1.499999999997930e-04, 9.300000000000100e-03, 1.192842394304536e-03, -6.171842496251782e-05, 2.268415849596582e+01, 1.974202783814422e+02, 7.243284362997274e+01, 2.269774855308955e+02
276, -9.999999999963886e-05, 9.299999999999729e-03, 1.192071201167611e-03, -7.045108160778967e-05, 2.826481155255119e+01, 1.428956809768554e+02, 7.721705867766617e+01, 1.923281904149583e+02
277, -4.999999999952863e-05, 9.299999999999361e-03, 1.191300876040824e-03, -7.918329948424810e-05, 3.251783031107524e+01, 8.915188729141764e+01, 7.650508260244675e+01, 1.631549173824727e+02
278, 5.513303572360351e-16, 9.299999999998993e-03, 1.190531391384381e-03, -8.791534814082479e-05, 3.513172394555181e+01, 3.682216556935932e+01, 7.043863630868678e+01, 1.408874143882032e+02
279, 5.000000000040461e-05, 9.299999999998625e-03, 1.189762704811570e-03, -9.664749556639083e-05, 3.580096634623734e+01, -1.347404075185922e+01, 5.916229082320724e+01, 1.281746189630243e+02
280, 1.000000000002923e-04, 9.299999999998258e-03, 1.188994759394011e-03, -1.053800079360516e-04, 3.422689526373902e+01, -6.113192832370841e+01, 4.282673207198449e+01, 1.281788639200867e+02
281, 1.500000000001668e-04, 9.299999999997890e-03, 1.188227483965901e-03, -1.141131491989041e-04, 3.011645033685441e+01, -1.055617191573192e+02, 2.159228611510613e+01, 1.423849463812664e+02
282, 2.000000000000683e-04, 9.299999999997520e-03, 1.187460793369079e-03, -1.228471805483083e-04, 2.318412027160793e+01, -1.461832841904416e+02, -4.367691634688505e+00, 1.695925252334972e+02
283, -1.999999999999061e-04, 9.200000000000841e-03, 1.176142940633591e-03, -5.145710003394529e-05, 1.797328995195799e+01, 2.980299717468304e+02, 7.370925436086964e+01, 3.164869060983343e+02
284, -1.499999999997973e-04, 9.200000000000397e-03, 1.175370592316694e-03, -6.018845938109243e-05, 2.505571326815317e+01, 2.314018556295700e+02, 8.421289127462025e+01, 2.663568559184504e+02
285, -9.999999999964642e-05, 9.199999999999951e-03, 1.174599303973376e-03, -6.891904670958507e-05, 3.087890786866605e+01, 1.650459461449627e+02, 8.843788104421333e+01, 2.220041201739170e+02
286, -4.999999999953884e-05, 9.199999999999505e-03, 1.173829058616121e-03, -7.764916530841327e-05, 3.514164933154640e+01, 9.962374813760709e+01, 8.652742011934798e+01, 1.846778784707989e+02
287, 5.385367716007061e-16, 9.199999999999058e-03, 1.173059824100872e-03, -8.637911668795076e-05, 3.753966010016804e+01, 3.578107498329372e+01, 7.863413716170061e+01, 1.572781063284838e+02
288, 5.000000000039439e-05, 9.199999999998614e-03, 1.172291553269557e-03, -9.510920037790923e-05, 3.776883961819655e+01, -2.584818238181641e+01, 6.491500131128180e+01, 1.445785429070476e+02
289, 1.000000000002848e-04, 9.199999999998171e-03, 1.171524184128415e-03, -1.038397136517390e-04, 3.552740531676332e+01, -8.464071581498646e+01, 4.553307990380578e+01, 1.507760683876600e+02
290, 1.500000000001625e-04, 9.199999999997726e-03, 1.170757640010091e-03, -1.125709511949401e-04, 3.051650638783251e+01, -1.399819438718072e+02, 2.065960538161373e+01, 1.754337445277699e+02
291, 2.000000000000664e-04, 9.199999999997280e-03, 1.169991829700758e-03, -1.213032046959697e-04, 2.244023220692964e+01, -1.912634579818030e+02, -9.523813386878764e+00, 2.145508780825522e+02
292, -1.999999999999080e-04, 9.100000000001274e-03, 1.158674744051353e-03, -4.993155778191214e-05, 2.031793699780539e+01, 3.491744395753105e+02, 8.627565019799147e+01, 3.713765616673370e+02
293, -1.499999999998017e-04, 9.100000000000802e-03, 1.157902135141790e-03, -5.866047867528787e-05, 2.774880846114128e+01, 2.691430075296155e+02, 9.668063606777594e+01, 3.092890895356464e+02
294, -9.999999999965405e-05, 9.100000000000334e-03, 1.157130784802391e-03, -6.738856615866478e-05, 3.373926759860715e+01, 1.895932190455117e+02, 1.001533932785506e+02, 2.537976810816959e+02
295, -4.999999999954905e-05, 9.099999999999862e-03, 1.156360671359754e-03, -7.611615608917869e-05, 3.795754817443058e+01, 1.111681746491021e+02, 9.685079123866349e+01, 2.070751044501356e+02
296, 5.257025283839090e-16, 9.099999999999390e-03, 1.155591757751352e-03, -8.484358237330854e-05, 4.009130568046922e+01, 3.451791557858714e+01, 8.693218030050437e+01, 1.739536678671230e+02
297, 5.000000000038422e-05, 9.099999999998916e-03, 1.154823991679825e-03, -9.357117666665258e-05, 3.983176598413762e+01, -3.971357870274578e+01, 7.056218393625402e+01, 1.619986082309662e+02
298, 1.000000000002772e-04, 9.099999999998446e-03, 1.154057305726212e-03, -1.022992681376871e-04, 3.687231066744265e+01, -1.108881398987190e+02, 4.791101078861724e+01, 1.761107906139288e+02
299, 1.500000000001581e-04, 9.099999999997978e-03, 1.153291617438040e-03, -1.110281831988834e-04, 3.090758465663185e+01, -1.783726017559749e+02, 1.915556640047311e+01, 2.127579359774558e+02
300, 2.000000000000645e-04, 9.099999999997506e-03, 1.152526829377577e-03, -1.197582452091992e-04, 2.163188300346335e+01, -2.415377361361833e+02, -1.551917072156534e+01, 2.649936359191425e+02
301, -1.999999999999099e-04, 9.000000000001736e-03, 1.141210732815431e-03, -4.840876248929426e-05, 2.295362170138216e+01, 4.054635204128932e+02, 9.969320135842736e+01, 4.313568826397212e+02
302, -1.499999999998060e-04, 9.000000000001264e-03, 1.140437884305597e-03, -5.713476750439721e-05, 3.072531685060971e+01, 3.107013525930134e+02, 1.098170021615581e+02, 3.558450174514720e+02
303, -9.999999999966160e-05, 9.000000000000792e-03, 1.139666512167618e-03, -6.585987859262020e-05, 3.683033203895238e+01, 2.166091129086424e+02, 1.123512090180055e+02, 2.877700240160922e+02
304, -4.999999999955923e-05, 9.000000000000320e-03, 1.138896589769735e-03, -7.458446487844032e-05, 4.095048714422423e+01, 1.238499951404880e+02, 1.074606751674478e+02, 2.303551936809708e+02
305, 5.128818376942679e-16, 8.999999999999852e-03, 1.138128074904210e-03, -8.330889314828235e-05, 4.276619327247745e+01, 3.307810766139756e+01, 9.531211170877819e+01, 1.908702531992716e+02
306, 5.000000000037403e-05, 8.999999999999380e-03, 1.137360909902346e-03, -9.203352775289487e-05, 4.196282370105790e+01, -5.505402543030746e+01, 7.607557086914706e+01, 1.804501009909514e+02
307, 1.000000000002695e-04, 8.999999999998908e-03, 1.136595021712368e-03, -1.007587304202511e-04, 3.822803369319244e+01, -1.398966972086632e+02, 4.992572192418704e+01, 2.042026703974840e+02
308, 1.500000000001538e-04, 8.999999999998436e-03, 1.135830321948620e-03, -1.094848600547541e-04, 3.125064833866288e+01, -2.208024783735850e+02, 1.704244712544858e+01, 2.543473190374047e+02
309, 2.000000000000626e-04, 8.999999999997964e-03, 1.135066706908981e-03, -1.182122725269941e-04, 2.071888775763072e+01, -2.971255313800983e+02, -2.238899702410598e+01, 3.209830891620025e+02
310, -1.999999999999118e-04, 8.900000000002187e-03, 1.123751858626996e-03, -4.688906749776230e-05, 2.575482369960110e+01, 4.669293011276121e+02, 1.139901941234964e+02, 4.965984061181914e+02
311, -1.499999999998104e-04, 8.900000000001712e-03, 1.122978797171730e-03, -5.561163136931925e-05, 3.385810901069810e+01, 3.560894864994460e+02, 1.236352059625874e+02, 4.061720291353672e+02
312, -9.999999999966923e-05, 8.900000000001240e-03, 1.122207449552983e-03, -6.433324267250946e-05, 4.006543897562147e+01, 2.461253005137891e+02, 1.250318448481178e+02, 3.240254857902756e+02
313, -4.999999999956943e-05, 8.900000000000770e-03, 1.121437783846653e-03, -7.305430395775801e-05, 4.405726037490150e+01, 1.377023281462618e+02, 1.183489808567655e+02, 2.545492561317806e+02
314, 5.000475944774707e-16, 8.900000000000293e-03, 1.120669752459169e-03, -8.177521531276460e-05, 4.551582459663366e+01, 3.148519054090985e+01, 1.037574350055424e+02, 2.079886534590844e+02
315, 5.000000000036387e-05, 8.899999999999823e-03, 1.119903292160019e-03, -9.049637426260699e-05, 4.412351121133081e+01, -7.186447794837804e+01, 8.143098032821453e+01, 1.999430715432995e+02
316, 1.000000000002620e-04, 8.899999999999349e-03, 1.119138324119740e-03, -9.921817563822858e-05, 3.956402421256684e+01, -1.716865662070562e+02, 5.154711560226113e+01, 2.350643155825460e+02
317, 1.500000000001494e-04, 8.899999999998874e-03, 1.118374753936164e-03, -1.079410114185666e-04, 3.152214588295241e+01, -2.673219816761629e+02, 1.428748115588640e+01, 3.002071635515849e+02
318, 2.000000000000606e-04, 8.899999999998404e-03, 1.117612471645836e-03, -1.166652705749174e-04, 1.968435896118551e+01, -3.581111660503161e+02, -3.016222266843643e+01, 3.825813605286037e+02
319, -1.999999999999137e-04, 8.800000000002590e-03, 1.106299164977211e-03, -4.537284676478486e-05, 2.876578522237476e+01, 5.337079114971607e+02, 1.291949036570640e+02, 5.672141072035621e+02
320, -1.499999999998147e-04, 8.800000000002060e-03, 1.105525924146103e-03, -5.409139632390979e-05, 3.716165738836072e+01, 4.054198798029879e+02, 1.381545143693107e+02, 4.603920044249914e+02
321, -9.999999999967683e-05, 8.800000000001532e-03, 1.104754654205845e-03, -6.280893691977085e-05, 4.343237320820171e+01, 2.782202275786095e+02, 1.382050170921427e+02, 3.626676764720254e+02
322, -4.999999999957961e-05, 8.800000000001001e-03, 1.103985317853178e-03, -7.152590471267644e-05, 4.725901789456010e+01, 1.527811005602801e+02, 1.295164377533314e+02, 2.797015204166063e+02
323, 4.872540088421418e-16, 8.800000000000474e-03, 1.103217861983455e-03, -8.024273339145546e-05, 4.832115408246861e+01, 2.977339746675963e+01, 1.122612962328226e+02, 2.252874026726079e+02
324, 5.000000000035368e-05, 8.799999999999947e-03, 1.102452217695132e-03, -8.895985405552052e-05, 4.629852468673088e+01, -9.013291556158754e+01, 8.661534863840926e+01, 2.205049032725649e+02
325, 1.000000000002544e-04, 8.799999999999419e-03, 1.101688300301147e-03, -9.767769508306010e-05, 4.087133207702296e+01, -2.062689281805871e+02, 5.275788970695845e+01, 2.687226971164244e+02
326, 1.500000000001451e-04, 8.799999999998892e-03, 1.100926009343551e-03, -1.063966819893356e-04, 3.172091248593066e+01, -3.179661524519747e+02, 1.087196833242511e+01, 3.503624440013111e+02
327, 2.000000000000587e-04, 8.799999999998365e-03, 1.100165228608577e-03, -1.151172372780455e-04, 1.853048303527181e+01, -4.245559094419900e+02, -3.885549699317382e+01, 4.498494745855110e+02
328, -1.999999999999156e-04, 8.700000000002964e-03, 1.088853790464362e-03, -4.386049426777619e-05, 3.191691130464568e+01, 6.058246909953426e+02, 1.453306674264181e+02, 6.433149704211290e+02
329, -1.499999999998191e-04, 8.700000000002345e-03, 1.088080410506579e-03, -5.257440828195001e-05, 4.057883815082767e+01, 4.587239220124794e+02, 1.533944892150673e+02, 5.186181528291054e+02
330, -9.999999999968445e-05, 8.700000000001731e-03, 1.087309278311933e-03, -6.128725927460301e-05, 4.688653743588400e+01, 3.129253493109414e+02, 1.518849574687090e+02, 4.037979824676918e+02
331, -4.999999999958977e-05, 8.700000000001117e-03, 1.086540351143055e-03, -6.999951726811193e-05, 5.051845610676396e+01, 1.691085475186986e+02, 1.409710247654794e+02, 3.058675024823798e+02
332, 4.743926605710325e-16, 8.700000000000502e-03, 1.085773570309442e-03, -7.871164985897769e-05, 5.115162296755800e+01, 2.795201374752815e+01, 1.208258533177121e+02, 2.427627837782703e+02
333, 5.000000000034347e-05, 8.699999999999888e-03, 1.085008861158631e-03, -8.742412207240749e-05, 4.846272634588523e+01, -1.098666425401743e+02, 9.162629342710102e+01, 2.421770006433617e+02
334, 1.000000000002468e-04, 8.699999999999274e-03, 1.084246133081998e-03, -9.613739621507723e-05, 4.212890961462078e+01, -2.436703903048047e+02, 5.355286803928715e+01, 3.052095649473766e+02
335, 1.500000000001407e-04, 8.699999999998657e-03, 1.083485279524377e-03, -1.048519317298584e-04, 3.182792369392665e+01, -3.727827921906187e+02, 6.789815148466772e+00, 4.048385329580248e+02
336, 2.000000000000568e-04, 8.699999999998044e-03, 1.082726177994889e-03, -1.135681850460898e-04, 1.723818538908415e+01, -4.965280242501868e+02, -4.847466233681480e+01, 5.228335200824218e+02
337, -1.999999999999175e-04, 8.600000000003331e-03, 1.071416966849851e-03, -4.235242323760535e-05, 3.522937133871828e+01, 6.833642856824887e+02, 1.624151554098889e+02, 7.249783431376968e+02
338, -1.499999999998235e-04, 8.600000000002632e-03, 1.070643495432382e-03, -5.106103219131638e-05, 4.411757983769390e+01, 5.160650400322331e+02, 1.693734179917585e+02, 5.809335797429169e+02
339, -9.999999999969208e-05, 8.600000000001931e-03, 1.069872568578052e-03, -5.976852634572258e-05, 5.042681821781166e+01, 3.502860326097987e+02, 1.660861555991737e+02, 4.474974779623137e+02
340, -4.999999999959999e-05, 8.600000000001230e-03, 1.069104138114186e-03, -6.847540992094785e-05, 5.382911680616036e+01, 1.867132568920707e+02, 1.527225905182508e+02, 3.330990142657182e+02
341, 4.615584173542353e-16, 8.600000000000526e-03, 1.068338139720837e-03, -7.718218476904801e-05, 5.399665108399144e+01, 2.603185418452666e+01, 1.294563658033087e+02, 2.604185716373328e+02
342, 5.000000000033329e-05, 8.599999999999825e-03, 1.067574492943023e-03, -8.588935018895261e-05, 5.060237591776082e+01, -1.310733452824992e+02, 9.646518830816063e+01, 2.650060336953674e+02
343, 1.000000000002392e-04, 8.599999999999124e-03, 1.066813101199534e-03, -9.459740277121616e-05, 4.331982838452375e+01, -2.839179728655877e+02, 5.393052764091436e+01, 3.445556352949653e+02
344, 1.500000000001364e-04, 8.599999999998423e-03, 1.066053851792992e-03, -1.033068362482843e-04, 3.182311709039716e+01, -4.318181149743446e+02, 2.037534411711601e+00, 4.636591401627141e+02
345, 2.000000000000548e-04, 8.599999999997722e-03, 1.065296615917835e-03, -1.120181413514099e-04, 1.578598012297762e+01, -5.740909375059921e+02, -5.902499489537430e+01, 6.015734186623027e+02
346, -1.999999999999195e-04, 8.500000000003703e-03, 1.053990021228312e-03, -4.084906562873861e-05, 3.869219483066169e+01, 7.663698199331639e+02, 1.804604080206715e+02, 8.122675430711033e+02
347, -1.499999999998278e-04, 8.500000000002915e-03, 1.053216513667817e-03, -4.955165140307426e-05, 4.777790348914500e+01, 5.774835524528951e+02, 1.861014276135284e+02, 6.473971269501287e+02
348, -9.999999999969967e-05, 8.500000000002127e-03, 1.052445867614553e-03, -5.825307276989314e-05, 5.405670899561353e+01, 3.903351334910371e+02, 1.808165886034589e+02, 4.938235855423415e+02
349, -4.999999999961013e-05, 8.500000000001340e-03, 1.051678029409374e-03, -6.695386859571164e-05, 5.719374802373517e+01, 2.056167939470531e+02, 1.647761935761504e+02, 3.614335020981526e+02
350, 4.487512791917503e-16, 8.500000000000552e-03, 1.050912929065138e-03, -7.565457535586001e-05, 5.685748199531274e+01, 2.402139344760267e+01, 1.381549410408873e+02, 2.782541278169244e+02
351, 5.000000000032310e-05, 8.499999999999765e-03, 1.050150480285569e-03, -8.435572697985991e-05, 5.271713298134782e+01, -1.537589258604192e+02, 1.011313202698739e+02, 2.890372616686992e+02
352, 1.000000000002316e-04, 8.499999999998977e-03, 1.049390580481168e-03, -9.305785469320746e-05, 4.444265042479739e+01, -3.270324955703494e+02, 5.388755758163605e+01, 3.867935619171706e+02
353, 1.500000000001320e-04, 8.499999999998190e-03, 1.048633110780337e-03, -1.017614868698743e-04, 3.170465000290272e+01, -4.951079874569748e+02, -3.390487442052681e+00, 5.268562769938413e+02
354, 2.000000000000531e-04, 8.499999999997402e-03, 1.047877936039139e-03, -1.104671488902241e-04, 1.417483983796100e+01, -6.572938777538961e+02, -7.051360495063764e+01, 6.861187307142924e+02
355, -1.999999999999213e-04, 8.400000000004074e-03, 1.036574377092223e-03, -3.935087175600738e-05, 4.237857340240019e+01, 8.549606400249456e+02, 1.994612147919030e+02, 9.052230221451582e+02
356, -1.499999999998322e-04, 8.400000000003200e-03, 1.035800896869386e-03, -4.804666717772652e-05, 5.161388500178289e+01, 6.430668511995927e+02, 2.035748303052464e+02, 7.180441890019214e+02
357, -9.999999999970726e-05, 8.400000000002326e-03, 1.035030615296860e-03, -5.674125078308132e-05, 5.781256131846441e+01, 4.331321579757731e+02, 1.960729693909860e+02, 5.428104981834811e+02
358, -4.999999999962035e-05, 8.400000000001451e-03, 1.034263473219966e-03, -6.543519646943558e-05, 6.063768845710675e+01, 2.258569749587892e+02, 1.771288550583387e+02, 3.908912096852996e+02
359, 4.359305885021092e-16, 8.400000000000581e-03, 1.033499394970831e-03, -7.412907572469931e-05, 5.975256576874703e+01, 2.194002039963345e+01, 1.469184312854379e+02, 2.962598359426856e+02
360, 5.000000000031294e-05, 8.399999999999703e-03, 1.032738288404697e-03, -8.282345746781213e-05, 5.482213604027788e+01, -1.779201788729606e+02, 1.056211576369848e+02, 3.143124256428311e+02
361, 1.000000000002240e-04, 8.399999999998832e-03, 1.031980044919402e-03, -9.151890791089840e-05, 4.551233482044535e+01, -3.730253013661050e+02, 5.341994277165119e+01, 4.319589263431549e+02
362, 1.500000000001277e-04, 8.399999999997958e-03, 1.031224539468684e-03, -1.002159904178326e-04, 3.148995655917465e+01, -5.626771062697453e+02, -9.498769562733871e+00, 5.944706931746674e+02
363, 2.000000000000511e-04, 8.399999999997083e-03, 1.030471630572763e-03, -1.089152653622322e-04, 1.242346371216875e+01, -7.461768214142080e+02, -8.294478082074457e+01, 7.765267150944811e+02
364, -1.999999999999233e-04, 8.300000000004210e-03, 1.019171558989116e-03, -3.785831125108444e-05, 4.620926859945033e+01, 9.491313286433831e+02, 2.194226542595157e+02, 1.003919046200013e+03
365, -1.499999999998365e-04, 8.300000000003279e-03, 1.018398176979427e-03, -4.654649942031985e-05, 5.557339830391517e+01, 7.128188881461019e+02, 2.217920718367209e+02, 7.929303414779868e+02
366, -9.999999999971485e-05, 8.300000000002344e-03, 1.017628351326810e-03, -5.523343063881765e-05, 6.166499622638860e+01, 4.786862141756399e+02, 2.118520972449886e+02, 5.945014219060181e+02
367, -4.999999999963053e-05, 8.300000000001409e-03, 1.016862017269970e-03, -6.391971422382762e-05, 6.414380479814551e+01, 2.474400184158969e+02, 1.897765539035030e+02, 4.214950338646485e+02
368, 4.231098978124681e-16, 8.300000000000474e-03, 1.016099093407457e-03, -7.260595700388399e-05, 6.267163173161172e+01, 1.978652981479954e+01, 1.557428346617966e+02, 3.144240037916669e+02
369, 5.000000000030276e-05, 8.299999999999542e-03, 1.015339481717481e-03, -8.129276322220449e-05, 5.691088825315398e+01, -2.035686185921175e+02, 1.099311981304080e+02, 3.408651445599915e+02
370, 1.000000000002164e-04, 8.299999999998609e-03, 1.014583067574079e-03, -8.998073440950127e-05, 4.652441327205009e+01, -4.219202830912720e+02, 5.252508858236533e+01, 4.800791323034842e+02
371, 1.500000000001233e-04, 8.299999999997672e-03, 1.013829719756822e-03, -9.867046925560832e-05, 3.117543351746007e+01, -6.345634653521079e+02, -1.628870589147044e+01, 6.665354973491960e+02
372, 2.000000000000492e-04, 8.299999999996739e-03, 1.013079290454557e-03, -1.073625634735175e-04, 1.052681203589016e+01, -8.407936804435966e+02, -9.631970506648292e+01, 8.728439283468110e+02
373, -1.999999999999252e-04, 8.200000000004194e-03, 1.001783190037827e-03, -3.637187258910023e-05, 5.027852044590725e+01, 1.049024625689715e+03, 2.403353378272593e+02, 1.108394370778671e+03
374, -1.499999999998408e-04, 8.200000000003217e-03, 1.001009985336259e-03, -4.505158638727682e-05, 5.971387345704939e+01, 7.868381714827069e+02, 2.407464061225726e+02, 8.720923534941949e+02
375, -9.999999999972244e-05, 8.200000000002240e-03, 1.000240715210469e-03, -5.373000057290608e-05, 6.564405294923796e+01, 5.270607767928312e+02, 2.281464152438787e+02, 6.489287635766227e+02
376, -4.999999999964069e-05, 8.200000000001265e-03, 9.994753092916224e-04, -6.240776011203455e-05, 6.772637042752288e+01, 2.704033607929771e+02, 2.027120188290681e+02, 4.532621898356670e+02
377, 4.102892071228270e-16, 8.200000000000287e-03, 9.987136804337556e-04, -7.108550748580537e-05, 6.561934068965206e+01, 1.757763010570244e+01, 1.646214041911185e+02, 3.327293687477172e+02
378, 5.000000000029257e-05, 8.199999999999309e-03, 9.979557247322653e-04, -7.976388256763275e-05, 5.898151752554980e+01, -2.307057449795595e+02, 1.140555575592412e+02, 3.687185795404153e+02
379, 1.000000000002088e-04, 8.199999999998328e-03, 9.972013215400087e-04, -8.844352251523967e-05, 4.747199652980673e+01, -4.737361312482070e+02, 5.119825957539526e+01, 5.311713090859299e+02
380, 1.500000000001190e-04, 8.199999999997352e-03, 9.964503334736268e-04, -9.712506166000569e-05, 3.074993856193992e+01, -7.108028233157467e+02, -2.376375851032338e+01, 7.430742651462051e+02
381, 2.000000000000473e-04, 8.199999999996377e-03, 9.957026064084378e-04, -1.058091313936940e-04, 8.474012130679476e+00, -9.411948017640439e+02, -1.106407036161100e+02, 9.751083618095388e+02
382, -1.999999999999271e-04, 8.100000000004175e-03, 9.844109972233566e-04, -3.489206368539541e-05, 5.448130579386921e+01, 1.154619047166460e+03, 2.622032870497905e+02, 1.218731022396346e+03
383, -1.499999999998452e-04, 8.100000000003150e-03, 9.836380561544012e-04, -4.356238533545820e-05, 6.396461027433129e+01, 8.651208589423052e+02, 2.604349219373602e+02, 9.555923445893734e+02
384, -9.999999999973005e-05, 8.100000000002133e-03, 9.828694487504163e-04, -5.223136722722337e-05, 6.970238764297738e+01, 5.782570968775849e+02, 2.449516178573339e+02, 7.061395560711760e+02
385, -4.999999999965090e-05, 8.100000000001112e-03, 9.821050989595312e-04, -6.089969028137323e-05, 7.135408186213316e+01, 2.947488160898772e+02, 2.159294787381771e+02, 4.862174065510694e+02
386, 3.974685164331859e-16, 8.100000000000092e-03, 9.813449138303381e-04, -6.956803289168937e-05, 6.857438505291432e+01, 1.531096972956801e+01, 1.735477224751890e+02, 3.511584248130865e+02
387, 5.000000000028236e-05, 8.099999999999071e-03, 9.805887835439534e-04, -7.823707082687932e-05, 6.101939703953279e+01, -2.593408555772829e+02, 1.179878167461705e+02, 3.978884153362870e+02
388, 1.000000000002012e-04, 8.099999999998051e-03, 9.798365814245866e-04, -8.690747714154845e-05, 4.834547679420503e+01, -5.284908345258998e+02, 4.943356707702680e+01, 5.852476742997110e+02
389, 1.500000000001146e-04, 8.099999999997031e-03, 9.790881639406548e-04, -9.557992208615301e-05, 3.020901143361970e+01, -7.914225588557740e+02, -3.192876407613801e+01, 8.241093502672650e+02
390, 2.000000000000454e-04, 8.099999999996011e-03, 9.783433706955342e-04, -1.042550730199366e-04, 6.266104135741735e+00, -1.047418768877486e+03, -1.259103760643910e+02, 1.083358436907937e+03
391, -1.999999999999291e-04, 8.000000000004158e-03, 9.670568077706199e-04, -3.341941165025348e-05, 5.882091784128630e+01, 1.265952250750159e+03, 2.850361156953730e+02, 1.334971312011302e+03
392, -1.499999999998495e-04, 8.000000000003093e-03, 9.662842246267416e-04, -4.207937208074581e-05, 6.831907027699901e+01, 9.476898284647840e+02, 2.808636470708353e+02, 1.043470403672037e+03
393, -9.999999999973761e-05, 8.000000000002028e-03, 9.655163952254404e-04, -5.073795536418449e-05, 7.383805940426949e+01, 6.322985544369567e+02, 2.622676860040856e+02, 7.661693552994042e+02
394, -4.999999999966106e-05, 8.000000000000966e-03, 9.647532377245348e-04, -5.939587858822521e-05, 7.502462300674348e+01, 3.204931838415911e+02, 2.294256432231370e+02, 5.203838174191545e+02
395, 3.846478257435448e-16, 7.999999999999901e-03, 9.639946533295098e-04, -6.805385625747999e-05, 7.153455065149394e+01, 1.299499460002212e+01, 1.825170133342459e+02, 3.696981474777993e+02
396, 5.000000000027218e-05, 7.999999999998840e-03, 9.632405262972676e-04, -7.671260024715594e-05, 6.302299243399389e+01, -2.894751350651417e+02, 1.217229861149949e+02, 4.283933604590550e+02
397, 1.000000000001936e-04, 7.999999999997775e-03, 9.624907239377813e-04, -8.537281973171816e-05, 4.914481565782214e+01, -5.861959782193819e+02, 4.722678783317931e+01, 6.423234405816718e+02
398, 1.500000000001103e-04, 7.999999999996709e-03, 9.617450966067412e-04, -9.403522111246374e-05, 2.955451121654119e+01, -8.764456566268818e+02, -4.078617410788286e+01, 9.096649669662698e+02
399, 2.000000000000435e-04, 7.999999999995648e-03, 9.610034776937021e-04, -1.027005079415650e-04, 3.906378711412358e+00, -1.159501178871118e+03, -1.421282897638887e+02, 1.197630555741202e+03
400, -1.999999999999309e-04, 7.900000000004136e-03, 9.497225498297297e-04, -3.195446052464632e-05, 6.345732883084781e+01, 1.383203568983134e+03, 3.088025489713158e+02, 1.457108848165031e+03
401, -1.499999999998538e-04, 7.900000000003030e-03, 9.489504278260653e-04, -4.060303963162957e-05, 7.289710966936194e+01, 1.034686692341791e+03, 3.020079958250365e+02, 1.135726428109440e+03
402, -9.999999999974523e-05, 7.900000000001926e-03, 9.481835002667967e-04, -4.925020702648080e-05, 7.811867226495410e+01, 6.892759010663565e+02, 2.800758586825742e+02, 8.290253945346516e+02
403, -4.999999999967128e-05, 7.900000000000816e-03, 9.474216796343027e-04, -5.789671608910789e-05, 7.877635409955604e+01, 3.476938842712024e+02, 2.431864710871207e+02, 5.557654873351224e+02
404, 3.718271350539037e-16, 7.899999999999709e-03, 9.466648613661399e-04, -6.654331762702596e-05, 7.452094334795665e+01, 1.066244226423751e+01, 1.915189399445095e+02, 3.883245106744279e+02
405, 5.000000000026201e-05, 7.899999999998603e-03, 9.459129238649462e-04, -7.519075981611324e-05, 6.500408287489168e+01, -3.210949741499776e+02, 1.252539486675638e+02, 4.602463345457082e+02
406, 1.000000000001860e-04, 7.899999999997496e-03, 9.451657284924484e-04, -8.383978815416167e-05, 4.987740567863122e+01, -6.468537414236689e+02, 4.457391653685451e+01, 7.024112951001179e+02
407, 1.500000000001060e-04, 7.899999999996389e-03, 9.444231195601806e-04, -9.249114540053256e-05, 2.879219108491343e+01, -9.658882474492357e+02, -5.033676537767714e+01, 9.997621390096929e+02
408, 2.000000000000416e-04, 7.899999999995286e-03, 9.436849243153698e-04, -1.011455715102573e-04, 1.399588417729738e+00, -1.277471551808455e+03, -1.592914998354382e+02, 1.317955432092723e+03
409, -1.999999999999328e-04, 7.800000000004094e-03, 9.324102617580108e-04, -3.049777412965443e-05, 6.813531446084524e+01, 1.506226642135309e+03, 3.335082206993930e+02, 1.585250011773790e+03
410, -1.499999999998583e-04, 7.800000000002947e-03, 9.316387104282584e-04, -3.913390009825891e-05, 7.751252474324151e+01, 1.126015029881987e+03, 3.238636603269432e+02, 1.232439931681738e+03
411, -9.999999999975283e-05, 7.800000000001799e-03, 9.308728155002201e-04, -4.776858270291889e-05, 8.242654996049987e+01, 7.491369405212795e+02, 2.983719072636555e+02, 8.947658492914854e+02
412, -4.999999999968147e-05, 7.800000000000654e-03, 9.301124836898658e-04, -5.640261175813220e-05, 8.253295966392811e+01, 3.763204588689115e+02, 2.572082445547330e+02, 5.923980240993614e+02
413, 3.590064443642627e-16, 7.799999999999507e-03, 9.293576046493590e-04, -6.503677448926373e-05, 7.748387414971404e+01, 8.292249292376582e+00, 2.005510484209902e+02, 4.070262559607572e+02
414, 5.000000000025183e-05, 7.799999999998360e-03, 9.286080509339795e-04, -7.367185553396559e-05, 6.693033166042935e+01, -3.542196322806725e+02, 1.285799514455290e+02, 4.934556796537353e+02
415, 1.000000000001784e-04, 7.799999999997211e-03, 9.278636779828038e-04, -8.230863688864463e-05, 5.052260170240456e+01, -7.104860524080419e+02, 4.147637480916978e+01, 7.655163814708582e+02
416, 1.500000000001016e-04, 7.799999999996065e-03, 9.271243241032323e-04, -9.094789785119340e-05, 2.791036643010388e+01, -1.059776789106357e+03, -6.057640362738253e+01, 1.094413701954022e+03
417, 2.000000000000397e-04, 7.799999999994919e-03, 9.263898104563552e-04, -9.959041496562467e-05, -1.258453841874775e+00, -1.401361537387166e+03, -1.773931748347675e+02, 1.444355218935033e+03
418, -1.999999999999347e-04, 7.700000000003952e-03, 9.151220808538730e-04, -2.904993468911636e-05, 7.297205617952770e+01, 1.635155171610860e+03, 3.591535550544049e+02, 1.719413036641171e+03
419, -1.499999999998626e-04, 7.700000000002785e-03, 9.143512179892271e-04, -3.767248366728466e-05, 8.222870785407621e+01, 1.221759955724945e+03, 3.464386023736396e+02, 1.333645487276338e+03
420, -9.999999999976044e-05, 7.700000000001617e-03, 9.135864945088176e-04, -4.629356073517987e-05, 8.679052621571843e+01, 8.119348758061974e+02, 3.171607643324415e+02, 9.634303967961323e+02
421, -4.999999999969162e-05, 7.700000000000449e-03, 9.128278114732539e-04, -5.491399209285451e-05, 8.630555356709867e+01, 4.064038711238950e+02, 2.714950526534296e+02, 6.303183222498342e+02
422, 3.461857536746216e-16, 7.699999999999279e-03, 9.120750528144126e-04, -6.353460150808681e-05, 8.042526464875452e+01, 5.898496666731106e+00, 2.096172082306053e+02, 4.258071571632141e+02
423, 5.000000000024164e-05, 7.699999999998113e-03, 9.113280852914775e-04, -7.215621022712827e-05, 6.879873845353342e+01, -3.888492737810313e+02, 1.317052272336178e+02, 5.280405009323470e+02
424, 1.000000000001708e-04, 7.699999999996944e-03, 9.105867584648520e-04, -8.077963690993958e-05, 5.107399791745065e+01, -7.771063458534109e+02, 3.793916816284558e+01, 8.316490868942124e+02
425, 1.500000000000973e-04, 7.699999999995776e-03, 9.098509046784020e-04, -8.940569756237721e-05, 2.689844860559646e+01, -1.158138494943769e+03, -7.149884328127479e+01, 1.193633484759482e+03
426, 2.000000000000377e-04, 7.699999999994609e-03, 9.091203390479039e-04, -9.803520547045474e-05, -4.080344748749226e+00, -1.531209813045899e+03, -1.964250507231462e+02, 1.576849902542375e+03
427, -1.999999999999367e-04, 7.600000000003967e-03, 8.978602489385389e-04, -2.761154112382293e-05, 7.795330903215824e+01, 1.770011850228990e+03, 3.857273916935334e+02, 1.859624851858013e+03
428, -1.499999999998669e-04, 7.600000000002791e-03, 8.970902001078660e-04, -3.621933772051507e-05, 8.704708862593384e+01, 1.321956647007102e+03, 3.697234633032041e+02, 1.439369089097314e+03
429, -9.999999999976803e-05, 7.600000000001615e-03, 8.963267947186478e-04, -4.482563658775136e-05, 9.120851428238564e+01, 8.776928554882363e+02, 3.364401454363112e+02, 1.035048551907989e+03
430, -4.999999999970180e-05, 7.600000000000435e-03, 8.955699283260723e-04, -5.343130054123643e-05, 9.009315454168190e+01, 4.379593234285000e+02, 2.860481183295057e+02, 6.695558045864406e+02
431, 3.333650629849805e-16, 7.599999999999259e-03, 8.948194792344031e-04, -6.203719005149467e-05, 8.334708361359989e+01, 3.489354716746746e+00, 2.187211479711428e+02, 4.446718106017307e+02
432, 5.000000000023146e-05, 7.599999999998081e-03, 8.940753084778577e-04, -7.064416314786820e-05, 7.061609947526890e+01, -4.249817340625669e+02, 1.346354929367128e+02, 5.640248899123540e+02
433, 1.000000000001632e-04, 7.599999999996904e-03, 8.933372598013495e-04, -7.925307533105226e-05, 5.154534997845853e+01, -8.467172014130094e+02, 3.396974840183670e+01, 9.008281669987047e+02
434, 1.500000000000929e-04, 7.599999999995727e-03, 8.926051596453693e-04, -8.786477949316087e-05, 2.577970421597183e+01, -1.260978777039936e+03, -8.309521289658018e+01, 1.297446201855523e+03
435, 2.000000000000358e-04, 7.599999999994550e-03, 8.918788171360981e-04, -9.648012583953298e-05, -7.034873045690802e+00, -1.667026109934454e+03, -2.163759577424348e+02, 1.715472275177687e+03
436, -1.999999999999386e-04, 7.500000000004145e-03, 8.806271129005601e-04, -2.618321047971834e-05, 8.298460656470269e+01, 1.910748861314343e+03, 4.132322248730660e+02, 2.005932615427219e+03
437, -1.499999999998712e-04, 7.500000000002950e-03, 8.798580108445898e-04, -3.477502706793120e-05, 9.188924590245831e+01, 1.426558632338334e+03, 3.937242385653765e+02, 1.549650759114665e+03
438, -9.999999999977570e-05, 7.500000000001755e-03, 8.790960777262972e-04, -4.336532278117203e-05, 9.563739732883408e+01, 9.463878763437748e+02, 3.562154854927101e+02, 1.109655021149988e+03
439, -4.999999999971198e-05, 7.500000000000564e-03, 8.783412035963031e-04, -5.195499726639141e-05, 9.387083710206321e+01, 4.709727957893672e+02, 3.008735390321497e+02, 7.101446565346550e+02
440, 3.205443722953394e-16, 7.499999999999370e-03, 8.775932611627420e-04, -6.054494789195347e-05, 8.623505095398988e+01, 1.052958811655117e+00, 2.278703432448889e+02, 4.636330037259203e+02
441, 5.000000000022125e-05, 7.499999999998177e-03, 8.768521057779217e-04, -6.913606964478343e-05, 7.237439218449582e+01, -4.626313134014977e+02, 1.373803636965903e+02, 6.014354182513667e+02
442, 1.000000000001556e-04, 7.499999999996980e-03, 8.761175754236343e-04, -7.772925504155411e-05, 5.193240631320873e+01, -9.193383918445408e+02, 2.958046006744806e+01, 9.730709007185444e+02
443, 1.500000000000885e-04, 7.499999999995787e-03, 8.753894906931752e-04, -8.632539404520284e-05, 2.455178705985050e+01, -1.368325330796353e+03, -9.535003147919151e+01, 1.405870968282558e+03
444, 2.000000000000339e-04, 7.499999999994593e-03, 8.746676547737701e-04, -9.492537397348997e-05, -1.012630711278841e+01, -1.808848512700498e+03, -2.372289877916425e+02, 1.860245129940918e+03
445, -1.999999999999404e-04, 7.400000000004559e-03, 8.634251201601923e-04, -2.476557544035338e-05, 8.824600282089102e+01, 2.057539091842079e+03, 4.416393014607548e+02, 2.158308680621376e+03
446, -1.499999999998756e-04, 7.400000000003323e-03, 8.626571064505770e-04, -3.334013233783224e-05, 9.689205627733050e+01, 1.535694465690457e+03, 4.184232207675835e+02, 1.664471189310013e+03
447, -9.999999999978329e-05, 7.400000000002085e-03, 8.618968082767565e-04, -4.191314772432378e-05, 1.001611199499700e+02, 1.018099991428896e+03, 3.764750969846534e+02, 1.187242926435201e+03
448, -4.999999999972218e-05, 7.400000000000849e-03, 8.611441103232564e-04, -5.048555833912360e-05, 9.768967611489057e+01, 5.054926965414237e+02, 3.159648971442963e+02, 7.520894683338056e+02
449, 3.077507866600104e-16, 7.399999999999613e-03, 8.603988798155205e-04, -5.905829866212606e-05, 8.911817500461012e+01, -1.385697445666892e+00, 2.370631540979003e+02, 4.826869659022040e+02
450, 5.000000000021107e-05, 7.399999999998373e-03, 8.596609665279271e-04, -6.763230082837510e-05, 7.408741736935943e+01, -5.017915862798063e+02, 1.399425920804052e+02, 6.402908270127618e+02
451, 1.000000000001480e-04, 7.399999999997137e-03, 8.589302027723401e-04, -7.620849455566851e-05, 5.223759702461362e+01, -9.949797354100552e+02, 2.477814240995264e+01, 1.048389224819072e+03
452, 1.500000000000842e-04, 7.399999999995899e-03, 8.582064033788282e-04, -8.478780707041689e-05, 2.320775642287815e+01, -1.480203393904762e+03, -1.082529424537976e+02, 1.518920631609532e+03
453, 2.000000000000320e-04, 7.399999999994663e-03, 8.574893656671266e-04, -9.337116303371992e-05, -1.336490866821229e+01, -1.956714405316713e+03, -2.589709357267487e+02, 2.011186477761009e+03
454, -1.999999999999424e-04, 7.300000000004963e-03, 8.462568288411920e-04, -2.335928574934902e-05, 9.361334960941394e+01, 2.210331961740971e+03, 4.709257738830960e+02, 2.316804269025270e+03
455, -1.499999999998800e-04, 7.300000000003675e-03, 8.454900520058151e-04, -3.191525076401276e-05, 1.019806816996466e+02, 1.649343312883675e+03, 4.437949215958722e+02, 1.783857293093230e+03
456, -9.999999999979085e-05, 7.300000000002383e-03, 8.447315587431069e-04, -4.046965613590498e-05, 1.047364545311597e+02, 1.092822511787370e+03, 3.972000796143390e+02, 1.267827144971535e+03
457, -4.999999999973237e-05, 7.300000000001096e-03, 8.439812283756752e-04, -4.902347592673857e-05, 1.015239461222961e+02, 5.415167766263626e+02, 3.313093957529584e+02, 7.953976073334279e+02
458, 2.949029909160572e-16, 7.299999999999806e-03, 8.432389227063358e-04, -5.757768191250792e-05, 9.198169514616788e+01, -3.828913573014830e+00, 2.462923754346505e+02, 5.018161112719595e+02
459, 5.000000000020089e-05, 7.299999999998517e-03, 8.425044860095608e-04, -6.613324355881378e-05, 7.574789032053255e+01, -5.424675526877470e+02, 1.423199892258208e+02, 6.805955122588412e+02
460, 1.000000000001404e-04, 7.299999999997227e-03, 8.417777450158300e-04, -7.469112796701510e-05, 5.245995771181116e+01, -1.073650167644344e+03, 1.956507790983103e+01, 1.126789769000468e+03
461, 1.500000000000799e-04, 7.299999999995936e-03, 8.410585088880938e-04, -8.325229981641018e-05, 2.175437172449135e+01, -1.596625620650245e+03, -1.217975014440952e+02, 1.636610010097381e+03
462, 2.000000000000302e-04, 7.299999999994650e-03, 8.403465691920595e-04, -9.181772130754370e-05, -1.673363432705365e+01, -2.110640478884188e+03, -2.815909093386494e+02, 2.168321847552131e+03
463, -1.999999999999443e-04, 7.200000000005343e-03, 8.291249037622234e-04, -2.196500892216663e-05, 9.906845163182027e+01, 2.369155410919189e+03, 5.010847916563316e+02, 2.481458981414694e+03
464, -1.499999999998843e-04, 7.200000000003976e-03, 8.283595194154323e-04, -3.050099662570389e-05, 1.071224113515607e+02, 1.767514252772277e+03, 4.698319749990709e+02, 1.907844177594855e+03
465, -9.999999999979844e-05, 7.200000000002606e-03, 8.276030082334540e-04, -3.903540931165104e-05, 1.093385390074514e+02, 1.170563892157513e+03, 4.183819760494180e+02, 1.351433742993172e+03
466, -4.999999999974257e-05, 7.200000000001237e-03, 8.268552441997498e-04, -4.756925839711363e-05, 1.053558679930820e+02, 5.790508382881870e+02, 3.469004406579044e+02, 8.400872501100546e+02
467, 2.821094052807283e-16, 7.199999999999870e-03, 8.261160837456843e-04, -5.610355308022601e-05, 9.481336727939140e+01, -6.275397237383260e+00, 2.555545333642606e+02, 5.210099964526861e+02
468, 5.000000000019069e-05, 7.199999999998501e-03, 8.253853657209576e-04, -6.463930030031886e-05, 7.734799056002547e+01, -5.846639408089737e+02, 1.445128971324098e+02, 7.223542808243905e+02
469, 1.000000000001328e-04, 7.199999999997132e-03, 8.246629113660656e-04, -7.317750469817725e-05, 5.259523703490049e+01, -1.155361915524322e+03, 1.394583079666734e+01, 1.208279118087134e+03
470, 1.500000000000756e-04, 7.199999999995762e-03, 8.239485242816267e-04, -8.171916856953533e-05, 2.018914580658212e+01, -1.717614298304874e+03, -1.359745149470199e+02, 1.758953406212327e+03
471, 2.000000000000282e-04, 7.199999999994395e-03, 8.232419903949174e-04, -9.026529181325157e-05, -2.023684378449119e+01, -2.270663056608376e+03, -3.050740395550095e+02, 2.331672965449165e+03
472, -1.999999999999461e-04, 7.100000000005715e-03, 8.120321154861574e-04, -2.058342815143100e-05, 1.046846867506562e+02, 2.534105176443340e+03, 5.320898437240952e+02, 2.652274933508208e+03
473, -1.499999999998886e-04, 7.100000000004259e-03, 8.112682868750383e-04, -2.909800013228571e-05, 1.123664616182472e+02, 1.890281351912131e+03, 4.965151650758212e+02, 2.036440667863857e+03
474, -9.999999999980600e-05, 7.100000000002804e-03, 8.105139424020056e-04, -3.761098439425708e-05, 1.139919354939382e+02, 1.251372297966019e+03, 4.400072145316116e+02, 1.438074923046985e+03
475, -4.999999999975274e-05, 7.100000000001348e-03, 8.097689508590502e-04, -4.612342980503153e-05, 1.091982022057645e+02, 6.181260334950389e+02, 3.627294096221837e+02, 8.861704327499511e+02
476, 2.692616095367750e-16, 7.099999999999895e-03, 8.090331634300746e-04, -5.463638308395939e-05, 9.762121706351058e+01, -8.706523849105480e+00, 2.648460895134520e+02, 5.402586352941063e+02
477, 5.000000000018050e-05, 7.099999999998441e-03, 8.083064136621671e-04, -6.315088876734923e-05, 7.889583529745585e+01, -6.283716257085105e+02, 1.465230579336242e+02, 7.655738288517358e+02
478, 1.000000000001252e-04, 7.099999999996985e-03, 8.075885174320767e-04, -7.166798917138529e-05, 5.265539230517558e+01, -1.240113095623194e+03, 7.927723639726914e+00, 1.292865715605853e+03
479, 1.500000000000712e-04, 7.099999999995530e-03, 8.068792729126441e-04, -8.018872435077614e-05, 1.853176834868410e+01, -1.843172216566662e+03, -1.507707780274670e+02, 1.885966340494366e+03
480, 2.000000000000263e-04, 7.099999999994075e-03, 8.061784605369291e-04, -8.871413205658075e-05, -2.384518107710134e+01, -2.436788225918937e+03, -3.294012387261944e+02, 2.501262649532830e+03
481, -1.999999999999481e-04, 7.000000000006086e-03, 7.949813445880043e-04, -1.921524291780361e-05, 1.103544440155525e+02, 2.705134496284387e+03, 5.639216671950089e+02, 2.829295690906175e+03
482, -1.499999999998929e-04, 7.000000000004546e-03, 7.942192414765106e-04, -2.770690750259068e-05, 1.176409423083648e+02, 2.017621744213713e+03, 5.238284473602313e+02, 2.169680164601274e+03
483, -9.999999999981362e-05, 7.000000000003004e-03, 7.934672550730066e-04, -3.619697430970699e-05, 1.186493861086707e+02, 1.335238458137032e+03, 4.620647351277572e+02, 1.527777551862039e+03
484, -4.999999999976293e-05, 7.000000000001462e-03, 7.927252490603003e-04, -4.468652973798608e-05, 1.130173310488536e+02, 6.587364654429457e+02, 3.787901990001040e+02, 9.336688026693354e+02
485, 2.564544713742900e-16, 6.999999999999921e-03, 7.919930694774567e-04, -5.317665812061609e-05, 1.003800654232636e+02, -1.112979429324102e+01, 2.741659914070523e+02, 5.595555487981886e+02
486, 5.000000000017032e-05, 6.999999999998381e-03, 7.912705446749008e-04, -6.166844169883061e-05, 8.037062217725440e+01, -6.736035888867129e+02, 1.483547327457108e+02, 8.102552794408299e+02
487, 1.000000000001176e-04, 6.999999999996837e-03, 7.905574852771841e-04, -7.016296058192960e-05, 5.262029181555656e+01, -1.327925557329262e+03, 1.520669550482239e+00, 1.380549199172023e+03
488, 1.500000000000668e-04, 6.999999999995296e-03, 7.898536841450676e-04, -7.866129270866808e-05, 1.675863071523688e+01, -1.973333693479468e+03, -1.661702480992909e+02, 2.017651522000814e+03
489, 2.000000000000244e-04, 6.999999999993755e-03, 7.891589163367567e-04, -8.716451380720769e-05, -2.758706588438915e+01, -2.609063563771818e+03, -3.545505294392688e+02, 2.677096416053745e+03
490, -1.999999999999499e-04, 6.900000000006458e-03, 7.779755780147410e-04, -1.786116818748451e-05, 1.161208629533342e+02, 2.882314166864748e+03, 5.965604915660704e+02, 3.012534327604342e+03
491, -1.499999999998973e-04, 6.900000000004828e-03, 7.772153771707344e-04, -2.632838031563952e-05, 1.229648022186894e+02, 2.149581793730604e+03, 5.517578234409176e+02, 2.307579513949159e+03
492, -9.999999999982122e-05, 6.900000000003202e-03, 7.764659471390670e-04, -3.479398719881103e-05, 1.233175708696168e+02, 1.422192675482773e+03, 4.845451034853433e+02, 1.620559275876796e+03
493, -4.999999999977310e-05, 6.900000000001573e-03, 7.757271466532468e-04, -4.325911282476043e-05, 1.168156451876849e+02, 7.009021151773308e+02, 3.950781747718675e+02, 9.826006620948544e+02
494, 2.436337806846489e-16, 6.899999999999946e-03, 7.749988167411606e-04, -5.172487924207709e-05, 1.030914758044677e+02, -1.353351070260109e+01, 2.835144583604849e+02, 5.788982465645672e+02
495, 5.000000000016015e-05, 6.899999999998319e-03, 7.742807806898680e-04, -6.019240650106419e-05, 8.177579528278559e+01, -7.203549205829190e+02, 1.500130700388634e+02, 8.564049101127150e+02
496, 1.000000000001100e-04, 6.899999999996692e-03, 7.735728440057189e-04, -6.866281261673690e-05, 5.249757829137940e+01, -1.418799845741718e+03, -5.265256299728421e+00, 1.471335108553465e+03
497, 1.500000000000625e-04, 6.899999999995065e-03, 7.728747943739700e-04, -7.713721353010471e-05, 1.488404090834817e+01, -2.108103045781997e+03, -1.821580997108282e+02, 2.154019606088812e+03
498, 2.000000000000225e-04, 6.899999999993437e-03, 7.721864016179882e-04, -8.561672307214932e-05, -3.143841608597046e+01, -2.787495621583741e+03, -3.805012854752995e+02, 2.859191534852047e+03
499, -1.999999999999519e-04, 6.800000000006828e-03, 7.610179114814282e-04, -1.652193377006633e-05, 1.219401858726825e+02, 3.065637875351984e+03, 6.299835399872075e+02, 3.202010794745238e+03
500, -1.499999999999017e-04, 6.800000000005111e-03, 7.602597961908968e-04, -2.496309493365387e-05, 1.283075810512964e+02, 2.286161123036065e+03, 5.802866955983829e+02, 2.450155608325759e+03
501, -9.999999999982880e-05, 6.800000000003401e-03, 7.595131274651811e-04, -3.340264581916154e-05, 1.279782474971242e+02, 1.512239673842161e+03, 5.074378771422898e+02, 1.716435985727837e+03
502, -4.999999999978328e-05, 6.800000000001686e-03, 7.587777592047322e-04, -4.184174814958684e-05, 1.205822115749336e+02, 7.446280469776682e+02, 4.115886986733630e+02, 1.032983171298558e+03
503, 2.308130899950078e-16, 6.799999999999972e-03, 7.580535275628054e-04, -5.028156177720101e-05, 1.057502121911039e+02, -1.591483817016740e+01, 2.928929216833882e+02, 5.982870872485348e+02
504, 5.000000000014997e-05, 6.799999999998255e-03, 7.573402509064951e-04, -5.872324466034189e-05, 8.311143487853252e+01, -7.686264900654854e+02, 1.515057528559132e+02, 9.040317833913195e+02
505, 1.000000000001024e-04, 6.799999999996542e-03, 7.566377297728503e-04, -6.716795282622558e-05, 5.229309269914680e+01, -1.512741221030106e+03, -1.241594057416343e+01, 1.565231300949274e+03
506, 1.500000000000582e-04, 6.799999999994830e-03, 7.559457468242985e-04, -7.561684033295558e-05, 1.292053148968265e+01, -2.247490126940847e+03, -1.987135091706210e+02, 2.295082695602481e+03
507, 2.000000000000206e-04, 6.799999999993115e-03, 7.552640668064457e-04, -8.407105922677681e-05, -3.538292724157569e+01, -2.972101445769764e+03, -4.072262989572622e+02, 3.047564386738386e+03
508, -1.999999999999538e-04, 6.700000000007203e-03, 7.441115483101755e-04, -1.519828359295094e-05, 1.278423288631251e+02, 3.255160826946167e+03, 6.641587245292673e+02, 3.397726921623593e+03
509, -1.499999999999060e-04, 6.700000000005407e-03, 7.433557085981691e-04, -2.361174168194604e-05, 1.336945138653129e+02, 2.427405879040781e+03, 6.093922709403469e+02, 2.597411709040838e+03
510, -9.999999999983645e-05, 6.700000000003612e-03, 7.426120127506050e-04, -3.202358686625636e-05, 1.326449009579737e+02, 1.605411863390319e+03, 5.307276927094863e+02, 1.815414569972142e+03
511, -4.999999999979346e-05, 6.700000000001816e-03, 7.418803100068613e-04, -4.043501865466589e-05, 1.243227782708577e+02, 7.899344990318264e+02, 4.283143361046232e+02, 1.084827933298804e+03
512, 2.179923993053667e-16, 6.700000000000018e-03, 7.411604318228472e-04, -4.884723479708037e-05, 1.083575403562384e+02, -1.826415455600130e+01, 3.023016435945640e+02, 6.177201538741856e+02
513, 5.000000000013978e-05, 6.699999999998221e-03, 7.404521918188746e-04, -5.726143125882090e-05, 8.437619262948425e+01, -8.184186656029058e+02, 1.528405949430824e+02, 9.531419337648840e+02
514, 1.000000000000948e-04, 6.699999999996424e-03, 7.397553857298468e-04, -6.567880218811841e-05, 5.200351840927624e+01, -1.609760214630905e+03, -1.991610800615102e+01, 1.662241050473754e+03
515, 1.500000000000538e-04, 6.699999999994629e-03, 7.390697913570223e-04, -7.410053987671374e-05, 1.086202947074923e+01, -2.391516748570623e+03, -2.158138850811810e+02, 2.440845411974894e+03
516, 2.000000000000187e-04, 6.699999999992831e-03, 7.383951685196383e-04, -8.252783471656909e-05, -3.942816648943037e+01, -3.162913072706846e+03, -4.346961739773189e+02, 3.242221617047499e+03
517, -1.999999999999557e-04, 6.600000000007607e-03, 7.272598023629101e-04, -1.389097540622306e-05, 1.338060806307066e+02, 3.450910011498198e+03, 6.990527091839438e+02, 3.599705161405057e+03
518, -1.499999999999103e-04, 6.600000000005753e-03, 7.265064342445185e-04, -2.227502469790330e-05, 1.391051655031799e+02, 2.573339431971636e+03, 6.390465908351838e+02, 2.749366953515210e+03
519, -9.999999999984406e-05, 6.600000000003900e-03, 7.257659288829940e-04, -3.065746071533787e-05, 1.372994180028541e+02, 1.701725194518464e+03, 5.543967250943842e+02, 1.917511649353918e+03
520, -4.999999999980367e-05, 6.600000000002050e-03, 7.250381310562235e-04, -3.903952082409208e-05, 1.280233893278822e+02, 8.368316610944491e+02, 4.452463385323575e+02, 1.138150418016261e+03
521, 2.051717086157256e-16, 6.600000000000198e-03, 7.243228677084703e-04, -4.742244076264000e-05, 1.109038251452649e+02, -2.057683983887702e+01, 3.117403048823342e+02, 6.371932485652958e+02
522, 5.000000000012958e-05, 6.599999999998345e-03, 7.236199478907985e-04, -5.580745461267663e-05, 8.556488357985216e+01, -8.697323069774359e+02, 1.540251692777044e+02, 1.003736884532371e+03
523, 1.000000000000872e-04, 6.599999999996491e-03, 7.229291627088952e-04, -6.419579475985236e-05, 5.162845393800379e+01, -1.709863036397587e+03, -2.775071382645139e+01, 1.762365648495286e+03
524, 1.500000000000495e-04, 6.599999999994639e-03, 7.222502852725638e-04, -7.258869185351754e-05, 8.714284224596696e+00, -2.540193570722539e+03, -2.334371058236189e+02, 2.591312945692287e+03
525, 2.000000000000168e-04, 6.599999999992787e-03, 7.215830706452199e-04, -8.098737476795781e-05, -4.356015771772599e+01, -3.359944862443927e+03, -4.628817973182141e+02, 3.443173789238070e+03
526, -1.999999999999576e-04, 6.500000000008018e-03, 7.104660978766746e-04, -1.260078124107461e-05, 1.397430122355531e+02, 3.652853093719439e+03, 7.346449682681480e+02, 3.807985735560277e+03
527, -1.499999999999147e-04, 6.500000000006126e-03, 7.097154026646847e-04, -2.095366198439400e-05, 1.444651650713008e+02, 2.723933159108997e+03, 6.692367997608110e+02, 2.906056900489256e+03
528, -9.999999999985163e-05, 6.500000000004228e-03, 7.089783109223215e-04, -2.930493126542351e-05, 1.418920662719017e+02, 1.801164020526917e+03, 5.784370429289204e+02, 2.022755810449366e+03
529, -4.999999999981387e-05, 6.500000000002332e-03, 7.082546631165460e-04, -3.765586436536622e-05, 1.316513265303327e+02, 8.853100479991008e+02, 4.623825303493297e+02, 1.192976062599302e+03
530, 1.923510179260846e-16, 6.500000000000438e-03, 7.075442818282815e-04, -4.600773510446213e-05, 1.133682513226701e+02, -2.286078193815882e+01, 3.212130612514029e+02, 6.567112549493652e+02
531, 5.000000000011942e-05, 6.499999999998543e-03, 7.068469716957538e-04, -5.436181578152242e-05, 8.666521936811930e+01, -9.225770071640829e+02, 1.550703832644123e+02, 1.055820613020396e+03
532, 1.000000000000796e-04, 6.499999999996646e-03, 7.061625193593240e-04, -6.271937713055147e-05, 5.116203083338701e+01, -1.813063341163728e+03, -3.590188661474375e+01, 1.865607681011143e+03
533, 1.500000000000451e-04, 6.499999999994751e-03, 7.054906934061298e-04, -7.108168827949898e-05, 6.475995378927792e+00, -2.693540643080956e+03, -2.515581705375484e+02, 2.746491562087349e+03
534, 2.000000000000149e-04, 6.499999999992855e-03, 7.048312443157507e-04, -7.945001670611787e-05, -4.777759157147182e+01, -3.563225553495008e+03, -4.917509129666621e+02, 3.650431510740412e+03
535, -1.999999999999595e-04, 6.400000000008258e-03, 6.937339655877372e-04, -1.132848526455351e-05, 1.457290394619652e+02, 3.861074624865497e+03, 7.709026760610659e+02, 4.022555973856667e+03
536, -1.499999999999190e-04, 6.400000000006336e-03, 6.929861507737107e-04, -1.964838381264962e-05, 1.498311519566826e+02, 2.879251381344181e+03, 6.999415303525539e+02, 3.067475732950271e+03
537, -9.999999999985919e-05, 6.400000000004416e-03, 6.922527017986321e-04, -2.796667466797883e-05, 1.464572052505583e+02, 1.903771131307864e+03, 6.028353588683256e+02, 2.131148543467244e+03
538, -4.999999999982406e-05, 6.400000000002495e-03, 6.915334550366445e-04, -3.628467117578468e-05, 1.352279876259484e+02, 9.353973913140849e+02, 4.797173879985542e+02, 1.249314277510367e+03
539, 1.795438797635995e-16, 6.400000000000575e-03, 6.908282289122157e-04, -4.460368534095793e-05, 1.157655037636981e+02, -2.509972839346437e+01, 3.307223387895662e+02, 6.762781048714011e+02
540, 5.000000000010922e-05, 6.399999999998654e-03, 6.901368238545396e-04, -5.292502778234388e-05, 8.768980305045397e+01, -9.769455777778803e+02, 1.559867657616657e+02, 1.109403433599622e+03
541, 1.000000000000720e-04, 6.399999999996736e-03, 6.894590222409565e-04, -6.125000769253178e-05, 5.061831291107791e+01, -1.919361377260377e+03, -4.435088353904675e+01, 1.971975654811894e+03
542, 1.500000000000408e-04, 6.399999999994814e-03, 6.887945883385823e-04, -6.957993279702164e-05, 4.165772354159458e+00, -2.851564240601432e+03, -2.701501723832342e+02, 2.906392672962500e+03
543, 2.000000000000129e-04, 6.399999999992895e-03, 6.881432682448311e-04, -7.791610931309344e-05, -5.205573529349749e+01, -3.772767246910991e+03, -5.212683759849256e+02, 3.864010485478886e+03
544, -1.999999999999615e-04, 6.300000000008254e-03, 6.770670475277446e-04, -1.007488321591677e-05, 1.517430793103856e+02, 4.075590288216022e+03, 8.077809177867838e+02, 4.243420432080515e+03
545, -1.499999999999234e-04, 6.300000000006307e-03, 6.763223260285363e-04, -1.835993195033754e-05, 1.551975781500861e+02, 3.039316693848353e+03, 7.311248099302051e+02, 3.233622894574763e+03
546, -9.999999999986685e-05, 6.300000000004357e-03, 6.755927544128168e-04, -2.664337857375058e-05, 1.509927685635840e+02, 2.009565934209982e+03, 6.275676472577723e+02, 2.242690085499888e+03
547, -4.999999999983422e-05, 6.300000000002410e-03, 6.748781651607545e-04, -3.492657461987970e-05, 1.387516258879311e+02, 9.871067542691492e+02, 4.972382284514796e+02, 1.307168637622926e+03
548, 1.667096365468024e-16, 6.300000000000461e-03, 6.741783727622074e-04, -4.321087038633211e-05, 1.180941709522665e+02, -2.728767544819266e+01, 3.402661506494638e+02, 6.958879898187790e+02
549, 5.000000000009904e-05, 6.299999999998514e-03, 6.734931736577134e-04, -5.149761492112819e-05, 8.863774380132213e+01, -1.032839739286650e+03, 1.567825795819065e+02, 1.164489095747469e+03
550, 1.000000000000644e-04, 6.299999999996569e-03, 6.728223461791511e-04, -5.978815598907448e-05, 4.999694129068359e+01, -2.028767415562007e+03, -5.307947207526306e+01, 2.081473269764551e+03
551, 1.500000000000364e-04, 6.299999999994618e-03, 6.721656504883256e-04, -6.808384003510790e-05, 1.783561300465067e+00, -3.014284263200214e+03, -2.891850004578287e+02, 3.071022139279924e+03
552, 2.000000000000111e-04, 6.299999999992672e-03, 6.715228285140601e-04, -7.638601214450034e-05, -5.639397288661087e+01, -3.988599762517789e+03, -5.513969695787204e+02, 4.083919299429329e+03
553, -1.999999999999633e-04, 6.200000000008235e-03, 6.604690977949968e-04, -8.840782681319404e-06, 1.577576169109027e+02, 4.296424961726289e+03, 8.452385390162749e+02, 4.470601765131258e+03
554, -1.499999999999277e-04, 6.200000000006244e-03, 6.597276872529780e-04, -1.708905969469576e-05, 1.605335420809573e+02, 3.204143519960129e+03, 7.627538605088282e+02, 3.404516926721049e+03
555, -9.999999999987445e-05, 6.200000000004252e-03, 6.590022323900369e-04, -2.533574194516607e-05, 1.554747159174877e+02, 2.118559022903442e+03, 6.526111893052512e+02, 2.357393784237200e+03
556, -4.999999999984441e-05, 6.200000000002263e-03, 6.582925620077685e-04, -3.358221919137311e-05, 1.422052229985687e+02, 1.040445074954308e+03, 5.149327967641768e+02, 1.366549659681263e+03
557, 1.538618408028491e-16, 6.200000000000271e-03, 6.575984868758184e-04, -4.182988012000533e-05, 1.203431025891783e+02, -2.942218689270902e+01, 3.498425352779469e+02, 7.155339543951773e+02
558, 5.000000000008886e-05, 6.199999999998280e-03, 6.569197996643047e-04, -5.008011231422453e-05, 8.950296925332577e+01, -1.090262370243378e+03, 1.574659308561856e+02, 1.221076710857837e+03
559, 1.000000000000568e-04, 6.199999999996288e-03, 6.562562748802087e-04, -5.833430222394306e-05, 4.929646192195770e+01, -2.141290420259581e+03, -6.206971548511967e+01, 2.194101521513408e+03
560, 1.500000000000321e-04, 6.199999999994299e-03, 6.556076688024556e-04, -6.659383513331113e-05, -6.677749559060544e-01, -3.181716552092091e+03, -3.086351966547524e+02, 3.240384863095137e+03
561, 2.000000000000091e-04, 6.199999999992307e-03, 6.549737194143162e-04, -7.486009512801041e-05, -6.078366551713600e+01, -4.210745794811679e+03, -5.820993054502246e+02, 4.310167523449806e+03
562, -1.999999999999653e-04, 6.100000000008216e-03, 6.439439818407538e-04, -7.627002505840078e-06, 1.637264281375920e+02, 4.523580310222446e+03, 8.832406737149815e+02, 4.704123959245584e+03
563, -1.499999999999321e-04, 6.100000000006179e-03, 6.432061042160597e-04, -1.583653141550052e-05, 1.657996050311921e+02, 3.373733008701155e+03, 7.948033691394857e+02, 3.580179646995869e+03
564, -9.999999999988203e-05, 6.100000000004146e-03, 6.424850099209698e-04, -2.404447453963455e-05, 1.598745273613399e+02, 2.230753299395732e+03, 6.779489209903400e+02, 2.475277327159633e+03
565, -4.999999999985460e-05, 6.100000000002112e-03, 6.417805242892359e-04, -3.225225993777600e-05, 1.455699834981741e+02, 1.095415472676405e+03, 5.327927053344110e+02, 1.427472844134863e+03
566, 1.410275975860520e-16, 6.100000000000079e-03, 6.410924545787596e-04, -4.046131476283994e-05, 1.225018227195669e+02, -3.150176571191179e+01, 3.594524485412526e+02, 7.352151768693160e+02
567, 5.000000000007866e-05, 6.099999999998046e-03, 6.404205899081825e-04, -4.867306522318869e-05, 9.028272448708492e+01, -1.149214866460838e+03, 1.580475652555884e+02, 1.279167858218217e+03
568, 1.000000000000492e-04, 6.099999999996011e-03, 6.397647011892021e-04, -5.688893655396921e-05, 4.852214402376541e+01, -2.256935317201165e+03, -7.130080448278248e+01, 2.309863486095503e+03
569, 1.500000000000277e-04, 6.099999999993980e-03, 6.391245410563294e-04, -6.511035298938764e-05, -3.173655169474500e+00, -3.353869525622854e+03, -3.284696653449336e+02, 3.414488556208760e+03
570, 2.000000000000072e-04, 6.099999999991945e-03, 6.384998437954586e-04, -7.333873773252323e-05, -6.520163690524254e+01, -4.439218864488179e+03, -6.133339488815468e+02, 4.542767971027669e+03
571, -1.999999999999672e-04, 6.000000000008407e-03, 6.274956749909275e-04, -6.434371208811489e-06, 1.696761654349045e+02, 4.757106838668889e+03, 9.217431040657707e+02, 4.943982360536819e+03
572, -1.499999999999365e-04, 6.000000000006308e-03, 6.267615567831673e-04, -1.460312114997975e-05, 1.710164632614461e+02, 3.548126114406563e+03, 8.272414958102257e+02, 3.760609467283043e+03
573, -9.999999999988962e-05, 6.000000000004209e-03, 6.260450713197714e-04, -2.277029574683764e-05, 1.642036006342213e+02, 2.346178493743219e+03, 7.035594054586982e+02, 2.596343155708738e+03
574, -4.999999999986476e-05, 6.000000000002106e-03, 6.253460407081308e-04, -3.093736145734378e-05, 1.488511784063853e+02, 1.152037476108193e+03, 5.508070885705955e+02, 1.489945147706828e+03
575, 1.282204594235670e-16, 6.000000000000007e-03, 6.246642689438105e-04, -3.910578397577310e-05, 1.245725944234705e+02, -3.351613097591866e+01, 3.690958689279676e+02, 7.549298556403562e+02
576, 5.000000000006848e-05, 5.999999999997906e-03, 6.239995418470122e-04, -4.727702821431455e-05, 9.097834202735703e+01, -1.209695899928115e+03, 1.585385608684618e+02, 1.338764872864318e+03
577, 1.000000000000416e-04, 5.999999999995806e-03, 6.233516269893312e-04, -5.545255828331903e-05, 4.767549634258046e+01, -2.375710039299609e+03, -8.075034714401151e+01, 2.428760986308718e+03
578, 1.500000000000234e-04, 5.999999999993707e-03, 6.227202736178047e-04, -6.363383746775040e-05, -5.732429345596017e+00, -3.530761471316547e+03, -3.486545197966096e+02, 3.593336839684955e+03
579, 2.000000000000053e-04, 5.999999999991606e-03, 6.221052125774238e-04, -7.182232820034695e-05, -6.964571840894814e+01, -4.674047957410938e+03, -6.450556399091470e+02, 4.781726371598538e+03
580, -1.999999999999690e-04, 5.900000000008779e-03, 6.111282651300707e-04, -5.263726095724296e-06, 1.756025531823639e+02, 4.997038583984261e+03, 9.606910760973897e+02, 5.190178684196469e+03
581, -1.499999999999408e-04, 5.900000000006594e-03, 6.103981368002155e-04, -1.338961169753745e-05, 1.761841226100044e+02, 3.727355993720657e+03, 8.600248578499361e+02, 3.945806974833760e+03
582, -9.999999999989724e-05, 5.900000000004408e-03, 6.096865123461281e-04, -2.151393372143549e-05, 1.684602248019989e+02, 2.464860498870230e+03, 7.294131593297108e+02, 2.720593399748306e+03
583, -4.999999999987495e-05, 5.900000000002220e-03, 6.089932109136870e-04, -2.963819708258614e-05, 1.520462045128991e+02, 1.210329222043656e+03, 5.689600223966464e+02, 1.553970711930046e+03
584, 1.153862162067698e-16, 5.900000000000033e-03, 6.083180335183325e-04, -3.776390608196707e-05, 1.265536030991679e+02, -3.545464875583804e+01, 3.787699264119331e+02, 7.746698020999139e+02
585, 5.000000000005830e-05, 5.899999999997847e-03, 6.076607629634070e-04, -4.589256441495327e-05, 9.159036281066489e+01, -1.271702005586405e+03, 1.589486616007230e+02, 1.399865989953444e+03
586, 1.000000000000340e-04, 5.899999999995659e-03, 6.070211637591878e-04, -5.402567515768941e-05, 4.676073929752306e+01, -2.497618021293466e+03, -9.039631816222413e+01, 2.550793847941398e+03
587, 1.500000000000191e-04, 5.899999999993472e-03, 6.063989820421308e-04, -6.216474074660853e-05, -8.334706308580451e+00, -3.712402196898848e+03, -3.691557212827397e+02, 3.776932586249165e+03
588, 2.000000000000034e-04, 5.899999999991286e-03, 6.057939454937384e-04, -7.031126295598640e-05, -7.409905408318667e+01, -4.915248310772768e+03, -6.772183130607937e+02, 5.027049303490639e+03
589, -1.999999999999710e-04, 5.800000000009150e-03, 5.948459541123331e-04, -4.115913263375628e-06, 1.814530606864478e+02, 5.243382632764449e+03, 1.000033760374919e+03, 5.442738380653269e+03
590, -1.499999999999452e-04, 5.800000000006880e-03, 5.941200491359410e-04, -1.219679442118032e-05, 1.812554857462407e+02, 3.911428325325560e+03, 8.931140326060106e+02, 4.135794979696929e+03
591, -9.999999999990477e-05, 5.800000000004606e-03, 5.934135409604732e-04, -2.027612499537340e-05, 1.726086842431773e+02, 2.586805454893519e+03, 7.554836907577226e+02, 2.848046431402090e+03
592, -4.999999999988512e-05, 5.800000000002332e-03, 5.927262460548593e-04, -2.835544834271717e-05, 1.551294356238694e+02, 1.270295347164295e+03, 5.872381542209116e+02, 1.619564635744100e+03
593, 1.025655255171287e-16, 5.800000000000059e-03, 5.920579627370104e-04, -3.643630742459348e-05, 1.284278131039671e+02, -3.731581672979502e+01, 3.884741949913048e+02, 7.944304573259012e+02
594, 5.000000000004811e-05, 5.799999999997786e-03, 5.914084710753420e-04, -4.452024479663498e-05, 9.210925137302434e+01, -1.335236118460007e+03, 1.592901551085196e+02, 1.462466484690086e+03
595, 1.000000000000264e-04, 5.799999999995513e-03, 5.907775328007231e-04, -5.260880259124229e-05, 4.577517469020535e+01, -2.622667649405958e+03, -1.002138827216854e+02, 2.675959340989868e+03
596, 1.500000000000147e-04, 5.799999999993240e-03, 5.901648912214237e-04, -6.070352249608705e-05, -1.097680629015287e+01, -3.898806469961929e+03, -3.899359537629641e+02, 3.965276747703031e+03
597, 2.000000000000015e-04, 5.799999999990969e-03, 5.895702711396826e-04, -6.880594573056877e-05, -7.855274250318297e+01, -5.162842580797289e+03, -7.097721085499713e+02, 5.278741227232359e+03
598, -1.999999999999729e-04, 5.700000000009518e-03, 5.786530561521842e-04, -2.991786740369111e-06, 1.871895426597095e+02, 5.496151666055065e+03, 1.039726338610886e+03, 5.701684160355720e+03
599, -1.499999999999495e-04, 5.700000000007160e-03, 5.779316106214460e-04, -1.102546851670348e-05, 1.861934805098543e+02, 4.100351152119471e+03, 9.264776029183352e+02, 4.330597334439862e+03
600, -9.999999999991239e-05, 5.700000000004800e-03, 5.772304766712109e-04, -1.905761371396529e-05, 1.766190553853900e+02, 2.712019554668352e+03, 7.817512497396881e+02, 2.978723847160483e+03
601, -4.999999999989533e-05, 5.700000000002444e-03, 5.765494684025479e-04, -2.708980415876902e-05, 1.580790738389499e+02, 1.331940075705458e+03, 6.056333934110320e+02, 1.686747426427943e+03
602, 8.974483482748763e-17, 5.700000000000083e-03, 5.758883817225263e-04, -3.512362152893142e-05, 1.301810434396764e+02, -3.909850862284497e+01, 3.982125574589099e+02, 8.142165132311862e+02
603, 5.000000000003792e-05, 5.699999999997726e-03, 5.752469942497604e-04, -4.316064731437882e-05, 9.252799674929963e+01, -1.400301257176495e+03, 1.595791674411099e+02, 1.526565171914202e+03
604, 1.000000000000188e-04, 5.699999999995369e-03, 5.746250652233107e-04, -5.120246279053943e-05, 4.471875542346385e+01, -2.750866953377837e+03, -1.101744850799931e+02, 2.804256251469298e+03
605, 1.500000000000104e-04, 5.699999999993010e-03, 5.740223354135135e-04, -5.925064899338569e-05, -1.365191183614775e+01, -4.089988066614536e+03, -4.109541463548935e+02, 4.158371037843855e+03
606, 1.999999999999996e-04, 5.699999999990651e-03, 5.734385270342601e-04, -6.730678669311191e-05, -8.299313516809480e+01, -5.416850743757010e+03, -7.426634512353842e+02, 5.536807112037159e+03
607, -1.999999999999748e-04, 5.600000000009672e-03, 5.625539967566666e-04, -1.892206864830438e-06, 1.928068251245875e+02, 5.755371406770546e+03, 1.079719266709310e+03, 5.967017639038386e+03
608, -1.499999999999538e-04, 5.600000000007281e-03, 5.618372493221528e-04, -9.876439498594478e-06, 1.909953952584230e+02, 4.294147026685171e+03, 9.600811984959063e+02, 4.530218200186535e+03
609, -9.999999999991998e-05, 5.600000000004890e-03, 5.611417500847635e-04, -1.785915027935979e-05, 1.804881975278482e+02, 2.840520465933020e+03, 8.081943991517558e+02, 3.112633035909925e+03
610, -4.999999999990553e-05, 5.600000000002499e-03, 5.604673110927452e-04, -2.584195960916379e-05, 1.608921413961099e+02, 1.395275489926354e+03, 6.241369710639284e+02, 1.755531283037747e+03
611, 7.692414413784654e-17, 5.600000000000110e-03, 5.598137261517440e-04, -3.382648795719154e-05, 1.318118120893093e+02, -4.079653075630898e+01, 4.079890991125204e+02, 8.340348074262215e+02
612, 5.000000000002774e-05, 5.599999999997718e-03, 5.591807707386027e-04, -4.181435582411417e-05, 9.284776232309503e+01, -1.466897501519981e+03, 1.598328670850362e+02, 1.592165653970528e+03
613, 1.000000000000112e-04, 5.599999999995330e-03, 5.585682019091992e-04, -4.980718371423821e-05, 4.359621757267632e+01, -2.882222732385497e+03, -1.202477154890817e+02, 2.935686389970107e+03
614, 1.500000000000060e-04, 5.599999999992939e-03, 5.579757582049001e-04, -5.780659210947635e-05, -1.635095478381282e+01, -4.285960960120294e+03, -4.321666048993277e+02, 4.356218715265595e+03
615, 1.999999999999977e-04, 5.599999999990549e-03, 5.574031595589855e-04, -6.581420144167559e-05, -8.740624221452754e+01, -5.677294383336018e+03, -7.758355592770131e+02, 5.801252682861295e+03
616, -1.999999999999767e-04, 5.500000000009695e-03, 5.465533138178981e-04, -8.180388295973520e-07, 1.983259781281664e+02, 6.021090367276292e+03, 1.119949542424206e+03, 6.238728479573085e+03
617, -1.499999999999582e-04, 5.500000000007305e-03, 5.458415054204242e-04, -8.750517738279538e-06, 1.956794585200835e+02, 4.492856206994054e+03, 9.938776287589649e+02, 4.734648769593739e+03
618, -9.999999999992762e-05, 5.500000000004914e-03, 5.451519035937822e-04, -1.668148999151811e-05, 1.842277431150702e+02, 2.972337870543680e+03, 8.347821161701886e+02, 3.249769654695590e+03
619, -4.999999999991570e-05, 5.500000000002524e-03, 5.444843186666648e-04, -2.461261467525077e-05, 1.635758450223584e+02, 1.460321694258707e+03, 6.427336301624622e+02, 1.825917817120740e+03
620, 6.410345344820545e-17, 5.500000000000133e-03, 5.438385426859917e-04, -3.254555113755730e-05, 1.333254922884772e+02, -4.239841899279224e+01, 4.178039153789927e+02, 8.538848516164538e+02
621, 5.000000000001756e-05, 5.499999999997745e-03, 5.432143493279979e-04, -4.048195897504166e-05, 9.307430395178324e+01, -1.535021456935062e+03, 1.600663954233442e+02, 1.659271168432997e+03
622, 1.000000000000036e-04, 5.499999999995354e-03, 5.426114938033980e-04, -4.842349801260956e-05, 4.241547503012686e+01, -3.016739420584778e+03, -1.304036251749406e+02, 3.070252285594736e+03
623, 1.500000000000017e-04, 5.499999999992964e-03, 5.420297127599565e-04, -5.637182828058728e-05, -1.906235614240222e+01, -4.486737371982163e+03, -4.535288032941966e+02, 4.558823702319345e+03
624, 1.999999999999958e-04, 5.499999999990576e-03, 5.414687241834643e-04, -6.432860998975888e-05, -9.177519309722715e+01, -5.944193457491121e+03, -8.092295936244400e+02, 6.072084459409433e+03
625, -1.999999999999786e-04, 5.400000000009719e-03, 5.306556601844903e-04, 2.298477797813713e-07, 2.037117821041988e+02, 6.293323497265836e+03, 1.160350775102299e+03, 6.516826415254274e+03
626, -1.499999999999625e-04, 5.400000000007331e-03, 5.299490330874242e-04, -7.648517817250572e-06, 2.002183006121226e+02, 4.696493017988183e+03, 1.027815140867717e+03, 4.943895446841780e+03
627, -9.999999999993521e-05, 5.400000000004939e-03, 5.292655927335917e-04, -1.552539225353267e-05, 1.878182122625309e+02, 3.107484423500964e+03, 8.614793779205886e+02, 3.390138295022368e+03
628, -4.999999999992589e-05, 5.400000000002551e-03, 5.286051480639092e-04, -2.340247335348366e-05, 1.661170083005364e+02, 1.527088013536950e+03, 6.614051329854191e+02, 1.897911767404390e+03
629, 5.128276275856436e-17, 5.400000000000158e-03, 5.279674897124559e-04, -3.128145942028556e-05, 1.347143137047750e+02, -4.389944722295655e+01, 4.276552506737656e+02, 8.737613686288231e+02
630, 5.000000000000737e-05, 5.399999999997771e-03, 5.273523899051276e-04, -3.916404923257394e-05, 9.320495910742437e+01, -1.604673958560083e+03, 1.602941379701147e+02, 1.727880106295027e+03
631, 9.999999999999598e-05, 5.399999999995381e-03, 5.267596023586877e-04, -4.705194203064906e-05, 4.117906981003864e+01, -3.154424189953054e+03, -1.406119815846956e+02, 3.207953726485031e+03
632, 1.499999999999973e-04, 5.399999999992991e-03, 5.261888621785654e-04, -5.494683749807850e-05, -2.177796642350557e+01, -4.692331465176267e+03, -4.749948860911898e+02, 4.766188262329006e+03
633, 1.999999999999938e-04, 5.399999999990601e-03, 5.256398857553843e-04, -6.285043574100457e-05, -9.608559564814118e+01, -6.217569794535053e+03, -8.427842084106728e+02, 6.349307811486837e+03
634, -1.999999999999805e-04, 5.300000000009745e-03, 5.148658033166696e-04, 1.250579669357300e-06, 2.089302429879402e+02, 6.572089734602955e+03, 1.200859602225345e+03, 6.801327359623083e+03
635, -1.499999999999669e-04, 5.300000000007331e-03, 5.141646004289416e-04, -6.571257831573723e-06, 2.045792876595582e+02, 4.905071007857454e+03, 1.061845889978938e+03, 5.157973360527332e+03
636, -9.999999999994280e-05, 5.300000000004915e-03, 5.134875862958060e-04, -1.439161978714645e-05, 1.912338154254284e+02, 3.245971088812932e+03, 8.882538519693810e+02, 3.533751467148855e+03
637, -4.999999999993605e-05, 5.300000000002501e-03, 5.128345688218659e-04, -2.221224278350181e-05, 1.684969818235277e+02, 1.595582192961642e+03, 6.801351046431323e+02, 1.971524091184486e+03
638, 3.846207206892327e-17, 5.300000000000087e-03, 5.122053375808671e-04, -3.003486413837329e-05, 1.359663351606345e+02, -4.529611959559185e+01, 4.375428859610149e+02, 8.936616729638951e+02
639, 4.999999999999720e-05, 5.299999999997673e-03, 5.115996637057122e-04, -3.786122189024385e-05, 9.323417788948484e+01, -1.675856732863697e+03, 1.605320721342282e+02, 1.797989108766891e+03
640, 9.999999999998842e-05, 5.299999999995259e-03, 5.110172997801815e-04, -4.569305478598017e-05, 3.988774392092313e+01, -3.295284865229428e+03, -1.508406518722514e+02, 3.348789026178828e+03
641, 1.499999999999930e-04, 5.299999999992844e-03, 5.104579797308554e-04, -5.353210226487248e-05, -2.449074364527542e+01, -4.902758036597075e+03, -4.965166157264625e+02, 4.978313648240046e+03
642, 1.999999999999920e-04, 5.299999999990430e-03, 5.099214187190068e-04, -6.138010443994187e-05, -1.003239711227390e+02, -6.497445986033348e+03, -8.764350262665600e+02, 6.632927219163606e+03
643, -1.999999999999824e-04, 5.200000000009989e-03, 4.991886246785070e-04, 2.243281259215230e-06, 2.139641263871738e+02, 6.857416471971958e+03, 1.241410246287741e+03, 7.092239185645725e+03
644, -1.499999999999712e-04, 5.200000000007502e-03, 4.984930891296360e-04, -5.519558121472621e-06, 2.087467103718761e+02, 5.118613663817034e+03, 1.095921459981976e+03, 5.376892121507455e+03
645, -9.999999999995044e-05, 5.200000000005017e-03, 4.978227661705744e-04, -1.328093744162723e-05, 1.944601883551055e+02, 3.387815879963702e+03, 9.150735355326317e+02, 3.680619360224279e+03
646, -4.999999999994625e-05, 5.200000000002529e-03, 4.971774630507152e-04, -2.104263209380223e-05, 1.707043750380572e+02, 1.665816689227619e+03, 6.989079666722628e+02, 2.046765794015791e+03
647, 2.564138137928218e-17, 5.200000000000042e-03, 4.965569686605300e-04, -2.880641846580077e-05, 1.370743487313453e+02, -4.658175601560009e+01, 4.474678328714755e+02, 9.135860170939569e+02
648, 4.999999999998700e-05, 5.199999999997556e-03, 4.959610534175594e-04, -3.657407392852468e-05, 9.315986081998119e+01, -1.748569188875499e+03, 1.607979129478620e+02, 1.869596150971051e+03
649, 9.999999999998081e-05, 5.199999999995069e-03, 4.953894691519757e-04, -4.434737682271520e-05, 3.854528319449992e+01, -3.439327328722697e+03, -1.610551665163387e+02, 3.492757216207587e+03
650, 1.499999999999887e-04, 5.199999999992581e-03, 4.948419489928426e-04, -5.212810644322380e-05, -2.719031066168327e+01, -5.118029848022613e+03, -5.180427710125230e+02, 5.195201675156661e+03
651, 1.999999999999900e-04, 5.199999999990096e-03, 4.943182072548691e-04, -5.991804302090723e-05, -1.044730359712519e+02, -6.783842328637679e+03, -9.101140756168589e+02, 6.922947686524788e+03
652, -1.999999999999843e-04, 5.100000000010360e-03, 4.836291202220749e-04, 3.207076098536569e-06, 2.187998304604795e+02, 7.149333067166034e+03, 1.281931269370374e+03, 7.389565756026434e+03
653, -1.499999999999755e-04, 5.100000000007788e-03, 4.829394948141570e-04, -4.494239871428664e-06, 2.127094438138043e+02, 5.337147067602120e+03, 1.129988665869718e+03, 5.600656970398502e+03
654, -9.999999999995803e-05, 5.100000000005215e-03, 4.822761276294934e-04, -1.219411085816422e-05, 1.974870324911650e+02, 3.533039122596408e+03, 9.419034839080572e+02, 3.830748809018675e+03
655, -4.999999999995644e-05, 5.100000000002642e-03, 4.816388256663770e-04, -1.989435111503419e-05, 1.727306583107164e+02, 1.737805522561282e+03, 7.177067640714803e+02, 2.123645763182916e+03
656, 1.282069068964109e-17, 5.100000000000066e-03, 4.810273775352833e-04, -2.759677616254607e-05, 1.380329202146307e+02, -4.774876013108081e+01, 4.574309863015589e+02, 9.335348208113846e+02
657, 4.999999999997683e-05, 5.099999999997495e-03, 4.804415533389908e-04, -3.530320277879974e-05, 9.298074173647547e+01, -1.822810410545324e+03, 1.611103526038914e+02, 1.942699647919313e+03
658, 9.999999999997324e-05, 5.099999999994921e-03, 4.798811045541267e-04, -4.301544898547659e-05, 3.715546959184172e+01, -3.586557714649193e+03, -1.712190575570729e+02, 3.639857291752690e+03
659, 1.499999999999843e-04, 5.099999999992348e-03, 4.793457639127048e-04, -5.073533403265318e-05, -2.986709757769398e+01, -5.338160536146651e+03, -5.395191351927105e+02, 5.416853590315193e+03
660, 1.999999999999881e-04, 5.099999999989774e-03, 4.788352452835320e-04, -5.846467838111558e-05, -1.085167309294309e+02, -7.076780331573998e+03, -9.437495705553494e+02, 7.219373284140500e+03
661, -1.999999999999862e-04, 5.000000000010596e-03, 4.681924012013411e-04, 4.141088017782094e-06, 2.234149326926967e+02, 7.447865479710655e+03, 1.322347465187860e+03, 7.693315083958482e+03
662, -1.499999999999799e-04, 5.000000000007969e-03, 4.675089276711608e-04, -3.496123899572937e-06, 2.164469134982895e+02, 5.560692011398550e+03, 1.163991260833343e+03, 5.829275965985532e+03
663, -9.999999999996564e-05, 5.000000000005344e-03, 4.668527798042462e-04, -1.113190522310076e-05, 2.002974566537616e+02, 3.681656893033454e+03, 9.687066187697741e+02, 3.984147785695632e+03
664, -4.999999999996662e-05, 5.000000000002718e-03, 4.662237647680070e-04, -1.876810912063485e-05, 1.745632440685893e+02, 1.811559922575239e+03, 7.365133680474781e+02, 2.202172992907770e+03
665, 0.000000000000000e+00, 5.000000000000093e-03, 4.656216713081825e-04, -2.640659031540677e-05, 1.388339830179195e+02, -4.879138698497582e+01, 4.674329922058222e+02, 9.535080955496269e+02
666, 4.999999999996663e-05, 4.999999999997467e-03, 4.650462696281098e-04, -3.404920507027680e-05, 9.269360250590847e+01, -1.898580818286420e+03, 1.614887172925380e+02, 2.017297261722471e+03
667, 9.999999999996559e-05, 4.999999999994841e-03, 4.644973112670005e-04, -4.169781117569381e-05, 3.572031091626678e+01, -3.736983311865546e+03, -1.812943813937997e+02, 3.790087497176135e+03
668, 1.499999999999799e-04, 4.999999999992216e-03, 4.639745289768876e-04, -4.935426793656564e-05, -3.251344542194829e+01, -5.563164948822045e+03, -5.608892241294492e+02, 5.643269702844255e+03
669, 1.999999999999863e-04, 4.999999999989590e-03, 4.634776365985085e-04, -5.702043615766236e-05, -1.124410549860377e+02, -7.376282974000490e+03, -9.772665567211361e+02, 7.522207064151711e+03
670, -1.999999999999881e-04, 4.900000000010410e-03, 4.528836943949092e-04, 5.044442301795208e-06, 2.277735756377872e+02, 7.753026378057762e+03, 1.362583805711309e+03, 8.003497251244393e+03
671, -1.499999999999843e-04, 4.900000000007836e-03, 4.522066126913840e-04, -2.526029430387334e-06, 2.199296190271556e+02, 5.789259496635137e+03, 1.197873244055619e+03, 6.062758161176665e+03
672, -9.999999999997321e-05, 4.900000000005265e-03, 4.515579459408030e-04, -1.009508398787505e-05, 2.028700602236860e+02, 3.833679806298701e+03, 9.954456961462128e+02, 4.140824549301430e+03
673, -4.999999999997681e-05, 4.900000000002690e-03, 4.509375018925685e-04, -1.766461352278922e-05, 1.761873715912429e+02, 1.887088218135234e+03, 7.553094778943704e+02, 2.282356531371296e+03
674, -1.282069068964109e-17, 4.900000000000120e-03, 4.503450698482785e-04, -2.523651202547437e-05, 1.394687273481185e+02, -4.970518160784263e+01, 4.774747147104763e+02, 9.735066412619286e+02
675, 4.999999999995644e-05, 4.899999999997547e-03, 4.497804205394365e-04, -3.281267531683841e-05, 9.229550246028612e+01, -1.975881021097279e+03, 1.619531538969262e+02, 2.093387070950640e+03
676, 9.999999999995801e-05, 4.899999999994974e-03, 4.492433060002083e-04, -4.039500104094489e-05, 3.424304395166644e+01, -3.890610702097260e+03, -1.912416682559752e+02, 3.943446516764695e+03
677, 1.499999999999756e-04, 4.899999999992402e-03, 4.487334594382718e-04, -4.798538865554859e-05, -3.511937150635765e+01, -5.793056370956693e+03, -5.820942430021557e+02, 5.874450895239839e+03
678, 1.999999999999843e-04, 4.899999999989829e-03, 4.482505951048323e-04, -5.558573941982185e-05, -1.162284894928916e+02, -7.682370834949544e+03, -1.010586925455148e+03, 7.831452849076974e+03
679, -1.999999999999901e-04, 4.800000000010084e-03, 4.377083417019923e-04, 5.916267402727681e-06, 2.318766826403422e+02, 8.064853514631873e+03, 1.402558236919011e+03, 8.320108441740020e+03
680, -1.499999999999886e-04, 4.800000000007600e-03, 4.370378895744962e-04, -1.584772457888091e-06, 2.231578659257196e+02, 6.022881869762683e+03, 1.231573113037748e+03, 6.301102114052162e+03
681, -9.999999999998080e-05, 4.800000000005114e-03, 4.363969634706678e-04, -9.084407326954289e-06, 2.052023912595523e+02, 3.989132677844150e+03, 1.022079340862222e+03, 4.300780525648991e+03
682, -4.999999999998701e-05, 4.800000000002629e-03, 4.357853721650936e-04, -1.658456839164181e-05, 1.775998327730218e+02, 1.964407741754012e+03, 7.740741632897304e+02, 2.364200868092177e+03
683, -2.564138137928218e-17, 4.800000000000143e-03, 4.352029059700674e-04, -2.408718896590023e-05, 1.399352943839101e+02, -5.048006126872383e+01, 4.875557676504827e+02, 9.935293221366568e+02
684, 4.999999999994627e-05, 4.799999999997659e-03, 4.346493366032824e-04, -3.159420449783008e-05, 9.178759827028182e+01, -2.054708210152553e+03, 1.625238298889794e+02, 2.170967580758388e+03
685, 9.999999999995042e-05, 4.799999999995174e-03, 4.341244170532536e-04, -3.910755256808810e-05, 3.272917038076775e+01, -4.047444583670778e+03, -2.010202290310152e+02, 4.099933462041770e+03
686, 1.499999999999713e-04, 4.799999999992687e-03, 4.336278814438259e-04, -4.662917288392568e-05, -3.767399813322533e+01, -6.027847454441217e+03, -6.030730423887692e+02, 6.110398220613860e+03
687, 1.999999999999824e-04, 4.799999999990203e-03, 4.331594448979034e-04, -5.416100727001855e-05, -1.198622965067973e+02, -7.995065411034017e+03, -1.043629083807000e+03, 8.147114259253430e+03
688, -1.999999999999919e-04, 4.700000000009747e-03, 4.226718017640258e-04, 6.755696440903381e-06, 2.357172033049085e+02, 8.383386312285704e+03, 1.442179500138664e+03, 8.643149816584271e+03
689, -1.499999999999929e-04, 4.700000000007334e-03, 4.220082139043136e-04, -6.731643110871743e-07, 2.261231032197234e+02, 6.261592358419892e+03, 1.265021135625914e+03, 6.544310737181387e+03
690, -9.999999999998839e-05, 4.700000000004922e-03, 4.213752848634388e-04, -8.100630725867554e-06, 2.072843141081657e+02, 4.148039998041253e+03, 1.048560865949443e+03, 4.464020040149184e+03
691, -4.999999999999717e-05, 4.700000000002511e-03, 4.207728249283200e-04, -1.552867304990365e-05, 1.787916792500325e+02, 2.043535351380710e+03, 7.927834268125978e+02, 2.447711422955391e+03
692, -3.846207206892327e-17, 4.700000000000096e-03, 4.202006259076945e-04, -2.295926397487389e-05, 1.402277562077282e+02, -5.110631309344569e+01, 4.976744477234382e+02, 1.013571975610348e+03
693, 4.999999999993608e-05, 4.699999999997685e-03, 4.196584609888307e-04, -3.039437864717712e-05, 9.116834969104366e+01, -2.135059702500834e+03, 1.632210353527566e+02, 2.250034614376531e+03
694, 9.999999999994281e-05, 4.699999999995272e-03, 4.191460845966635e-04, -3.783599466884747e-05, 3.118263947548019e+01, -4.207489441250541e+03, -2.105879871713028e+02, 4.259545774996403e+03
695, 1.499999999999669e-04, 4.699999999992859e-03, 4.186632322531713e-04, -4.528609209405025e-05, -4.016677519282496e+01, -6.267550015412558e+03, -6.237618888599374e+02, 6.351111524492864e+03
696, 1.999999999999805e-04, 4.699999999990447e-03, 4.182096204365189e-04, -5.274665342338074e-05, -1.233240996433049e+02, -8.314385930038839e+03, -1.076307856423288e+03, 8.469194077157319e+03
697, -1.999999999999939e-04, 4.600000000009572e-03, 4.077796510776729e-04, 7.561868019520574e-06, 2.392269837895909e+02, 8.708619731295417e+03, 1.481360833280831e+03, 8.972643600690837e+03
698, -1.499999999999973e-04, 4.600000000007185e-03, 4.071231578997520e-04, 2.079893425324405e-07, 2.287684018520362e+02, 6.505388219823984e+03, 1.298152071755405e+03, 6.792403959201014e+03
699, -9.999999999999598e-05, 4.600000000004799e-03, 4.064984781605628e-04, -7.144503822173711e-06, 2.090745126406086e+02, 4.310403184576815e+03, 1.074846853017307e+03, 4.630559351202707e+03
700, -5.000000000000737e-05, 4.600000000002412e-03, 4.059054241383571e-04, -1.449762079865153e-05, 1.797339723431691e+02, 2.124473206656625e+03, 8.114157751647110e+02, 2.532902076714116e+03
701, -5.126921023140829e-17, 4.600000000000025e-03, 4.053437896170542e-04, -2.185337370548642e-05, 1.403271591213846e+02, -5.158371878126582e+01, 5.078312846556287e+02, 1.033634480731613e+03
702, 4.999999999992590e-05, 4.599999999997638e-03, 4.048133497364801e-04, -2.921377745474692e-05, 9.042725072311418e+01, -2.216939304861647e+03, 1.640673880485593e+02, 2.330582084612210e+03
703, 9.999999999993524e-05, 4.599999999995251e-03, 4.043138608454618e-04, -3.658084975161282e-05, 2.960044340423622e+01, -4.370754807991792e+03, -2.199002102153438e+02, 4.422278908922369e+03
704, 1.499999999999625e-04, 4.599999999992864e-03, 4.038450603551558e-04, -4.395661109265117e-05, -4.259401010451063e+01, -6.512180976568068e+03, -6.440939276637594e+02, 6.596588775060065e+03
705, 1.999999999999786e-04, 4.599999999990477e-03, 4.034066665921808e-04, -5.134308476082963e-05, -1.266035363481431e+02, -8.640357774324355e+03, -1.108534172612665e+03, 8.797693065347194e+03
706, -1.999999999999958e-04, 4.500000000009600e-03, 3.930375818931724e-04, 8.333928097413315e-06, 2.423951408891918e+02, 9.040584644852988e+03, 1.520014915063878e+03, 9.308593874250037e+03
707, -1.500000000000016e-04, 4.500000000007212e-03, 3.923884091440480e-04, 1.057890263139912e-06, 2.310815054770749e+02, 6.754293877237712e+03, 1.330902182332684e+03, 7.045388713395638e+03
708, -1.000000000000036e-04, 4.500000000004825e-03, 3.917722262472773e-04, -6.216768709585245e-06, 2.105609107699504e+02, 4.476241022318984e+03, 1.100895137133929e+03, 4.800406985446703e+03
709, -5.000000000001756e-05, 4.500000000002437e-03, 3.911888479803524e-04, -1.349209726725755e-05, 1.804170181828692e+02, 2.207234848139853e+03, 8.299509278690770e+02, 2.619783328161797e+03
710, -6.409667718462742e-17, 4.500000000000053e-03, 3.906380706062700e-04, -2.077014700600867e-05, 1.402277645863076e+02, -5.190408242054559e+01, 5.180282759682576e+02, 1.053720942870951e+03
711, 4.999999999991571e-05, 4.499999999997665e-03, 3.901196717244566e-04, -2.805297266642448e-05, 8.956390023332426e+01, -2.300344381313433e+03, 1.650874766683980e+02, 2.412607944531545e+03
712, 9.999999999992765e-05, 4.499999999995279e-03, 3.896334101190717e-04, -3.534263213408718e-05, 2.798891110609793e+01, -4.537243791628634e+03, -2.289095021412376e+02, 4.588131195901098e+03
713, 1.499999999999582e-04, 4.499999999992891e-03, 3.891790256064545e-04, -4.264118643952700e-05, -4.494097704945966e+01, -6.761749115414166e+03, -6.639988608846066e+02, 6.846830618368370e+03
714, 1.999999999999767e-04, 4.499999999990504e-03, 3.887562388819360e-04, -4.995069975717164e-05, -1.296768153586553e+02, -8.972996226283805e+03, -1.140214691418613e+03, 9.132614980045579e+03
715, -1.999999999999977e-04, 4.400000000009622e-03, 3.784514030115398e-04, 9.071032203619840e-06, 2.452270399828006e+02, 9.379321450218349e+03, 1.558043003005607e+03, 9.650993352601336e+03
716, -1.500000000000059e-04, 4.400000000007235e-03, 3.778097711544254e-04, 1.875749722747812e-06, 2.330671717862743e+02, 7.008344815913320e+03, 1.363197344486546e+03, 7.303260583812439e+03
717, -1.000000000000112e-04, 4.400000000004850e-03, 3.772023272732190e-04, -5.318157988306080e-06, 2.117437435694179e+02, 4.645580086874967e+03, 1.126656547160981e+03, 4.973562568246220e+03
718, -5.000000000002772e-05, 4.400000000002464e-03, 3.766288891816424e-04, -1.251277856770413e-05, 1.808389288207677e+02, 2.291838632393393e+03, 8.483643030149468e+02, 2.708358859347088e+03
719, -7.691736787426851e-17, 4.400000000000076e-03, 3.760892561614062e-04, -1.971020314668170e-05, 1.399278707484799e+02, -5.205683961049408e+01, 5.282652853130635e+02, 1.073831912209350e+03
720, 4.999999999990552e-05, 4.399999999997690e-03, 3.755832088107565e-04, -2.691252635934257e-05, 8.857851375298810e+01, -2.385272194800629e+03, 1.663055610162693e+02, 2.496110471656047e+03
721, 9.999999999991999e-05, 4.399999999995304e-03, 3.751105088885528e-04, -3.412184634846329e-05, 2.635136160820809e+01, -4.706961917759302e+03, -2.375672090073095e+02, 4.757100725843306e+03
722, 1.499999999999539e-04, 4.399999999992917e-03, 3.746708991562420e-04, -4.134026476956048e-05, -4.720060585251406e+01, -7.016269082627641e+03, -6.834035762159922e+02, 7.101836186925183e+03
723, 1.999999999999748e-04, 4.399999999990530e-03, 3.742641032188335e-04, -4.856988679153138e-05, -1.325321881401112e+02, -9.312325445430488e+03, -1.171252172206759e+03, 9.473960673878169e+03
724, -1.999999999999997e-04, 4.300000000009517e-03, 3.640270417019926e-04, 9.772346772170766e-06, 2.476885730157419e+02, 9.724845104005421e+03, 1.595341563234594e+03, 9.999847735161547e+03
725, -1.500000000000103e-04, 4.300000000007164e-03, 3.633931647614815e-04, 2.660790016429182e-06, 2.346973630157670e+02, 7.267554985192146e+03, 1.394958632432045e+03, 7.566024364128832e+03
726, -1.000000000000188e-04, 4.300000000004808e-03, 3.627946956455220e-04, -4.449393172128377e-06, 2.126024291081959e+02, 4.818433682451738e+03, 1.152077956663080e+03, 5.150030680218521e+03
727, -5.000000000003792e-05, 4.300000000002456e-03, 3.622314557420895e-04, -1.156032966033995e-05, 1.809850632247696e+02, 2.378295107902723e+03, 8.666286283723949e+02, 2.798633979372990e+03
728, -8.973805856390960e-17, 4.300000000000101e-03, 3.617032479022045e-04, -1.867415016793338e-05, 1.394183127709532e+02, -5.203562925060885e+01, 5.385407361354892e+02, 1.093964857673689e+03
729, 4.999999999989533e-05, 4.299999999997747e-03, 3.612098562788550e-04, -2.579298928711345e-05, 8.746750510075242e+01, -2.471721647376728e+03, 1.677455971025681e+02, 2.581085713328326e+03
730, 9.999999999991241e-05, 4.299999999995395e-03, 3.607510461642897e-04, -3.291898549543467e-05, 2.469019226460603e+01, -4.879914232939513e+03, -2.458239898934068e+02, 4.929184750418702e+03
731, 1.499999999999495e-04, 4.299999999993039e-03, 3.603265638258670e-04, -4.005428116438262e-05, -4.936393706528645e+01, -7.275752818062284e+03, -7.022335363774204e+02, 7.361604717576840e+03
732, 1.999999999999729e-04, 4.299999999990687e-03, 3.599361363404460e-04, -4.720102256598183e-05, -1.351528654089063e+02, -9.658364732376594e+03, -1.201546657940868e+03, 9.821732115466684e+03
733, -2.000000000000014e-04, 4.200000000009198e-03, 3.497705434654331e-04, 1.043705070127041e-05, 2.497521564083572e+02, 1.007717588671623e+04, 1.631806339359570e+03, 1.035516416536767e+04
734, -1.500000000000147e-04, 4.200000000006931e-03, 3.491446281130659e-04, 3.412246022192228e-06, 2.359466243409431e+02, 7.531941514070724e+03, 1.426107393613938e+03, 7.833688187785140e+03
735, -1.000000000000264e-04, 4.200000000004664e-03, 3.485553621519195e-04, -3.611183072829198e-06, 2.131161874748317e+02, 4.994816366213017e+03, 1.177106317098704e+03, 5.329819295844795e+03
736, -5.000000000004811e-05, 4.200000000002396e-03, 3.480025711063964e-04, -1.063540269137510e-05, 1.808400175795150e+02, 2.466615532084594e+03, 8.847168874498215e+02, 2.890616817647500e+03
737, -1.025587492535507e-16, 4.200000000000129e-03, 3.474860619657299e-04, -1.766258318115120e-05, 1.386894627894563e+02, -5.183336715465964e+01, 5.488538513389616e+02, 1.114119001385560e+03
738, 4.999999999988515e-05, 4.199999999997860e-03, 3.470056230123629e-04, -2.469489915144825e-05, 8.622759337876391e+01, -2.559690567928758e+03, 1.694331324061093e+02, 2.667529430346508e+03
739, 9.999999999990481e-05, 4.199999999995591e-03, 3.465610236512885e-04, -3.173452948924357e-05, 2.300928287782824e+01, -5.056104064152389e+03, -2.536279397566410e+02, 5.104380561760779e+03
740, 1.499999999999452e-04, 4.199999999993324e-03, 3.461520142392549e-04, -3.878365737167855e-05, -5.141874569989068e+01, -7.540209504861168e+03, -7.204104194626541e+02, 7.626136094011224e+03
741, 1.999999999999710e-04, 4.199999999991056e-03, 3.457783259138748e-04, -4.584447027533989e-05, -1.375180492959920e+02, -1.001113025204444e+04, -1.230993531425030e+03, 1.017593230263960e+04
742, -2.000000000000034e-04, 4.100000000008875e-03, 3.356880719749296e-04, 1.106433739358976e-05, 2.514057231132081e+02, 1.043634500535461e+04, 1.667327627421564e+03, 1.071694517349029e+04
743, -1.500000000000190e-04, 4.100000000006694e-03, 3.350703166918430e-04, 4.129367120026427e-06, 2.368018958092803e+02, 7.801531016262903e+03, 1.456561385372966e+03, 8.106257517700600e+03
744, -1.000000000000340e-04, 4.100000000004513e-03, 3.344904740310483e-04, -2.804221943452669e-06, 2.132712108133811e+02, 5.174748317356348e+03, 1.201686691969912e+03, 5.512935579288074e+03
745, -5.000000000005830e-05, 4.100000000002334e-03, 3.339483742562306e-04, -9.738635160884511e-06, 1.803916563570241e+02, 2.556814111787455e+03, 9.026014082666123e+02, 2.984315816982761e+03
746, -1.153726636796137e-16, 4.100000000000152e-03, 3.334438290934692e-04, -1.667608254621783e-05, 1.377323998709066e+02, -5.144186773480635e+01, 5.592042648539109e+02, 1.134294733676997e+03
747, 4.999999999987496e-05, 4.099999999997971e-03, 3.329766315534904e-04, -2.361877878222722e-05, 8.485406071757450e+01, -2.649177236336361e+03, 1.713951663128586e+02, 2.755436870155452e+03
748, 9.999999999989721e-05, 4.099999999995790e-03, 3.325465557546790e-04, -3.056894323779426e-05, 2.130875761363518e+01, -5.235536883021188e+03, -2.609246275735256e+02, 5.282684235742174e+03
749, 1.499999999999408e-04, 4.099999999993610e-03, 3.321533567461877e-04, -3.752879998273070e-05, -5.335988379478806e+01, -7.809652904717994e+03, -7.378523062301739e+02, 7.895428140997723e+03
750, 1.999999999999691e-04, 4.099999999991429e-03, 3.317967703307335e-04, -4.450057779990715e-05, -1.396167184793668e+02, -1.037064450974408e+04, -1.259483335463484e+03, 1.053656123955400e+04
751, -2.000000000000054e-04, 4.000000000008551e-03, 3.217859098566276e-04, 1.165341657776239e-05, 2.526172506511574e+02, 1.080236799897025e+04, 1.701792473639979e+03, 1.108519875081228e+04
752, -1.500000000000234e-04, 4.000000000006458e-03, 3.211765038445721e-04, 4.811419055960005e-06, 2.372356891418143e+02, 8.076338007706986e+03, 1.486235888234887e+03, 8.383741027896989e+03
753, -1.000000000000416e-04, 4.000000000004365e-03, 3.206062953545063e-04, -2.029187599892585e-06, 2.130457384728343e+02, 5.358242719436357e+03, 1.225762699216650e+03, 5.699388454218549e+03
754, -5.000000000006849e-05, 4.000000000002271e-03, 3.200751200040908e-04, -8.870648041469736e-06, 1.796235769409894e+02, 2.648901261658046e+03, 9.202539953824877e+02, 3.079740565098195e+03
755, -1.282069068964109e-16, 4.000000000000177e-03, 3.195827948710438e-04, -1.571521199129059e-05, 1.365362015154338e+02, -5.085458378648650e+01, 5.695919696128155e+02, 1.154493548620215e+03
756, 4.999999999986478e-05, 3.999999999998083e-03, 3.191291183114147e-04, -2.256513426224608e-05, 8.334185802139928e+01, -2.740179883926850e+03, 1.736599249820248e+02, 2.844803350924898e+03
757, 9.999999999988963e-05, 3.999999999995989e-03, 3.187138697773545e-04, -2.942267477652172e-05, 1.959002860694420e+01, -5.418216471848198e+03, -2.676575564957692e+02, 5.464092038627218e+03
758, 1.499999999999365e-04, 3.999999999993896e-03, 3.183368096342115e-04, -3.629009858320712e-05, -5.517860278996216e+01, -8.084092887519109e+03, -7.544744269187752e+02, 8.169479251153369e+03
759, 1.999999999999672e-04, 3.999999999991804e-03, 3.179976789770749e-04, -4.316967587383821e-05, -1.414320992050719e+02, -1.073692426100530e+04, -1.286902956926769e+03, 1.090362008843657e+04
760, -2.000000000000072e-04, 3.900000000008219e-03, 3.080704584618873e-04, 1.220351627434468e-05, 2.533630883879740e+02, 1.117526303723860e+04, 1.735085529116855e+03, 1.145992956636759e+04
761, -1.500000000000277e-04, 3.900000000006203e-03, 3.074695807215883e-04, 5.457685950817200e-06, 2.372276906881395e+02, 8.356379028379222e+03, 1.515044667178583e+03, 8.666144460976631e+03
762, -1.000000000000492e-04, 3.900000000004186e-03, 3.069092070564700e-04, -1.286739406174336e-06, 2.124231074923094e+02, 5.545314167595681e+03, 1.249276707681692e+03, 5.889184682819389e+03
763, -5.000000000007867e-05, 3.900000000002170e-03, 3.063891790662131e-04, -8.032043769371483e-06, 1.785228553470737e+02, 2.742888453561866e+03, 9.376458738198700e+02, 3.176899441290710e+03
764, -1.410275975860520e-16, 3.900000000000153e-03, 3.059093198135028e-04, -1.478051661240167e-05, 1.350920996467045e+02, -5.006420378215660e+01, 5.800172539209170e+02, 1.174718228377889e+03
765, 4.999999999985460e-05, 3.899999999998138e-03, 3.054694336382589e-04, -2.153445293297683e-05, 8.168700141668478e+01, -2.832696266206094e+03, 1.762569291319361e+02, 2.935625291291058e+03
766, 9.999999999988204e-05, 3.899999999996121e-03, 3.050693059693779e-04, -2.829615327614595e-05, 1.785462319655653e+01, -5.604146489994761e+03, -2.737678455555011e+02, 5.648600875417276e+03
767, 1.499999999999321e-04, 3.899999999994104e-03, 3.047087031353296e-04, -3.506792375538785e-05, -5.686709997680521e+01, -8.363539836605809e+03, -7.701884399682260e+02, 8.448288163036246e+03
768, 1.999999999999652e-04, 3.899999999992088e-03, 3.043873721742716e-04, -4.185207607137829e-05, -1.429495030568672e+02, -1.110998750363273e+04, -1.313134642512023e+03, 1.127711012908608e+04
769, -2.000000000000091e-04, 3.800000000007874e-03, 2.945482380784904e-04, 1.271388511286521e-05, 2.536418098475826e+02, 1.155506361467128e+04, 1.767083738546185e+03, 1.184113485130044e+04
770, -1.500000000000321e-04, 3.800000000005924e-03, 2.939560565239593e-04, 6.067472532942099e-06, 2.367740634204256e+02, 8.641682478613024e+03, 1.542894918581027e+03, 8.953467729707188e+03
771, -1.000000000000568e-04, 3.800000000003971e-03, 2.934057071798562e-04, -5.775161007365788e-07, 2.113969646490411e+02, 5.735984729682019e+03, 1.272166497966185e+03, 6.082326887609895e+03
772, -5.000000000008884e-05, 3.800000000002021e-03, 2.928970382874677e-04, -7.223404115878741e-06, 1.770828254583697e+02, 2.838791866649656e+03, 9.547454430764113e+02, 3.275797683658155e+03
773, -1.538415120121150e-16, 3.800000000000070e-03, 2.924298795595523e-04, -1.387252077762786e-05, 1.333949578150969e+02, -4.906038290724166e+01, 5.904791754859292e+02, 1.194969697560685e+03
774, 4.999999999984441e-05, 3.799999999998119e-03, 2.920040419881118e-04, -2.052720132270223e-05, 7.988737941413069e+01, -2.926722125552317e+03, 1.792159226903584e+02, 3.027899288803645e+03
775, 9.999999999987444e-05, 3.799999999996168e-03, 2.916193176497261e-04, -2.718978698831410e-05, 1.610467593081523e+01, -5.793329259890293e+03, -2.791950450983740e+02, 5.836207856776510e+03
776, 1.499999999999278e-04, 3.799999999994218e-03, 2.912754795094468e-04, -3.386262503781719e-05, -5.841804300056333e+01, -8.648003372525109e+03, -7.849031891745026e+02, 8.731853651928010e+03
777, 1.999999999999633e-04, 3.799999999992265e-03, 2.909722812238640e-04, -4.054806878270656e-05, -1.441550574992436e+02, -1.148985153859695e+04, -1.338056501106259e+03, 1.165703261734323e+04
778, -2.000000000000110e-04, 3.700000000007529e-03, 2.812258892136789e-04, 1.318379430537460e-05, 2.534259888384489e+02, 1.194178426353726e+04, 1.797658676537178e+03, 1.222881948623978e+04
779, -1.500000000000364e-04, 3.700000000005644e-03, 2.806425594231629e-04, 6.640106166213593e-06, 2.358515010002766e+02, 8.932263015462799e+03, 1.569689312770507e+03, 9.245716380215224e+03
780, -1.000000000000644e-04, 3.700000000003758e-03, 2.801024115433244e-04, 9.786625932191863e-08, 2.099484207545702e+02, 5.930267998394002e+03, 1.294366549327835e+03, 6.278821157382997e+03
781, -5.000000000009902e-05, 3.700000000001873e-03, 2.796053011328285e-04, -6.445288112372540e-06, 1.752888074179319e+02, 2.936622618716553e+03, 9.715191057675783e+02, 3.376442196885163e+03
782, -1.666825314924902e-16, 3.699999999999988e-03, 2.791510652380610e-04, -1.299172604145426e-05, 1.314345491117137e+02, -4.783554060522397e+01, 6.009760792376896e+02, 1.215247611119126e+03
783, 4.999999999983423e-05, 3.699999999998102e-03, 2.787395221919973e-04, -1.954382305551565e-05, 7.793772446580465e+01, -3.022254350110611e+03, 1.825672142307566e+02, 3.121620420569153e+03
784, 9.999999999986681e-05, 3.699999999996217e-03, 2.783704714126208e-04, -2.610396115184940e-05, 1.434060443009105e+01, -5.985766977892376e+03, -2.838768628833051e+02, 6.026909265333719e+03
785, 1.499999999999234e-04, 3.699999999994331e-03, 2.780436931998688e-04, -3.267452882874998e-05, -5.982442860600599e+01, -8.937491785039756e+03, -7.985244127582123e+02, 9.020174202451570e+03
786, 1.999999999999614e-04, 3.699999999992445e-03, 2.777589485308363e-04, -3.925792111300403e-05, -1.450348553217020e+02, -1.187653213946909e+04, -1.361542295762735e+03, 1.204338898402609e+04
787, -2.000000000000130e-04, 3.600000000007325e-03, 2.681101725431984e-04, 1.361253972577438e-05, 2.526944864261758e+02, 1.233544396739689e+04, 1.826679315872869e+03, 1.262298951564364e+04
788, -1.500000000000407e-04, 3.600000000005489e-03, 2.675358366325030e-04, 7.174938930616439e-06, 2.344386156828266e+02, 9.228136600245962e+03, 1.595329023228612e+03, 9.542897998352346e+03
789, -1.000000000000720e-04, 3.600000000003653e-03, 2.670060538723001e-04, 7.388164066436375e-07, 2.080586764021757e+02, 6.128177739917437e+03, 1.315810284470186e+03, 6.478675523983808e+03
790, -5.000000000010923e-05, 3.600000000001818e-03, 2.665206878382100e-04, -5.698229920761938e-06, 1.731254747059002e+02, 3.036391772505267e+03, 9.879327832780724e+02, 3.478841564258989e+03
791, -1.794761171278192e-16, 3.599999999999982e-03, 2.660795836131077e-04, -1.213860900111666e-05, 1.291995572890124e+02, -4.638212783364668e+01, 6.115066131196664e+02, 1.235552621180844e+03
792, 4.999999999982404e-05, 3.599999999998146e-03, 2.656825675799473e-04, -1.858473669940793e-05, 7.583133284736186e+01, -3.119289733704280e+03, 1.863423802317785e+02, 3.216782952050680e+03
793, 9.999999999985923e-05, 3.599999999996311e-03, 2.653294472135964e-04, -2.503903583594156e-05, 1.256105699536818e+01, -6.181461590039967e+03, -2.877486032384788e+02, 6.220700409652388e+03
794, 1.499999999999191e-04, 3.599999999994474e-03, 2.650200108710173e-04, -3.150393622404097e-05, -6.108124412757468e+01, -9.232012873037767e+03, -8.109541090384668e+02, 9.313247189354037e+03
795, 1.999999999999595e-04, 3.599999999992638e-03, 2.647540275793833e-04, -3.798187470562148e-05, -1.455761683328733e+02, -1.227004348901686e+04, -1.383460764952563e+03, 1.243617958068258e+04
796, -2.000000000000149e-04, 3.500000000007369e-03, 2.552079689824557e-04, 1.399944427728963e-05, 2.514294785141208e+02, 1.273606026550620e+04, 1.854010139892454e+03, 1.302364850119991e+04
797, -1.500000000000451e-04, 3.500000000005565e-03, 2.546427545095908e-04, 7.671349952942809e-06, 2.325188322245704e+02, 9.529319775964956e+03, 1.619712052601677e+03, 9.845017842589452e+03
798, -1.000000000000796e-04, 3.500000000003764e-03, 2.541234859268017e-04, 1.344770165996394e-06, 2.057123988970656e+02, 6.329728371990558e+03, 1.336428950179266e+03, 6.681896511785651e+03
799, -5.000000000011939e-05, 3.500000000001962e-03, 2.536500355473675e-04, -4.982736551155246e-06, 1.705794270351187e+02, 3.138110828036371e+03, 1.003951144605464e+03, 3.583003519248473e+03
800, -1.923239128717724e-16, 3.500000000000160e-03, 2.532222572160176e-04, -1.131361903052000e-05, 1.266791871627986e+02, -4.469242129072700e+01, 6.220691116385053e+02, 1.255885403531240e+03
801, 4.999999999981385e-05, 3.499999999998358e-03, 2.528399860971968e-04, -1.765033351521913e-05, 7.356058787011818e+01, -3.217825300221291e+03, 1.905736429509990e+02, 3.313381100609728e+03
802, 9.999999999985163e-05, 3.499999999996555e-03, 2.525030384604159e-04, -2.399534370558600e-05, 1.076203522491994e+01, -6.380415976521293e+03, -2.907439606531806e+02, 6.417576223189987e+03
803, 1.499999999999148e-04, 3.499999999994753e-03, 2.522112114635706e-04, -3.035112080362322e-05, -6.218866100733646e+01, -9.531576722261243e+03, -8.220916844258394e+02, 9.611069097921754e+03
804, 1.999999999999576e-04, 3.499999999992950e-03, 2.519642829344276e-04, -3.672014355563992e-05, -1.457742587912921e+02, -1.267040363926829e+04, -1.403676670978983e+03, 1.283540314539867e+04
805, -2.000000000000167e-04, 3.400000000007423e-03, 2.425262800114749e-04, 1.434386035665427e-05, 2.496193214621171e+02, 1.314365194792563e+04, 1.879510032846819e+03, 1.343079704360813e+04
806, -1.500000000000494e-04, 3.400000000005649e-03, 2.419702988491437e-04, 8.128747862956675e-06, 2.300811943317373e+02, 9.835830816805454e+03, 1.642731540170520e+03, 1.015207828289055e+04
807, -1.000000000000872e-04, 3.400000000003875e-03, 2.414616777617599e-04, 1.915192880573602e-06, 2.028988731674106e+02, 6.534936142976707e+03, 1.356150309195913e+03, 6.888488268900705e+03
808, -5.000000000012958e-05, 3.400000000002102e-03, 2.410002985441920e-04, -4.299285461680849e-06, 1.676411410948881e+02, 3.241793318667031e+03, 1.019536783204113e+03, 3.688933805328621e+03
809, -2.051242747706794e-16, 3.400000000000329e-03, 2.405860245562394e-04, -1.051717589921944e-05, 1.238663632519629e+02, -4.275612119081575e+01, 6.326611822254725e+02, 1.276245955253773e+03
810, 4.999999999980369e-05, 3.399999999998554e-03, 2.402187005040720e-04, -1.674097508921283e-05, 7.112219310995317e+01, -3.317854469613808e+03, 1.952937883582458e+02, 3.411410481834683e+03
811, 9.999999999984403e-05, 3.399999999996781e-03, 2.398981522188718e-04, -2.297318766430232e-05, 8.945430255682709e+00, -6.582627726606197e+03, -2.927948255678266e+02, 6.617533673641508e+03
812, 1.499999999999104e-04, 3.399999999995008e-03, 2.396241864334994e-04, -2.921632628371128e-05, -6.313804806126325e+01, -9.836185432123984e+03, -8.318335831823229e+02, 9.913639271810074e+03
813, 1.999999999999557e-04, 3.399999999993234e-03, 2.393965905577991e-04, -3.547291168246263e-05, -1.456131615143579e+02, -1.307762039456803e+04, -1.422050647701784e+03, 1.324106201383668e+04
814, -2.000000000000187e-04, 3.300000000007353e-03, 2.300722282512183e-04, 1.464517230511055e-05, 2.472518867567471e+02, 1.355823595293167e+04, 1.903031937814361e+03, 1.384443639283769e+04
815, -1.500000000000538e-04, 3.300000000005614e-03, 2.295255753344097e-04, 8.546573242261155e-06, 2.271126635507330e+02, 1.014768561937158e+04, 1.664275885408635e+03, 1.046408260015061e+04
816, -1.000000000000948e-04, 3.300000000003875e-03, 2.290277180674044e-04, 2.449581858481982e-06, 1.996054597466165e+02, 6.743815438448006e+03, 1.374898843250416e+03, 7.098455575829165e+03
817, -5.000000000013977e-05, 3.300000000002137e-03, 2.285785484970705e-04, -3.648322114691113e-06, 1.642993539563254e+02, 3.347451456659188e+03, 1.034650523523068e+03, 3.796638530627835e+03
818, -2.179652942510546e-16, 3.300000000000398e-03, 2.281779402775417e-04, -9.749667329595174e-06, 1.207521630316601e+02, -4.056389783144004e+01, 6.432801858142623e+02, 1.296634282030718e+03
819, 4.999999999979350e-05, 3.299999999998659e-03, 2.278257484433146e-04, -1.585699088775784e-05, 6.851054302552473e+01, -3.419371546565329e+03, 2.005369145888884e+02, 3.510866230339741e+03
820, 9.999999999983644e-05, 3.299999999996922e-03, 2.275218091809808e-04, -2.197283840096494e-05, 7.109942522090364e+00, -6.788095566391634e+03, -2.938301460274403e+02, 6.820569076494236e+03
821, 1.499999999999061e-04, 3.299999999995182e-03, 2.272659395991925e-04, -2.809976404945177e-05, -6.392548044897467e+01, -1.014584302963459e+04, -8.400715589806282e+02, 1.022095603969656e+04
822, 1.999999999999538e-04, 3.299999999993444e-03, 2.270579374971693e-04, -3.424033063624874e-05, -1.450831001493607e+02, -1.349170398311942e+04, -1.438437352956453e+03, 1.365315703664372e+04
823, -2.000000000000206e-04, 3.200000000007042e-03, 2.178530578443349e-04, 1.490279886039279e-05, 2.443094696873293e+02, 1.397982324071916e+04, 1.924424319160340e+03, 1.426457059973794e+04
824, -1.500000000000580e-04, 3.200000000005365e-03, 2.173158098426547e-04, 8.924301072095116e-06, 2.235953041488008e+02, 1.046489525916452e+04, 1.684230392832900e+03, 1.078103672348691e+04
825, -1.000000000001024e-04, 3.200000000003689e-03, 2.168288144103742e-04, 2.947468831744274e-06, 1.958156152744275e+02, 6.956377180280831e+03, 1.392596944137241e+03, 7.311805363213888e+03
826, -5.000000000014997e-05, 3.200000000002012e-03, 2.163919746407367e-04, -3.030257511077231e-06, 1.605395183717937e+02, 3.455095108522767e+03, 1.049252122835856e+03, 3.906125523545964e+03
827, -2.307656561499616e-16, 3.200000000000335e-03, 2.160051752829801e-04, -9.011446531416983e-06, 1.173244798824801e+02, -3.810799207137291e+01, 6.539235111631940e+02, 1.317050905297774e+03
828, 4.999999999978330e-05, 3.199999999998658e-03, 2.156682825085432e-04, -1.499867579876610e-05, 6.571644722222266e+01, -3.522371950520839e+03, 2.063382935914742e+02, 3.611742005684700e+03
829, 9.999999999982882e-05, 3.199999999996980e-03, 2.153811436756150e-04, -2.099453194512655e-05, 5.249775875933096e+00, -6.996819201230519e+03, -2.937765262524955e+02, 7.026676920825698e+03
830, 1.499999999999017e-04, 3.199999999995303e-03, 2.151435870919202e-04, -2.700161073026798e-05, -6.455288093698857e+01, -1.046055462464688e+04, -8.466939012736884e+02, 1.053301545166603e+04
831, 1.999999999999519e-04, 3.199999999993626e-03, 2.149554217755235e-04, -3.302251710473902e-05, -1.441807062755129e+02, -1.391266538972800e+04, -1.452686524765732e+03, 1.407168657394733e+04
832, -2.000000000000225e-04, 3.100000000006703e-03, 2.058761344621712e-04, 1.511619577371922e-05, 2.407779230156049e+02, 1.440842343884449e+04, 1.943531599230242e+03, 1.469120280205172e+04
833, -1.500000000000624e-04, 3.100000000005093e-03, 2.053483484972333e-04, 9.261443336063436e-06, 2.195147627765946e+02, 1.078747050456255e+04, 1.702477452595421e+03, 1.110294584633870e+04
834, -1.000000000001100e-04, 3.100000000003483e-03, 2.048722933111641e-04, 3.408422546727899e-06, 1.915154150363855e+02, 7.172632443895292e+03, 1.409165006581051e+03, 7.528544283838285e+03
835, -5.000000000016015e-05, 3.100000000001875e-03, 2.044478838609391e-04, -2.445465611011155e-06, 1.563487915882747e+02, 3.564734686873510e+03, 1.063300295797926e+03, 4.017402704155406e+03
836, -2.436134518939148e-16, 3.100000000000265e-03, 2.040750168162703e-04, -8.302829633779591e-06, 1.135723370683613e+02, -3.537954276282312e+01, 6.645885244310294e+02, 1.337497024193660e+03
837, 4.999999999977311e-05, 3.099999999998656e-03, 2.037535703192536e-04, -1.416628757587963e-05, 6.273164563929322e+01, -3.626849226587120e+03, 2.127342370761725e+02, 3.714031560877821e+03
838, 9.999999999982122e-05, 3.099999999997047e-03, 2.034834037416161e-04, -2.003846712462569e-05, 3.360318426943650e+00, -7.208795400933917e+03, -2.925584613431408e+02, 7.235851845741690e+03
839, 1.499999999998973e-04, 3.099999999995438e-03, 2.032643574400610e-04, -2.592200567328199e-05, -6.502012347803793e+01, -1.078032095894596e+04, -8.515856801526063e+02, 1.084981403882774e+04
840, 1.999999999999499e-04, 3.099999999993829e-03, 2.030962525099819e-04, -3.181955039121638e-05, -1.429002348509341e+02, -1.434051037878869e+04, -1.464643531743793e+03, 1.449664983710236e+04
841, -2.000000000000244e-04, 3.000000000006373e-03, 1.941489454484408e-04, 1.528485860811842e-05, 2.366517596288370e+02, 1.484404844516157e+04, 1.960192315477683e+03, 1.512433316160232e+04
842, -1.500000000000668e-04, 3.000000000004845e-03, 1.936306578066255e-04, 9.557551791759483e-06, 2.148637082513433e+02, 1.111542441831191e+04, 1.718894747906234e+03, 1.142981278985945e+04
843, -1.000000000001176e-04, 3.000000000003318e-03, 1.931656003642023e-04, 3.832051501160112e-06, 1.866955886423284e+02, 7.392593902259305e+03, 1.424520181902239e+03, 7.748677403323431e+03
844, -5.000000000017031e-05, 3.000000000001789e-03, 1.927537007881558e-04, -1.894280623452505e-06, 1.517171874498924e+02, 3.676381854235551e+03, 1.076751967693813e+03, 4.130476995822304e+03
845, -2.564273663199779e-16, 3.000000000000262e-03, 1.923948685235836e-04, -7.624092993741176e-06, 1.094862949739431e+02, -3.236849103301734e+01, 6.752722108702085e+02, 1.357973864036874e+03
846, 4.999999999976296e-05, 2.999999999998735e-03, 1.920889945458755e-04, -1.336004415988474e-05, 5.954843304212955e+01, -3.732795596973379e+03, 2.197620734599738e+02, 3.817729000036537e+03
847, 9.999999999981362e-05, 2.999999999997206e-03, 1.918359511109969e-04, -1.910480289384617e-05, 1.436751342341495e+00, -7.424019420829781e+03, -2.900980023424695e+02, 7.448088799732548e+03
848, 1.499999999998930e-04, 2.999999999995678e-03, 1.916355915037533e-04, -2.486104827023769e-05, -6.532808559143973e+01, -1.110514121123240e+04, -8.546280722583022e+02, 1.117134863911435e+04
849, 1.999999999999481e-04, 2.999999999994151e-03, 1.914877497840567e-04, -3.063146974463919e-05, -1.412379976167362e+02, -1.477524330589629e+04, -1.474148430922185e+03, 1.492804628035147e+04
850, -2.000000000000263e-04, 2.900000000006043e-03, 1.826791003181794e-04, 1.540832553259419e-05, 2.319246371929139e+02, 1.528670712880947e+04, 1.974238823676145e+03, 1.556396323567764e+04
851, -1.500000000000711e-04, 2.900000000004594e-03, 1.821703250263211e-04, 9.812220752157655e-06, 2.096327744797343e+02, 1.144876676906533e+04, 1.733355077629115e+03, 1.176164156267398e+04
852, -1.000000000001252e-04, 2.900000000003146e-03, 1.817163004928785e-04, 4.218006718214833e-06, 1.813452805963161e+02, 7.616271854828874e+03, 1.438576282657287e+03, 7.972210486955656e+03
853, -5.000000000018052e-05, 2.900000000001698e-03, 1.813169679684673e-04, -1.376994241375085e-06, 1.466334534824739e+02, 3.790046902062958e+03, 1.089562193627313e+03, 4.245355656764812e+03
854, -2.692480570096190e-16, 2.900000000000249e-03, 1.809722505542712e-04, -6.975470441765668e-06, 1.050556536357012e+02, -2.906527662527697e+01, 6.859711207859341e+02, 1.378482476545608e+03
855, 4.999999999975274e-05, 2.899999999998802e-03, 1.806820529479670e-04, -1.258012093449173e-05, 5.615763494667613e+01, -3.840203013462189e+03, 2.274601340866674e+02, 3.922827902529507e+03
856, 9.999999999980604e-05, 2.899999999997354e-03, 1.804462611876232e-04, -1.819365559921548e-05, -5.275596640890399e-01, -7.642485545918782e+03, -2.863147302043626e+02, 7.663382175163252e+03
857, 1.499999999998886e-04, 2.899999999995905e-03, 1.802647423932227e-04, -2.381879523347970e-05, -6.547972570557135e+01, -1.143501278921848e+04, -8.556982504321816e+02, 1.149761540779148e+04
858, 1.999999999999462e-04, 2.899999999994458e-03, 1.801373445058759e-04, -2.945827164001875e-05, -1.391917391281784e+02, -1.521686519414009e+04, -1.481035802806283e+03, 1.536587469077979e+04
859, -2.000000000000283e-04, 2.800000000005697e-03, 1.714743310119363e-04, 1.548618009559788e-05, 2.265828723392265e+02, 1.573639868995725e+04, 1.985499522593295e+03, 1.601009744234267e+04
860, -1.500000000000755e-04, 2.800000000004316e-03, 1.709750583500487e-04, 1.002508988448765e-05, 2.038073897597774e+02, 1.178749998739404e+04, 1.745728454223358e+03, 1.209843814465434e+04
861, -1.000000000001328e-04, 2.800000000002934e-03, 1.705320780905935e-04, 4.565984562804952e-06, 1.754503853648407e+02, 7.843671887255034e+03, 1.451245065647998e+03, 8.199150563584117e+03
862, -5.000000000019071e-05, 2.800000000001552e-03, 1.701453459578312e-04, -8.938528198022848e-07, 1.410839165565835e+02, 3.905737196527562e+03, 1.101684859408234e+03, 4.362046817285849e+03
863, -2.820416426449479e-16, 2.800000000000171e-03, 1.698147996092841e-04, -6.357150462646682e-06, 1.002673812696164e+02, -2.546204864544484e+01, 6.966816691605463e+02, 1.399024403691396e+03
864, 4.999999999974258e-05, 2.799999999998790e-03, 1.695403583759690e-04, -1.182664791607049e-05, 5.254724416455952e+01, -3.949064387375866e+03, 2.358677451745338e+02, 4.029321285593208e+03
865, 9.999999999979847e-05, 2.799999999997408e-03, 1.693219229995899e-04, -1.730509618258276e-05, -2.543131239968943e+00, -7.864188705777546e+03, -2.811260445872136e+02, 7.881725607468665e+03
866, 1.499999999998843e-04, 2.799999999996027e-03, 1.691593753670108e-04, -2.279525781642167e-05, -6.548365202220634e+01, -1.176993401244064e+04, -8.546700003162498e+02, 1.182860944816682e+04
867, 1.999999999999443e-04, 2.799999999994645e-03, 1.690525782419391e-04, -2.829990702107891e-05, -1.367675528888146e+02, -1.566537910448215e+04, -1.485135382648501e+03, 1.581013235679753e+04
868, -2.000000000000301e-04, 2.700000000005420e-03, 1.605424916810218e-04, 1.551805427682047e-05, 2.206267838336748e+02, 1.619312627286300e+04, 1.993797939835837e+03, 1.646273552076376e+04
869, -1.500000000000799e-04, 2.700000000004097e-03, 1.600526868133911e-04, 1.019584723488760e-05, 1.973849788120044e+02, 1.213163082361458e+04, 1.755880957399575e+03, 1.244020480661076e+04
870, -1.000000000001404e-04, 2.700000000002773e-03, 1.596207369857860e-04, 4.875729735323204e-06, 1.690049439646689e+02, 8.074802667989137e+03, 1.462435403397810e+03, 8.429502173298002e+03
871, -5.000000000020087e-05, 2.700000000001450e-03, 1.592466133130442e-04, -4.450544075765583e-07, 1.350604041743497e+02, 4.023462684320928e+03, 1.113072149598363e+03, 4.480556966839637e+03
872, -2.948962146524792e-16, 2.700000000000125e-03, 1.589302689382039e-04, -5.769273248494988e-06, 9.511235112221789e+01, -2.154820769460275e+01, 7.073998270735482e+02, 1.419601263509651e+03
873, 4.999999999973239e-05, 2.699999999998801e-03, 1.586716387661915e-04, -1.109970682486242e-05, 4.870847034511439e+01, -4.059369114009808e+03, 2.450250986157306e+02, 4.137203238286217e+03
874, 9.999999999979085e-05, 2.699999999997478e-03, 1.584706391942164e-04, -1.643914726851102e-05, -4.617031982639219e+00, -8.089118910813273e+03, -2.744471287026888e+02, 8.103113940617437e+03
875, 1.499999999998800e-04, 2.699999999996155e-03, 1.583271678393132e-04, -2.179039891554698e-05, -6.534357730442616e+01, -1.210989597811373e+04, -8.514134948360484e+02, 1.216432744925082e+04
876, 1.999999999999424e-04, 2.699999999994831e-03, 1.582411032633848e-04, -2.715627841489587e-05, -1.339644284673600e+02, -1.612077800551877e+04, -1.486271952871514e+03, 1.626081872535837e+04
877, -2.000000000000321e-04, 2.600000000005380e-03, 1.498915590858997e-04, 1.550363167384804e-05, 2.140651082018942e+02, 1.665689504212708e+04, 1.998949909990139e+03, 1.692187516815393e+04
878, -1.500000000000841e-04, 2.600000000004088e-03, 1.494111605744762e-04, 1.032423236292766e-05, 1.903676339874173e+02, 1.248116655590388e+04, 1.763672318337967e+03, 1.278694249321820e+04
879, -1.000000000001480e-04, 2.600000000002797e-03, 1.489902006238931e-04, 5.147038365933866e-06, 1.620055993074882e+02, 8.309672892358092e+03, 1.472051782306854e+03, 8.663268904831346e+03
880, -5.000000000021105e-05, 2.600000000001504e-03, 1.486286666890398e-04, -3.074568331599464e-08, 1.285557406239052e+02, 4.143233230639579e+03, 1.123673662125070e+03, 4.600891798842135e+03
881, -3.077169053421203e-16, 2.600000000000212e-03, 1.483265283587026e-04, -5.211927657251560e-06, 8.958093114070380e+01, -1.731325226755007e+01, 7.181206625341822e+02, 1.440213702990167e+03
882, 4.999999999972220e-05, 2.599999999998920e-03, 1.480837370824604e-04, -1.039932806023012e-05, 4.463039833562721e+01, -4.171106799248158e+03, 2.549731092132967e+02, 4.246467386520138e+03
883, 9.999999999978321e-05, 2.599999999997628e-03, 1.479002258942673e-04, -1.559578015148075e-05, -6.760472336075736e+00, -8.317266824580021e+03, -2.661908300922192e+02, 8.327541417656696e+03
884, 1.499999999998756e-04, 2.599999999996335e-03, 1.477759091331911e-04, -2.080413006581018e-05, -6.507029510483494e+01, -1.245489163792940e+04, -8.457949235259521e+02, 1.250476505647988e+04
885, 1.999999999999405e-04, 2.599999999995043e-03, 1.477106821616549e-04, -2.602723693173656e-05, -1.307918283324270e+02, -1.658305815386828e+04, -1.484264691238576e+03, 1.671793150904115e+04
886, -2.000000000000340e-04, 2.500000000005436e-03, 1.395296331661983e-04, 1.544265051660557e-05, 2.068903119368654e+02, 1.712769335557118e+04, 2.000766317042258e+03, 1.738751963516096e+04
887, -1.500000000000885e-04, 2.500000000004174e-03, 1.390585512879161e-04, 1.041003938701214e-05, 1.827454458634031e+02, 1.283610197558803e+04, 1.768958656564287e+03, 1.313865633856292e+04
888, -1.000000000001556e-04, 2.500000000002911e-03, 1.386485123019251e-04, 5.379761079916520e-06, 1.544415659489612e+02, 8.548283558875755e+03, 1.479996067952802e+03, 8.900457114488239e+03
889, -5.000000000022121e-05, 2.500000000001650e-03, 1.382995209706339e-04, 3.489811178354102e-07, 1.215580548094649e+02, 4.265054365871405e+03, 1.133437502748820e+03, 4.723058751522559e+03
890, -3.205375960317614e-16, 2.500000000000388e-03, 1.380115643105156e-04, -4.685148140011996e-06, 8.366043722589416e+01, -1.274846211196996e+01, 7.288389839789970e+02, 1.460862667789716e+03
891, 4.999999999971200e-05, 2.499999999999127e-03, 1.377846113108758e-04, -9.725487634822103e-06, 4.030011339913835e+01, -4.284266703609917e+03, 2.657537302559839e+02, 4.357106647232280e+03
892, 9.999999999977564e-05, 2.499999999997865e-03, 1.376186126503404e-04, -1.477491174210882e-05, -8.985769597568378e+00, -8.548620738473961e+03, -2.562676237568995e+02, 8.555001915932020e+03
893, 1.499999999998713e-04, 2.499999999996604e-03, 1.375135004104536e-04, -1.983630840364002e-05, -6.467449495032497e+01, -1.280490925805522e+04, -8.376768116457310e+02, 1.284991796013119e+04
894, 1.999999999999386e-04, 2.499999999995341e-03, 1.374691877863912e-04, -2.491257925731061e-05, -1.272578353278423e+02, -1.705220888608951e+04, -1.478927681230290e+03, 1.718146898306182e+04
895, -2.000000000000358e-04, 2.400000000005491e-03, 1.294649366250311e-04, 1.533490693179635e-05, 1.991112287106828e+02, 1.760551586743329e+04, 1.999053352125700e+03, 1.785966908051557e+04
896, -1.500000000000929e-04, 2.400000000004260e-03, 1.290030518477830e-04, 1.045312021974196e-05, 1.745208385999408e+02, 1.319643688378830e+04, 1.771592720240633e+03, 1.349534958989846e+04
897, -1.000000000001632e-04, 2.400000000003029e-03, 1.286038349913383e-04, 5.573806213069804e-06, 1.463093166420517e+02, 8.790638383182159e+03, 1.486167772789027e+03, 9.141072344431857e+03
898, -5.000000000023145e-05, 2.400000000001797e-03, 1.282673091259955e-04, 6.940914049718506e-07, 1.140594491805814e+02, 4.388933393992921e+03, 1.142310550576631e+03, 4.847065175946179e+03
899, -3.333650629849805e-16, 2.400000000000566e-03, 1.279934797069703e-04, -4.188911553586079e-06, 7.733981525976719e+01, -7.843598055797202e+00, 7.395496077269868e+02, 1.481550101434525e+03
900, 4.999999999970184e-05, 2.399999999999334e-03, 1.277823342872951e-04, -9.078103999233858e-06, 3.570454559832478e+01, -4.398836425777451e+03, 2.774102722090252e+02, 4.469113946110430e+03
901, 9.999999999976805e-05, 2.399999999998102e-03, 1.276338422275127e-04, -1.397640140180779e-05, -1.130686803559956e+01, -8.783166935623185e+03, -2.445851677296451e+02, 8.785488982545652e+03
902, 1.499999999998670e-04, 2.399999999996872e-03, 1.275479544023308e-04, -1.888673350835754e-05, -6.416976102784520e+01, -1.315993467310119e+04, -8.269172537110537e+02, 1.319978133190969e+04
903, 1.999999999999366e-04, 2.399999999995640e-03, 1.275246029041474e-04, -2.381204448510050e-05, -1.233746320885109e+02, -1.752821667677052e+04, -1.470069135131341e+03, 1.765142882739508e+04
904, -2.000000000000378e-04, 2.300000000005451e-03, 1.197058151741048e-04, 1.518025837124959e-05, 1.907383065826623e+02, 1.809035157036880e+04, 1.993611020584351e+03, 1.833832311305181e+04
905, -1.500000000000972e-04, 2.300000000004251e-03, 1.192529765095720e-04, 1.045338794868867e-05, 1.656973352677549e+02, 1.356216675104784e+04, 1.771422093909735e+03, 1.385702485193331e+04
906, -1.000000000001708e-04, 2.300000000003051e-03, 1.188644513762216e-04, 5.729143158681454e-06, 1.376063993165396e+02, 9.036738498809345e+03, 1.490462884843193e+03, 9.385119635284551e+03
907, -5.000000000024163e-05, 2.300000000001851e-03, 1.185402821783336e-04, 1.004611547662953e-06, 1.060523462781314e+02, 4.514876229577383e+03, 1.150237637368258e+03, 4.972918109482996e+03
908, -3.461857536746216e-16, 2.300000000000652e-03, 1.182804938490755e-04, -3.723133871112198e-06, 7.060733070464539e+01, -2.588826589866358e+00, 7.502467412613817e+02, 1.502277726832150e+03
909, 4.999999999969163e-05, 2.299999999999453e-03, 1.180850935574347e-04, -8.457034777734087e-06, 3.082873769219941e+01, -4.514803164368054e+03, 2.899868602360711e+02, 4.582481740876467e+03
910, 9.999999999976044e-05, 2.299999999998253e-03, 1.179540704116494e-04, -1.320004770337099e-05, -1.374103913818863e+01, -9.020890687563689e+03, -2.310488688690716e+02, 9.018995460047328e+03
911, 1.499999999998626e-04, 2.299999999997052e-03, 1.178873951592038e-04, -1.795514418712597e-05, -6.357481377204249e+01, -1.351995237931676e+04, -8.133706429881115e+02, 1.355434927976975e+04
912, 1.999999999999347e-04, 2.299999999995853e-03, 1.178850198834068e-04, -2.272531093191505e-05, -1.191608228276234e+02, -1.801106595316616e+04, -1.457491816076142e+03, 1.812780733483093e+04
913, -2.000000000000396e-04, 2.200000000005174e-03, 1.102607376488358e-04, 1.497862700936351e-05, 1.817818904107180e+02, 1.858218250640942e+04, 1.984233557253728e+03, 1.882348198575844e+04
914, -1.500000000001016e-04, 2.200000000004032e-03, 1.098167609462230e-04, 1.041082025718914e-05, 1.562787009747424e+02, 1.393328184505652e+04, 1.768290162463811e+03, 1.422368503682166e+04
915, -1.000000000001784e-04, 2.200000000002889e-03, 1.094387638522457e-04, 5.845805777233820e-06, 1.283308167570660e+02, 9.286581796844664e+03, 1.492774242582739e+03, 9.632604049349757e+03
916, -5.000000000025179e-05, 2.200000000001748e-03, 1.091268091548712e-04, 1.280632270874212e-06, 9.752949742080386e+01, 4.642887245732936e+03, 1.157161704391716e+03, 5.100624461826620e+03
917, -3.590132206278407e-16, 2.200000000000606e-03, 1.088809423301750e-04, -3.287666805266740e-06, 6.345121164487205e+01, 3.025653164005462e+00, 7.609240113110832e+02, 1.523047160161734e+03
918, 4.999999999968146e-05, 2.199999999999464e-03, 1.087011912431635e-04, -7.862073410972661e-06, 2.565727623391217e+01, -4.632152709411868e+03, 3.035283873053926e+02, 4.697202549388560e+03
919, 9.999999999975283e-05, 2.199999999998322e-03, 1.085875658447741e-04, -1.244558509412317e-05, -1.630636083308650e+01, -9.261774395564411e+03, -2.155620030288749e+02, 9.255514415192598e+03
920, 1.499999999998582e-04, 2.199999999997180e-03, 1.085400578652402e-04, -1.704121516122695e-05, -6.290934028994388e+01, -1.388494242621935e+04, -7.968878604569411e+02, 1.391361634073262e+04
921, 1.999999999999328e-04, 2.199999999996038e-03, 1.085586405040585e-04, -2.165199284674464e-05, -1.146369956522451e+02, -1.850073584023125e+04, -1.440993555475556e+03, 1.861060129147679e+04
922, -2.000000000000416e-04, 2.100000000004828e-03, 1.011382959046792e-04, 1.473000334115603e-05, 1.722624567036705e+02, 1.908099078646527e+04, 1.970709560480749e+03, 1.931514410341817e+04
923, -1.500000000001059e-04, 2.100000000003754e-03, 1.007029621536404e-04, 1.032546297304127e-05, 1.462762019765298e+02, 1.430977265720018e+04, 1.762035539368146e+03, 1.459533174700453e+04
924, -1.000000000001860e-04, 2.100000000002678e-03, 1.003352944183975e-04, 5.923895923960107e-06, 1.184852998838885e+02, 9.540166114382610e+03, 1.492991328295868e+03, 9.883529824701289e+03
925, -5.000000000026199e-05, 2.100000000001603e-03, 1.000353769497706e-04, 1.522312160085769e-06, 8.848642320992076e+01, 4.772971132110481e+03, 1.163023725160982e+03, 5.230190601600716e+03
926, -3.718339113174818e-16, 2.100000000000528e-03, 9.980327686159494e-05, -2.882294322987885e-06, 5.586098573355275e+01, 9.010688431889321e+00, 7.715745377837342e+02, 1.543860103695275e+03
927, 4.999999999967128e-05, 2.099999999999452e-03, 9.963904382553473e-05, -7.292945688154067e-06, 2.017492354326214e+01, -4.750868832530115e+03, 3.180807596109908e+02, 4.813269159407728e+03
928, 9.999999999974523e-05, 2.099999999998377e-03, 9.954270976183146e-05, -1.171268044266387e-05, -1.902155651415069e+01, -9.505797276508163e+03, -1.980252390757525e+02, 9.495039207012891e+03
929, 1.499999999998539e-04, 2.099999999997302e-03, 9.951428852623000e-05, -1.614455362305705e-05, -6.219420145544245e+01, -1.425488032881537e+04, -7.773155226651947e+02, 1.427757742745106e+04
930, 1.999999999999309e-04, 2.099999999996226e-03, 9.955377559336808e-05, -2.059163697896596e-05, -1.098250173778627e+02, -1.899719920490346e+04, -1.420366371283343e+03, 1.909980801511624e+04
931, -2.000000000000435e-04, 2.000000000004496e-03, 9.234720496593709e-05, 1.443444981706486e-05, 1.621998200150201e+02, 1.958675001865347e+04, 1.952821429392983e+03, 1.981330857176082e+04
932, -1.500000000001103e-04, 2.000000000003499e-03, 9.192025848959289e-05, 1.019743369821530e-05, 1.357004687168624e+02, 1.469162319988594e+04, 1.752492131203700e+03, 1.497196717988281e+04
933, -1.000000000001936e-04, 2.000000000002501e-03, 9.156268462807614e-05, 5.963587054397946e-06, 1.080721974360465e+02, 9.797485125903097e+03, 1.491000222600855e+03, 1.013790163463464e+04
934, -5.000000000027220e-05, 2.000000000001505e-03, 9.127459019988942e-05, 1.729881246650401e-06, 7.891781562146775e+01, 4.905130124932063e+03, 1.167762681588928e+03, 5.361623259479183e+03
935, -3.846512138753339e-16, 2.000000000000507e-03, 9.105606507866621e-05, -2.506729081080120e-06, 4.782448563077696e+01, 1.537605511394486e+01, 7.821908927261620e+02, 1.564718272181292e+03
936, 4.999999999966107e-05, 1.999999999999510e-03, 9.090718188172968e-05, -6.749306203773583e-06, 1.436351228496801e+01, -4.870935279829897e+03, 3.336908364235460e+02, 4.930673644188098e+03
937, 9.999999999973761e-05, 1.999999999998513e-03, 9.082799565459484e-05, -1.100092951671179e-05, -2.190990131286867e+01, -9.752937722250719e+03, -1.783367362260624e+02, 9.737562242051010e+03
938, 1.499999999998495e-04, 1.999999999997515e-03, 9.081854355141062e-05, -1.526469573585385e-05, -6.145691349849244e+01, -1.462974036011300e+04, -7.544961143188114e+02, 1.464622613941868e+04
939, 1.999999999999290e-04, 1.999999999996517e-03, 9.087884451138954e-05, -1.954371909657521e-05, -1.047552808174541e+02, -1.950042708647169e+04, -1.395396458149788e+03, 1.959542318742615e+04
940, -2.000000000000454e-04, 1.900000000004165e-03, 8.389630288587077e-05, 1.409210459773357e-05, 1.516215679388797e+02, 2.009943157688550e+04, 1.930345793236794e+03, 2.031797390683675e+04
941, -1.500000000001146e-04, 1.900000000003247e-03, 8.347744952512154e-05, 1.002692552689098e-05, 1.245674584103976e+02, 1.507881550760820e+04, 1.739489281682411e+03, 1.535359327848983e+04
942, -1.000000000002012e-04, 1.900000000002328e-03, 8.312969541657423e-05, 5.965127922475480e-06, 9.709709694237586e+01, 1.005853099408219e+04, 1.486683749792504e+03, 1.039572410054607e+04
943, -5.000000000028235e-05, 1.900000000001409e-03, 8.285317108008284e-05, 1.903644682596317e-06, 6.882000775242773e+01, 5.039365857037164e+03, 1.171315593701140e+03, 5.494929200638670e+03
944, -3.974685164331859e-16, 1.900000000000491e-03, 8.264799029983708e-05, -2.160608775102569e-06, 3.932981912932473e+01, 2.213203899697783e+01, 7.927650330796927e+02, 1.585623333057654e+03
945, 4.999999999965091e-05, 1.899999999999572e-03, 8.251424980716701e-05, -6.230734731731415e-06, 8.203968747753834e+00, -4.992334003926610e+03, 3.504062463158839e+02, 5.049407704472574e+03
946, 9.999999999973007e-05, 1.899999999998654e-03, 8.245202895910706e-05, -1.030985338440502e-05, -2.499657069307978e+01, -1.000317088577186e+04, -1.563924620731723e+02, 9.983075531662129e+03
947, 1.499999999998452e-04, 1.899999999997735e-03, 8.246138941263488e-05, -1.440110306308368e-05, -6.072757243911337e+01, -1.500949186042522e+04, -7.282684948258698e+02, 1.501955571047268e+04
948, 1.999999999999271e-04, 1.899999999996817e-03, 8.254237479442442e-05, -1.850764044717488e-05, -9.946181101430420e+01, -2.001038435992993e+04, -1.365864759350895e+03, 2.009744219825656e+04
949, -2.000000000000473e-04, 1.800000000003828e-03, 7.579455069439200e-05, 1.370318539311160e-05, 1.405560113912379e+02, 2.061899787072430e+04, 1.903053655486870e+03, 2.082913905682931e+04
950, -1.500000000001189e-04, 1.800000000002982e-03, 7.538345592142254e-05, 9.814210872524094e-06, 1.128945949116107e+02, 1.547132558418365e+04, 1.722851988730055e+03, 1.574021214445714e+04
951, -1.000000000002088e-04, 1.800000000002135e-03, 7.504520691943322e-05, 5.928846383583833e-06, 8.556681904500124e+01, 1.032329206951347e+04, 1.479921587646122e+03, 1.065700192016515e+04
952, -5.000000000029254e-05, 1.800000000001289e-03, 7.477995906924688e-05, 2.043986521610361e-06, 5.818989369209089e+01, 5.175677991913275e+03, 1.173617623770588e+03, 5.630115251283509e+03
953, -4.102858189910380e-16, 1.800000000000442e-03, 7.458785124370151e-05, -1.843492381374715e-06, 3.036480203735891e+01, 2.928865835859801e+01, 8.032884014631491e+02, 1.606577163346381e+03
954, 4.999999999964072e-05, 1.799999999999596e-03, 7.446900548516651e-05, -5.736732490309976e-06, 1.676001415340806e+00, -5.115045581912552e+03, 3.682755215036960e+02, 5.169462950853674e+03
955, 9.999999999972246e-05, 1.799999999998750e-03, 7.442352667869225e-05, -9.638894701391662e-06, -2.830886261435035e+01, -1.025646889198005e+04, -1.320859792892170e+02, 1.023157096491117e+04
956, 1.499999999998409e-04, 1.799999999997903e-03, 7.445150222059917e-05, -1.355315887656419e-05, -6.003923875022497e+01, -1.539409947564288e+04, -6.984674762320251e+02, 1.539755924197300e+04
957, 1.999999999999252e-04, 1.799999999997057e-03, 7.455300168249571e-05, -1.748272407771409e-05, -9.398203659449223e+01, -2.052702915150317e+04, -1.331546615874694e+03, 2.060586033052412e+04
958, -2.000000000000492e-04, 1.700000000003484e-03, 6.805103213207287e-05, 1.326799344837750e-05, 1.290416241904679e+02, 2.114540895144088e+04, 1.870710401358624e+03, 2.134680128864566e+04
959, -1.500000000001233e-04, 1.700000000002704e-03, 6.764731915857629e-05, 9.559645416628590e-06, 1.007061371244106e+02, 1.586912703103424e+04, 1.702400677252649e+03, 1.613182474957911e+04
960, -1.000000000002164e-04, 1.700000000001925e-03, 6.731821817973427e-05, 5.855153315890145e-06, 7.349255768109583e+01, 1.059175486265422e+04, 1.470590142296959e+03, 1.092173902740321e+04
961, -5.000000000030273e-05, 1.700000000001145e-03, 6.706391062586991e-05, 2.151373611845909e-06, 4.702664966114276e+01, 5.314065219761189e+03, 1.174601969170926e+03, 5.767187741251572e+03
962, -4.231031215488901e-16, 1.700000000000365e-03, 6.688456166551972e-05, -1.554856291992153e-06, 2.091760147452646e+01, 3.685595829469048e+01, 8.137518278889231e+02, 1.627581697116425e+03
963, 4.999999999963053e-05, 1.699999999999585e-03, 6.678031987836123e-05, -5.266718305349020e-06, -5.242225297067307e+00, -5.239049511193442e+03, 3.873479820927851e+02, 5.290830987928776e+03
964, 9.999999999971485e-05, 1.699999999998805e-03, 6.675131692375845e-05, -8.987413902976494e-06, -3.187761450271523e+01, -1.051280178113684e+04, -1.053085948738454e+02, 1.048304015957930e+04
965, 1.499999999998365e-04, 1.699999999998025e-03, 6.679766720463947e-05, -1.272016437774755e-05, -5.943082555752198e+01, -1.578352497416797e+04, -6.649241022793065e+02, 1.578022918216123e+04
966, 1.999999999999232e-04, 1.699999999997246e-03, 6.691946752619526e-05, -1.646821109471168e-05, -8.836182528549648e+01, -2.105031614548757e+04, -1.292211782231691e+03, 2.112067172423244e+04
967, -2.000000000000511e-04, 1.600000000003144e-03, 6.067495352166018e-05, 1.278691762028918e-05, 1.171212683568087e+02, 2.167861780660898e+04, 1.833074980409466e+03, 2.187095764945543e+04
968, -1.500000000001277e-04, 1.600000000002436e-03, 6.027820133021875e-05, 9.263672162066381e-06, 8.802994072446518e+01, 1.627218823342894e+04, 1.677950961602372e+03, 1.652843178772518e+04
969, -1.000000000002240e-04, 1.600000000001727e-03, 5.995784687796781e-05, 5.744546644203954e-06, 6.088821290190458e+01, 1.086390253422502e+04, 1.458562381533262e+03, 1.118993902172877e+04
970, -5.000000000031292e-05, 1.600000000001018e-03, 5.971409886146827e-05, 2.226359592552200e-06, 3.533110757102077e+01, 5.454524617309095e+03, 1.174199780904282e+03, 5.906152622299050e+03
971, -4.359339766338982e-16, 1.600000000000309e-03, 5.954714998065095e-05, -1.294090345973413e-06, 1.097695235008428e+01, 4.484410675256458e+01, 8.241454857470185e+02, 1.648638866112308e+03
972, 4.999999999962034e-05, 1.599999999999600e-03, 5.945717660772859e-05, -4.820024670347333e-06, -1.257298840249564e+01, -5.364323300586442e+03, 4.076737044593726e+02, 5.413503745375215e+03
973, 9.999999999970728e-05, 1.599999999998891e-03, 5.944433845242414e-05, -8.354685295045022e-06, -3.573488272798704e+01, -1.077213545414088e+04, -7.594939880264889e+01, 1.073747505117237e+04
974, 1.499999999998322e-04, 1.599999999998182e-03, 5.950877822276587e-05, -1.190133482252163e-05, -5.894271655726493e+01, -1.617772331710629e+04, -6.274656402182582e+02, 1.616755827474433e+04
975, 1.999999999999214e-04, 1.599999999997473e-03, 5.965062128078191e-05, -1.546325681849386e-05, -8.264870141792289e+01, -2.158019045857243e+04, -1.247624729923313e+03, 2.164187079407569e+04
976, -2.000000000000531e-04, 1.500000000002802e-03, 5.367564351866197e-05, 1.226043853421981e-05, 1.048421410224689e+02, 2.221856976433790e+04, 1.789900835209783e+03, 2.240160550937639e+04
977, -1.500000000001320e-04, 1.500000000002160e-03, 5.328538484135941e-05, 8.926825564563298e-06, 7.489761637957417e+01, 1.668047225202465e+04, 1.649313998055307e+03, 1.693003412981509e+04
978, -1.000000000002316e-04, 1.500000000001518e-03, 5.297332897533397e-05, 5.597615451169640e-06, 4.777020066457089e+01, 1.113971465043636e+04, 1.443708121247885e+03, 1.146160565689867e+04
979, -5.000000000032311e-05, 1.500000000000877e-03, 5.273971312819573e-05, 2.269588983162212e-06, 2.310520757068366e+01, 5.597051215415822e+03, 1.172340393340676e+03, 6.047015965730986e+03
980, -4.487512791917503e-16, 1.500000000000236e-03, 5.258475879537506e-05, -1.060493762939767e-06, 5.310872178229147e-01, 5.326259150394208e+01, 8.344590863127617e+02, 1.669751022896525e+03
981, 4.999999999961016e-05, 1.499999999999595e-03, 5.250867142465594e-05, -4.395893705719202e-06, -2.034090680292729e+01, -5.490843878472038e+03, 4.293036675303578e+02, 5.537473188997004e+03
982, 9.999999999969963e-05, 1.499999999998952e-03, 5.251164007859290e-05, -7.739893043413801e-06, -3.991717134547321e+01, -1.103443400424339e+04, -4.389516280469849e+01, 1.099486732662775e+04
983, 1.499999999998278e-04, 1.499999999998311e-03, 5.259383709551492e-05, -1.109579554421935e-05, -5.862226770060806e+01, -1.657664655241204e+04, -5.859155056753214e+02, 1.655953846547299e+04
984, 1.999999999999195e-04, 1.499999999997670e-03, 5.275541774584006e-05, -1.446692684426014e-05, -7.689943740005424e+01, -2.211659279838816e+04, -1.197544344922454e+03, 2.216945045053228e+04
985, -2.000000000000549e-04, 1.400000000002461e-03, 4.706255276871542e-05, 1.168913285322933e-05, 9.225965306254784e+01, 2.276520480657152e+04, 1.740935511875947e+03, 2.293874163418885e+04
986, -1.500000000001364e-04, 1.400000000001890e-03, 4.667827203089070e-05, 8.549735772802488e-06, 6.134632913945393e+01, 1.709393781478616e+04, 1.616296315257193e+03, 1.733663254013826e+04
987, -1.000000000002392e-04, 1.400000000001320e-03, 4.637401829224168e-05, 5.415044185235673e-06, 3.415858907387565e+01, 1.141916804378984e+04, 1.425893899479151e+03, 1.173674290142965e+04
988, -5.000000000033329e-05, 1.400000000000748e-03, 4.615005854763708e-05, 2.281801365334373e-06, 1.035292779822976e+01, 5.741638998376385e+03, 1.168951300603875e+03, 6.189784212356450e+03
989, -4.615719698813914e-16, 1.400000000000178e-03, 4.600664438499603e-05, -8.532709840571541e-07, -1.043115777349794e+01, 6.212154981318031e+01, 8.446819277457321e+02, 1.690921089707956e+03
990, 4.999999999959998e-05, 1.399999999999606e-03, 4.594401164025631e-05, -3.993473024486614e-06, -2.857140778632834e+01, -5.618585847551416e+03, 4.522897987073342e+02, 5.662731291951002e+03
991, 9.999999999969204e-05, 1.399999999999035e-03, 4.596238005776739e-05, -7.142127072057518e-06, -4.446326121260131e+01, -1.129965743906710e+04, -9.030398587564775e+00, 1.125520866859449e+04
992, 1.499999999998235e-04, 1.399999999998463e-03, 4.606195295435143e-05, -1.030257789639752e-05, -5.852047282480976e+01, -1.698024048787469e+04, -5.400935185873363e+02, 1.695616148492989e+04
993, 1.999999999999176e-04, 1.399999999997893e-03, 4.624291688591149e-05, -1.347819303952877e-05, -7.117571097205655e+01, -2.265945506650251e+04, -1.141724303629789e+03, 2.270340286797288e+04
994, -2.000000000000568e-04, 1.300000000002126e-03, 4.084525358891402e-05, 1.107367766328052e-05, 7.943397425770263e+01, 2.331845362977085e+04, 1.685920461053202e+03, 2.348236243978272e+04
995, -1.500000000001407e-04, 1.300000000001629e-03, 4.046638479440613e-05, 8.133132966103851e-06, 4.741604186329391e+01, 1.751253609764176e+04, 1.578699420517174e+03, 1.774822768628237e+04
996, -1.000000000002468e-04, 1.300000000001133e-03, 4.016938607111835e-05, 5.197616957455842e-06, 2.007449057395911e+01, 1.170223421814062e+04, 1.404982482087173e+03, 1.201535513417176e+04
997, -5.000000000034346e-05, 1.300000000000637e-03, 3.995455550864129e-05, 2.263835643565442e-06, -2.921719099298798e+00, 5.888279793757025e+03, 1.163957703054091e+03, 6.334464886876906e+03
998, -4.743892724392434e-16, 1.300000000000140e-03, 3.982217611591698e-05, -6.715274388105691e-07, -2.192130184441385e+01, 7.143266124567572e+01, 8.548027123497118e+02, 1.712152350284963e+03
999, 4.999999999958981e-05, 1.299999999999644e-03, 3.977251546588005e-05, -3.611811519518362e-06, -3.729085204942930e+01, -5.747519239622799e+03, 4.766852522393326e+02, 5.789267963832618e+03
1000, 9.999999999968445e-05, 1.299999999999148e-03, 3.980582534447343e-05, -6.560378870041946e-06, -4.941449800104078e+01, -1.156775980898405e+04, 2.876332535572078e+01, 1.151848896420821e+04
1001, 1.499999999998191e-04, 1.299999999998652e-03, 3.992234142399970e-05, -9.520615088220092e-06, -5.869372363474076e+01, -1.738844497205911e+04, -4.898150451393410e+02, 1.735741782195859e+04
1002, 1.999999999999157e-04, 1.299999999998155e-03, 4.012228294184317e-05, -1.249592942447424e-05, -6.554822529626813e+01, -2.320870331476047e+04, -1.079912564781765e+03, 2.324371898137833e+04
1003, -2.000000000000587e-04, 1.200000000001781e-03, 3.503343952985540e-05, 1.041485498656870e-05, 6.643325794931479e+01, 2.387823811255284e+04, 1.624591359176264e+03, 2.403246218702862e+04
1004, -1.500000000001450e-04, 1.200000000001350e-03, 3.465936413923888e-05, 7.677851837809537e-06, 3.314857726301057e+01, 1.793620569616609e+04, 1.536319311353520e+03, 1.816481660541765e+04
1005, -1.000000000002543e-04, 1.200000000000919e-03, 3.436902053232852e-05, 4.946221965127395e-06, 5.536285440096890e+00, 1.198887210205003e+04, 1.380831062479282e+03, 1.229744343292853e+04
1006, -5.000000000035367e-05, 1.200000000000488e-03, 3.416273919116130e-05, 2.216634381363953e-06, -1.671811753507563e+01, 6.036959824361998e+03, 1.157279776183582e+03, 6.481064923734778e+03
1007, -4.872353741173022e-16, 1.200000000000057e-03, 3.404083588447964e-05, -5.142653047281358e-07, -3.395218669512178e+01, 8.121303581738243e+01, 8.648072186717660e+02, 1.733444296867810e+03
1008, 4.999999999957962e-05, 1.199999999999626e-03, 3.400361130191998e-05, -3.249855186951828e-06, -4.652472566420420e+01, -5.877599316334255e+03, 5.025437553441665e+02, 5.917062766787215e+03
1009, 9.999999999967686e-05, 1.199999999999196e-03, 3.405135071314338e-05, -5.993537321611647e-06, -5.481189343171377e+01, -1.183867804326080e+04, 6.960890656801206e+01, 1.178468849976877e+04
1010, 1.499999999998148e-04, 1.199999999998765e-03, 3.418432360026210e-05, -8.748737981947777e-06, -5.920328116039923e+01, -1.780118889356327e+04, -4.348883507377614e+02, 1.776329262780805e+04
1011, 1.999999999999137e-04, 1.199999999998334e-03, 3.440278333253051e-05, -1.151890795514671e-05, -6.010000250365647e+01, -2.376426138479364e+04, -1.011849295891027e+03, 2.379038929542828e+04
1012, -2.000000000000607e-04, 1.100000000001707e-03, 2.963692484948141e-05, 9.713556481236374e-06, 5.333973813988950e+01, 2.444447368332227e+04, 1.556680497304899e+03, 2.458903072133154e+04
1013, -1.500000000001494e-04, 1.100000000001301e-03, 2.926696973779934e-05, 7.184836404920977e-06, 1.858340098560780e+01, 1.836485524639898e+04, 1.488946669279406e+03, 1.858638048038511e+04
1014, -1.000000000002619e-04, 1.100000000000895e-03, 2.898262657901336e-05, 4.661856269058914e-06, -9.448856367132976e+00, 1.227900488033913e+04, 1.353286155464144e+03, 1.258298966515723e+04
1015, -5.000000000036384e-05, 1.100000000000489e-03, 2.878425938405491e-05, 2.141248311117911e-06, -3.104771254752086e+01, 6.187645797333809e+03, 1.148823237069264e+03, 6.629579797389981e+03
1016, -5.000628410705213e-16, 1.100000000000083e-03, 2.867221783156598e-05, -3.803793874594974e-07, -4.654179162103492e+01, 9.149228157276434e+01, 8.746685680427211e+02, 1.754774578414586e+03
1017, 4.999999999956943e-05, 1.099999999999677e-03, 2.864683714662727e-05, -2.906443307418358e-06, -5.629557696329630e+01, -6.008740489406594e+03, 5.299150548217384e+02, 6.046059898560301e+03
1018, 9.999999999966927e-05, 1.099999999999272e-03, 2.870843772313543e-05, -5.440384913739455e-06, -6.069221675671611e+01, -1.211230246204922e+04, 1.136366045745904e+02, 1.205375305106406e+04
1019, 1.499999999998105e-04, 1.099999999998866e-03, 2.885732466778806e-05, -7.985671030911413e-06, -6.011414644526599e+01, -1.821837539366484e+04, -3.751062854436473e+02, 1.817375223842874e+04
1020, 1.999999999999118e-04, 1.099999999998460e-03, 2.909378714237852e-05, -1.054579410911442e-05, -5.493752830785206e+01, -2.432606663675980e+04, -9.372598423966678e+02, 2.434340839422083e+04
1021, -2.000000000000626e-04, 1.000000000002109e-03, 2.466564389747698e-05, 8.970788271343052e-06, 4.025877287748790e+01, 2.501707660554730e+04, 1.481925498665307e+03, 2.515205442465387e+04
1022, -1.500000000001537e-04, 1.000000000001674e-03, 2.429907952811020e-05, 6.655145619725612e-06, 3.762439200031167e+00, 1.879833821970618e+04, 1.436370274175885e+03, 1.901285662459307e+04
1023, -1.000000000002696e-04, 1.000000000001239e-03, 2.402002596168284e-05, 4.345631550756864e-06, -2.488783461681010e+01, 1.257247954569100e+04, 1.322173700953510e+03, 1.287191664424594e+04
1024, -5.000000000037402e-05, 1.000000000000804e-03, 2.382888103685965e-05, 2.038841392930954e-06, -4.593823074577085e+01, 6.340262965055530e+03, 1.138456356743274e+03, 6.779962921586713e+03
1025, -5.128852258260569e-16, 1.000000000000369e-03, 2.372602889971213e-05, -2.686533254881909e-07, -5.972115669931441e+01, 1.023229937153085e+02, 8.843223770981352e+02, 1.776052525470343e+03
1026, 4.999999999955924e-05, 9.999999999999337e-04, 2.371184049445135e-05, -2.580305721727749e-06, -6.663304942464288e+01, -6.140776418964316e+03, 5.588300515304345e+02, 6.176113808836169e+03
1027, 9.999999999966167e-05, 9.999999999994987e-04, 2.378667372257163e-05, -4.899595193269500e-06, -6.709456558891475e+01, -1.238842711011955e+04, 1.609878891343823e+02, 1.232553869308362e+04
1028, 1.499999999998061e-04, 9.999999999990637e-04, 2.395087208554704e-05, -7.230028873340305e-06, -6.150539577301356e+01, -1.863986211053201e+04, -3.102283926080703e+02, 1.858871444837301e+04
1029, 1.999999999999099e-04, 9.999999999986283e-04, 2.420476313923421e-05, -9.575142033630656e-06, -5.020538884022017e+01, -2.489410139434173e+04, -8.558372323080538e+02, 2.490279097219814e+04
1030, -2.000000000000644e-04, 9.000000000025380e-04, 2.012965121442210e-05, 8.187675687999909e-06, 2.732310061466387e+01, 2.559598283359360e+04, 1.400080656018263e+03, 2.572153307861498e+04
1031, -1.500000000001581e-04, 9.000000000020734e-04, 1.976569012855514e-05, 6.089960296066829e-06, -1.123576762474863e+01, 1.923646402908958e+04, 1.378381976886143e+03, 1.944411723275846e+04
1032, -1.000000000002772e-04, 9.000000000016087e-04, 1.949115820686927e-05, 3.998781758787021e-06, -4.072038350867683e+01, 1.286912066023619e+04, 1.287285597191995e+03, 1.316405760431453e+04
1033, -5.000000000038420e-05, 9.000000000011442e-04, 1.930648586130417e-05, 1.910696950239065e-06, -6.137968887861734e+01, 6.494738921281440e+03, 1.125984224571383e+03, 6.932103081058555e+03
1034, -5.256991402521199e-16, 9.000000000006796e-04, 1.921209019735674e-05, -1.777562617981201e-07, -7.354253583049240e+01, 1.137907794224529e+02, 8.936350214135331e+02, 1.797060927456474e+03
1035, 4.999999999954906e-05, 9.000000000002148e-04, 1.920837917388474e-05, -2.270062031369442e-06, -7.764297233369007e+01, -6.273487326839211e+03, 5.892815926161006e+02, 6.306940498121306e+03
1036, 9.999999999965402e-05, 8.999999999997502e-04, 1.929575143525444e-05, -4.369732611530487e-06, -7.415552224732392e+01, -1.266679777149919e+04, 2.118146518469919e+02, 1.259976589483278e+04
1037, 1.499999999998018e-04, 8.999999999992857e-04, 1.947459445079018e-05, -6.480314179542850e-06, -6.351103226517034e+01, -1.906548155547750e+04, -2.399596515726810e+02, 1.900803004791822e+04
1038, 1.999999999999080e-04, 8.999999999988212e-04, 1.974527857203167e-05, -8.605388766645883e-06, -4.609213699152110e+01, -2.546844514328347e+04, -7.672187415314301e+02, 2.546861854844015e+04
1039, -2.000000000000664e-04, 8.000000000027327e-04, 1.603912737366399e-05, 7.365466858075842e-06, 1.448668759958764e+01, 2.618099390646138e+04, 1.310870478422999e+03, 2.629752128394519e+04
1040, -1.500000000001624e-04, 8.000000000022627e-04, 1.567692095240638e-05, 5.490589861296385e-06, -2.609539700546929e+01, 1.967938597574241e+04, 1.314728618786115e+03, 1.988014188822440e+04
1041, -1.000000000002848e-04, 8.000000000017928e-04, 1.540608261181793e-05, 3.622669954020021e-06, -5.644293692568181e+01, 1.316938193043190e+04, 1.248393176503286e+03, 1.345943481408391e+04
1042, -5.000000000039436e-05, 8.000000000013229e-04, 1.522707077069835e-05, 1.758223193798244e-06, -7.698475430820463e+01, 6.651543274013015e+03, 1.111220420356091e+03, 7.086066096105068e+03
1043, -5.385198309417610e-16, 8.000000000008525e-04, 1.514033488038182e-05, -1.062396850982001e-07, -8.805970976338222e+01, 1.260138241487334e+02, 9.025082775957153e+02, 1.817666702791455e+03
1044, 4.999999999953886e-05, 8.000000000003829e-04, 1.514631970350197e-05, -1.974220476851183e-06, -8.982866728925637e+01, -6.407151548844208e+03, 6.212800228449753e+02, 6.438363445547539e+03
1045, 9.999999999964645e-05, 7.999999999999128e-04, 1.524547087027489e-05, -3.849251889507232e-06, -8.249305353388468e+01, -1.294778677285951e+04, 2.662727218551561e+02, 1.287631108408523e+04
1046, 1.499999999997974e-04, 7.999999999994429e-04, 1.543822563081657e-05, -5.734915264061002e-06, -6.653836054423641e+01, -1.949545146627842e+04, -1.640068067830026e+02, 1.943168179548168e+04
1047, 1.999999999999061e-04, 7.999999999989728e-04, 1.572500555812803e-05, -7.634846383449184e-06, -4.261195820938838e+01, -2.604913883520071e+04, -6.710238480164630e+02, 2.604113154649965e+04
1048, -2.000000000000683e-04, 7.000000000024487e-04, 1.240440624508073e-05, 6.505536300611138e-06, 8.364362454422007e-01, 2.677115348087872e+04, 1.213607905132481e+03, 2.688012744128612e+04
1049, -1.500000000001667e-04, 7.000000000020254e-04, 1.204303419707662e-05, 4.858463757591308e-06, -4.005092888312947e+01, 2.012895423629403e+04, 1.244802295492988e+03, 2.032207913507871e+04
1050, -1.000000000002923e-04, 7.000000000016023e-04, 1.177497491314568e-05, 3.218772190517855e-06, -6.986576493049279e+01, 1.347735607827226e+04, 1.205348915720631e+03, 1.376003937870330e+04
1051, -5.000000000040459e-05, 7.000000000011791e-04, 1.160072517153060e-05, 1.582941296165672e-06, -9.087867370666572e+01, 6.814065314594314e+03, 1.094641342432758e+03, 7.243701412663682e+03
1052, -5.513337453678241e-16, 7.000000000007558e-04, 1.152077410091873e-05, -5.253278927835604e-08, -1.032099643588135e+02, 1.391113733835564e+02, 9.116963390004141e+02, 1.839423955729696e+03
1053, 4.999999999952868e-05, 7.000000000003326e-04, 1.153561756484349e-05, -1.691156946372307e-06, -1.050238853875458e+02, -6.545010341148975e+03, 6.554187073203298e+02, 6.572040800087326e+03
1054, 9.999999999963887e-05, 6.999999999999092e-04, 1.164574128494595e-05, -3.336472684799102e-06, -9.443707343789038e+01, -1.323553256104724e+04, 3.244916300777080e+02, 1.315711100076414e+04
1055, 1.499999999997930e-04, 6.999999999994860e-04, 1.185163136809954e-05, -4.992087890603885e-06, -7.153149518978057e+01, -1.993179917106867e+04, -8.249335380445331e+01, 1.986095296734896e+04
1056, 1.999999999999042e-04, 6.999999999990628e-04, 1.215375512411827e-05, -6.661693560043536e-06, -3.890413189097944e+01, -2.663552207125993e+04, -5.672609512990973e+02, 2.662080437853517e+04
1057, -2.000000000000702e-04, 6.000000000020976e-04, 9.236058299319041e-06, 5.609394247592047e-06, -1.838430278167334e+01, 2.736137191198708e+04, 1.105694017725333e+03, 2.746891492985303e+04
1058, -1.500000000001711e-04, 6.000000000017323e-04, 8.874482086807918e-06, 4.195057748383830e-06, -5.092480064322581e+01, 2.059367036968561e+04, 1.166283466616065e+03, 2.077595192150705e+04
1059, -1.000000000003000e-04, 6.000000000013669e-04, 8.608103993167882e-06, 2.788545742502332e-06, -7.494150571798173e+01, 1.380927203672500e+04, 1.158566307683113e+03, 1.407623846236454e+04
1060, -5.000000000041474e-05, 6.000000000010013e-04, 8.437510971856926e-06, 1.386387029853345e-06, -9.782266354448893e+01, 6.995039497851215e+03, 1.079748583768377e+03, 7.414318691367279e+03
1061, -5.641662945187267e-16, 6.000000000006360e-04, 8.363354059400707e-06, -1.493306471122312e-08, -1.184728768526265e+02, 1.531033680729997e+02, 9.261324180194406e+02, 1.872068022170681e+03
1062, 4.999999999951849e-05, 6.000000000002706e-04, 8.386208141095829e-06, -1.418997541009110e-06, -1.277808265293920e+02, -6.699950121416326e+03, 6.950262296712735e+02, 6.717563180229784e+03
1063, 9.999999999963128e-05, 5.999999999999052e-04, 8.506577455891045e-06, -2.829431027657864e-06, -1.159907790362008e+02, -1.354670569254758e+04, 3.867101274606360e+02, 1.345296554588391e+04
1064, 1.499999999997888e-04, 5.999999999995398e-04, 8.724879821572757e-06, -4.249867410414531e-06, -8.107710637294736e+01, -2.038354620561512e+04, 2.354723003848903e+00, 2.030246964545361e+04
1065, 1.999999999999023e-04, 5.999999999991742e-04, 9.041583306006636e-06, -5.683972463054253e-06, -3.028400024871712e+01, -2.722272865076029e+04, -4.579631616722752e+02, 2.720786590493512e+04
1066, -2.000000000000721e-04, 5.000000000017480e-04, 6.545024687059675e-06, 4.678764609961015e-06, -5.124236941772733e+01, 2.794168005685795e+04, 9.786088281367429e+02, 2.806126167722180e+04
1067, -1.500000000001754e-04, 5.000000000014432e-04, 6.181999061333060e-06, 3.501602203244840e-06, -5.502932237620007e+01, 2.109882641863075e+04, 1.072493849557082e+03, 2.126232783447484e+04
1068, -1.000000000003076e-04, 5.000000000011384e-04, 5.915676107093021e-06, 2.332946136671478e-06, -6.575414059982995e+01, 1.420323561105006e+04, 1.110239216942333e+03, 1.444072688641526e+04
1069, -5.000000000042491e-05, 5.000000000008338e-04, 5.747138685897469e-06, 1.169751231291635e-06, -9.281994182606286e+01, 7.222209162441679e+03, 1.079398155185936e+03, 7.626929415299405e+03
1070, -5.769852911424733e-16, 5.000000000005289e-04, 5.677513572020291e-06, 8.413286180788347e-09, -1.326934671464733e+02, 1.673066853763848e+02, 9.625813150189206e+02, 1.948397095976063e+03
1071, 4.999999999950832e-05, 5.000000000002242e-04, 5.707708515629308e-06, -1.155220988452193e-06, -1.607904714097240e+02, -6.900641180919243e+03, 7.522910287927727e+02, 6.905747950402210e+03
1072, 9.999999999962365e-05, 4.999999999999196e-04, 5.837989133963963e-06, -2.325357317394691e-06, -1.519028007078359e+02, -1.392028310053271e+04, 4.540701500569601e+02, 1.379829753575769e+04
1073, 1.499999999997844e-04, 4.999999999996149e-04, 6.068389963789488e-06, -3.505746956966572e-06, -9.915329282757921e+01, -2.087707645264354e+04, 8.293113884038780e+01, 2.077858515708839e+04
1074, 1.999999999999003e-04, 4.999999999993100e-04, 6.398977983726480e-06, -4.699646261727790e-06, -9.075096818217844e+00, -2.780110781768749e+04, -3.516987799531197e+02, 2.780093255423549e+04
1075, -2.000000000000740e-04, 4.000000000013997e-04, 4.342559610367131e-06, 3.715699264691032e-06, -1.103984967919541e+02, 2.849296226541021e+04, 8.117833115214858e+02, 2.864940165993254e+04
1076, -1.500000000001797e-04, 4.000000000011572e-04, 3.976220015083365e-06, 2.778326529361945e-06, -3.701226390868715e+01, 2.171229417199142e+04, 9.504421754675725e+02, 2.183221683105763e+04
1077, -1.000000000003152e-04, 4.000000000009148e-04, 3.707387120525805e-06, 1.851391323191027e-06, -5.656530435482455e+01, 1.470573930841907e+04, 1.071596171553607e+03, 1.491706777151189e+04
1078, -5.000000000043512e-05, 4.000000000006724e-04, 3.538264824279132e-06, 9.331659670369800e-07, -1.364159017752818e+02, 7.463183092703342e+03, 1.120917275282492e+03, 7.923365890137058e+03
1079, -5.898025937003254e-16, 4.000000000004300e-04, 3.471624701904307e-06, 1.954711274733337e-08, -1.451416445783370e+02, 1.784897769266577e+02, 1.054937855382905e+03, 2.134552133789398e+03
1080, 4.999999999949812e-05, 4.000000000001875e-04, 3.508758958301704e-06, -8.958738740451317e-07, -1.406911691771838e+02, -7.118892236810087e+03, 8.539954322128026e+02, 7.184185613782143e+03
1081, 9.999999999961606e-05, 3.999999999999452e-04, 3.649606060125398e-06, -1.819572211049710e-06, -1.824007683188352e+02, -1.440251237995640e+04, 5.360982359202412e+02, 1.426047613236167e+04
1082, 1.499999999997800e-04, 3.999999999997027e-04, 3.892643474395854e-06, -2.755839157648253e-06, -1.387900661737749e+02, -2.148085200553967e+04, 1.436778890820697e+02, 2.134399637291420e+04
1083, 1.999999999998984e-04, 3.999999999994603e-04, 4.236907894599785e-06, -3.706658235599950e-06, 3.628934458523054e+01, -2.835302478117470e+04, -2.709871658346121e+02, 2.839448701257448e+04
1084, -2.000000000000760e-04, 3.000000000010516e-04, 2.637860954308451e-06, 2.722927821346259e-06, -5.262471180647481e+01, 2.916344781510793e+04, 5.859759961246265e+02, 2.923956848809605e+04
1085, -1.500000000001842e-04, 3.000000000008717e-04, 2.265984956730350e-06, 2.022954724446898e-06, -4.164317458876303e+01, 2.243949608498592e+04, 8.239163503799796e+02, 2.254145015339705e+04
1086, -1.000000000003227e-04, 3.000000000006917e-04, 1.990475670693324e-06, 1.341070434260830e-06, -3.943224887633164e+02, 1.491525568221196e+04, 1.077415222141024e+03, 1.546048117028728e+04
1087, -5.000000000044532e-05, 3.000000000005118e-04, 1.818942200960650e-06, 6.768457452216187e-07, -3.348770261030531e+02, 7.539836441393498e+03, 1.221163375397836e+03, 8.244760284739859e+03
1088, -6.026207432911247e-16, 3.000000000003319e-04, 1.754212053801895e-06, 2.077556783285256e-08, -1.578639110724630e+02, 1.791453494486871e+02, 1.199557680301581e+03, 2.422669964142670e+03
1089, 4.999999999948792e-05, 3.000000000001520e-04, 1.797496352210005e-06, -6.365759880518376e-07, 3.564808742638206e+01, -7.192086522121139e+03, 1.017714733352946e+03, 7.508869468833886e+03
1090, 9.999999999960845e-05, 2.999999999999720e-04, 1.948835341401826e-06, -1.304695391363384e-06, 1.439422476348213e+02, -1.459915399307506e+04, 6.677940572286332e+02, 1.480346859267494e+04
1091, 1.499999999997756e-04, 2.999999999997920e-04, 2.206635783950507e-06, -1.993275569842145e-06, -1.373962591420259e+02, -2.219087832509664e+04, 2.045318175851227e+02, 2.205727554098648e+04
1092, 1.999999999998966e-04, 2.999999999996122e-04, 2.564596628362456e-06, -2.703107223994583e-06, -3.524208858264137e+01, -2.902803705330828e+04, -2.424615633827958e+02, 2.899685000660404e+04
1093, -2.000000000000778e-04, 2.000000000007014e-04, 1.426625473730948e-06, 1.700784523746896e-06, 3.402309611087560e+02, 3.008242741069549e+04, 4.499920137285332e+02, 2.975580986791466e+04
1094, -1.500000000001885e-04, 2.000000000005817e-04, 1.044959317645986e-06, 1.233127992100231e-06, -1.521449060372293e+03, 2.114956997791035e+04, 8.491239121405370e+02, 2.273453650081412e+04
1095, -1.000000000003304e-04, 2.000000000004620e-04, 7.705324144827092e-07, 8.098174603139962e-07, -1.140830314275399e+03, 1.402400217987970e+04, 1.119106916241164e+03, 1.532911431674046e+04
1096, -5.000000000045550e-05, 2.000000000003424e-04, 6.035183975279424e-07, 4.075208652654469e-07, -6.533441994608620e+02, 7.070178795997766e+03, 1.164409103157820e+03, 8.066982192830565e+03
1097, -6.154388928819240e-16, 2.000000000002227e-04, 5.428916848272908e-07, 1.488531100789336e-08, -1.762115684939654e+02, 1.527531825021338e+02, 1.127377921689939e+03, 2.278627157007840e+03
1098, 4.999999999947777e-05, 2.000000000001030e-04, 5.885552924102440e-07, -3.785207330614036e-07, 3.207066242201013e+02, -6.772544996414123e+03, 1.026446557709522e+03, 7.384347547140841e+03
1099, 9.999999999960084e-05, 1.999999999999833e-04, 7.417679460905811e-07, -7.831825107362526e-07, 8.685809739461629e+02, -1.374887112636743e+04, 8.395903270388710e+02, 1.471358398127361e+04
1100, 1.499999999997714e-04, 1.999999999998636e-04, 1.004757964806418e-06, -1.210541471022951e-06, 1.354900876283431e+03, -2.090107097926316e+04, 4.200260147997167e+02, 2.227182010180839e+04
1101, 1.999999999998946e-04, 1.999999999997439e-04, 1.378476647540664e-06, -1.684089886035743e-06, -4.103263577170928e+02, -2.992911716048853e+04, -1.361683588086324e+02, 2.952004704849818e+04
1102, -2.000000000000798e-04, 1.000000000003506e-04, 6.283773254215315e-07, 6.558598787182435e-07, -9.421645997632311e+03, 1.676185468003195e+04, 1.764589553875941e+03, 2.642027276376678e+04
1103, -1.500000000001928e-04, 1.000000000002906e-04, 2.966070621171056e-07, 4.722881491655119e-07, -4.413408062405095e+03, 1.413426000394725e+04, 1.423057182640021e+03, 1.876476372565986e+04
1104, -1.000000000003380e-04, 1.000000000002307e-04, 7.399852052008500e-08, 3.077710120017884e-07, -1.859278071755302e+03, 1.014218550798283e+04, 5.569540644340866e+02, 1.205304606210975e+04
1105, -5.000000000046567e-05, 1.000000000001708e-04, -5.617538183076798e-08, 1.546067429096086e-07, -7.337825832322233e+02, 5.274437115548453e+03, 7.176788551727668e+00, 6.008236844032685e+03
1106, -6.282434899455673e-16, 1.000000000001108e-04, -1.018085413275087e-07, 5.775960369853663e-09, -1.778680549606588e+02, 7.174601866512148e+01, -2.103384332325048e+02, 4.891586774563812e+02
1107, 4.999999999946757e-05, 1.000000000000509e-04, -6.516090598677514e-08, -1.434018556285192e-07, 3.873255382974539e+02, -5.142260451726444e+03, -8.090049574261184e+01, 5.531952709659960e+03
1108, 9.999999999959325e-05, 9.999999999999091e-05, 5.677532310578454e-08, -2.976561603359753e-07, 1.548296458136268e+03, -1.003943599097977e+04, 3.773883322067795e+02, 1.161228793672634e+04
1109, 1.499999999997670e-04, 9.999999999993101e-05, 2.727612379103091e-07, -4.641869108935372e-07, 4.197756844997625e+03, -1.405613456340269e+04, 1.146096919083283e+03, 1.839724718922371e+04
1110, 1.999999999998927e-04, 9.999999999987105e-05, 6.007521928026891e-07, -6.506528144491476e-07, 9.397422342402015e+03, -1.664907410691724e+04, 1.363718372915898e+03, 2.618890773756924e+04
