"PointID","x","y","Displacement_x","Displacement_y","Sxx","Syy","Sxy","Von_Mises_Stress"
0, -2.500000000000000e-04, 0.000000000000000e+00, 0.000000000000000e+00, 0.000000000000000e+00, 3.571361158116459e+04, 4.364481897950533e+04, 4.475446774112152e+03, 1.195920340604418e+04
1, 2.500000000000000e-04, 0.000000000000000e+00, 0.000000000000000e+00, 0.000000000000000e+00, -3.597773149482816e+04, -4.397704724000226e+04, 4.397195376860434e+03, 1.188824466101373e+04
2, 2.500000000000000e-04, 1.000000000000000e-02, 6.915694332006447e-04, -5.060736225484691e-05, 1.717977728239062e+01, 1.406249993192690e+01, 2.780448953568191e+00, 6.375029695092241e+00
3, -2.500000000000000e-04, 1.000000000000000e-02, 6.937381124576077e-04, -4.117722346621859e-06, 7.579063381024980e+00, 3.262827719022616e+01, 2.735792189382368e+00, 2.563983908048210e+01
4, -2.000000000000817e-04, 0.000000000000000e+00, 0.000000000000000e+00, 0.000000000000000e+00, 2.410568951402782e+04, 2.946010848740788e+04, 2.545053573985708e+03, 7.387759695626411e+03
5, -1.500000000001972e-04, 0.000000000000000e+00, 0.000000000000000e+00, 0.000000000000000e+00, 1.734460394473827e+04, 2.120113898243051e+04, 1.186508606991224e+03, 4.528142355845804e+03
6, -1.000000000003456e-04, 0.000000000000000e+00, 0.000000000000000e+00, 0.000000000000000e+00, 1.128184785930035e+04, 1.379041986527889e+04, 2.782902999004350e+02, 2.569574959648744e+03
7, -5.000000000047588e-05, 0.000000000000000e+00, 0.000000000000000e+00, 0.000000000000000e+00, 5.634083316342168e+03, 6.885998270179633e+03, -2.491760272449240e+02, 1.347459024184450e+03
8, -6.410887445906788e-16, 0.000000000000000e+00, 0.000000000000000e+00, 0.000000000000000e+00, 1.421786313579362e+02, 1.729256897933447e+02, -4.290313200185963e+02, 8.586133447775122e+02
9, 4.999999999945738e-05, 0.000000000000000e+00, 0.000000000000000e+00, 0.000000000000000e+00, -5.365952905835597e+03, -6.558554566771571e+03, -2.712966401474143e+02, 1.310231349605228e+03
10, 9.999999999958566e-05, 0.000000000000000e+00, 0.000000000000000e+00, 0.000000000000000e+00, -1.106313002556237e+04, -1.352015531321254e+04, 2.355089991634051e+02, 2.501765620297034e+03
11, 1.499999999997626e-04, 0.000000000000000e+00, 0.000000000000000e+00, 0.000000000000000e+00, -1.721157186800405e+04, -2.103406969636549e+04, 1.126211706074752e+03, 4.436766939498527e+03
12, 1.999999999998909e-04, 0.000000000000000e+00, 0.000000000000000e+00, 0.000000000000000e+00, -2.408943969257557e+04, -2.944461888577524e+04, 2.472733057931298e+03, 7.289415566039816e+03
13, 2.500000000000000e-04, 9.999999999981111e-05, 5.544321738232884e-07, -5.012833449562901e-07, 1.917308852652317e+03, -1.477611755060803e+04, 1.126623099213965e+03, 1.684480939375093e+04
14, 2.500000000000000e-04, 1.999999999996242e-04, 9.519990120706808e-07, -1.131825474454482e-06, -3.850023678982082e+03, -2.145934524853636e+04, -1.652155617435467e+02, 1.761242149357488e+04
15, 2.500000000000000e-04, 2.999999999994322e-04, 1.566469245057359e-06, -1.769994654186403e-06, -4.104406213775177e+03, -2.179669906713660e+04, -1.087085922780807e+02, 1.769362870191538e+04
16, 2.500000000000000e-04, 3.999999999992179e-04, 2.429277411211919e-06, -2.412257431702733e-06, -4.476662198823508e+03, -2.200494040566343e+04, -1.224468335465383e+02, 1.752998887063428e+04
17, 2.500000000000000e-04, 4.999999999990053e-04, 3.545519112411011e-06, -3.048133941992382e-06, -4.489654248847089e+03, -2.171310048271940e+04, -1.489892082221698e+02, 1.722602366501791e+04
18, 2.500000000000000e-04, 5.999999999988090e-04, 4.911122965667250e-06, -3.675224839758438e-06, -4.426745907182346e+03, -2.130323890662963e+04, -1.841756857930073e+02, 1.688051239427710e+04
19, 2.500000000000000e-04, 6.999999999986395e-04, 6.520909843057143e-06, -4.293252459853237e-06, -4.337567468654712e+03, -2.085962949175149e+04, -2.193135768717457e+02, 1.652788332712505e+04
20, 2.500000000000000e-04, 7.999999999985029e-04, 8.369662283327318e-06, -4.902715575975013e-06, -4.245285795510914e+03, -2.041539340720881e+04, -2.525488384713781e+02, 1.617799443185536e+04
21, 2.500000000000000e-04, 8.999999999983563e-04, 1.045231946481061e-05, -5.504230525285515e-06, -4.154014752753184e+03, -1.997632024430898e+04, -2.833810621681753e+02, 1.583245307505122e+04
22, 2.500000000000000e-04, 9.999999999981935e-04, 1.276392907034206e-05, -6.098390577088024e-06, -4.064378927472093e+03, -1.954290268698817e+04, -3.118643068605886e+02, 1.549108566748884e+04
23, 2.500000000000000e-04, 1.099999999998054e-03, 1.529961065220570e-05, -6.685742548026854e-06, -3.976103381389705e+03, -1.911462399446003e+04, -3.381111319150952e+02, 1.515361616586796e+04
24, 2.500000000000000e-04, 1.199999999997903e-03, 1.805453899147231e-05, -7.266793618924763e-06, -3.888993843493078e+03, -1.869119143470687e+04, -3.622263145485083e+02, 1.481991515296701e+04
25, 2.500000000000000e-04, 1.299999999997659e-03, 2.102393969873211e-05, -7.842017595735050e-06, -3.802961104639660e+03, -1.827250535584509e+04, -3.842988444693368e+02, 1.448994317604572e+04
26, 2.500000000000000e-04, 1.399999999997322e-03, 2.420308874466323e-05, -8.411858340937084e-06, -3.717972168458928e+03, -1.785855282684003e+04, -4.044101794448978e+02, 1.416369343529916e+04
27, 2.500000000000000e-04, 1.499999999997028e-03, 2.758731281783625e-05, -8.976731532587485e-06, -3.634010895469069e+03, -1.744934309302541e+04, -4.226382396457983e+02, 1.384116671582568e+04
28, 2.500000000000000e-04, 1.599999999996764e-03, 3.117198964711278e-05, -9.537025853745931e-06, -3.551066131737509e+03, -1.704488859905908e+04, -4.390587328620808e+02, 1.352236425567667e+04
29, 2.500000000000000e-04, 1.699999999996466e-03, 3.495254825206111e-05, -1.009310406499492e-05, -3.469127391014129e+03, -1.664519965691928e+04, -4.537457759330252e+02, 1.320728667338841e+04
30, 2.500000000000000e-04, 1.799999999996210e-03, 3.892446911306150e-05, -1.064530401658150e-05, -3.388183546668715e+03, -1.625028341297411e+04, -4.667718914860563e+02, 1.289593412535669e+04
31, 2.500000000000000e-04, 1.899999999995898e-03, 4.308328424243361e-05, -1.119393966343748e-05, -3.308227940357835e+03, -1.586014897667255e+04, -4.782076955486688e+02, 1.258830616493767e+04
32, 2.500000000000000e-04, 1.999999999995521e-03, 4.742457744428051e-05, -1.173930208936534e-05, -3.229249172147482e+03, -1.547479949254375e+04, -4.881225130859603e+02, 1.228440299731666e+04
33, 2.500000000000000e-04, 2.099999999995151e-03, 5.194398426905580e-05, -1.228166044407504e-05, -3.151241100073621e+03, -1.509424073501347e+04, -4.965837710388110e+02, 1.198422388170423e+04
34, 2.500000000000000e-04, 2.199999999994897e-03, 5.663719221468076e-05, -1.282126293421524e-05, -3.074195937019318e+03, -1.471847579425353e+04, -5.036573278600764e+02, 1.168776865826916e+04
35, 2.500000000000000e-04, 2.299999999994653e-03, 6.149994078469144e-05, -1.335833773968382e-05, -2.998105400509585e+03, -1.434750568088553e+04, -5.094076476989823e+02, 1.139503713597873e+04
36, 2.500000000000000e-04, 2.399999999994409e-03, 6.652802146625377e-05, -1.389309392221286e-05, -2.922967202716818e+03, -1.398133517751587e+04, -5.138973715225003e+02, 1.110602828647092e+04
37, 2.500000000000000e-04, 2.499999999994080e-03, 7.171727797436573e-05, -1.442572233191694e-05, -2.848776926378682e+03, -1.361996656066824e+04, -5.171871940366248e+02, 1.082074195757984e+04
38, 2.500000000000000e-04, 2.599999999993751e-03, 7.706360634079554e-05, -1.495639649585528e-05, -2.775527080623507e+03, -1.326339810618738e+04, -5.193369158157624e+02, 1.053917842990517e+04
39, 2.500000000000000e-04, 2.699999999993507e-03, 8.256295481344988e-05, -1.548527342209213e-05, -2.703215517159158e+03, -1.291163132648599e+04, -5.204045992473166e+02, 1.026133700468828e+04
40, 2.500000000000000e-04, 2.799999999993264e-03, 8.821132400794145e-05, -1.601249445600855e-05, -2.631840647861856e+03, -1.256466741457101e+04, -5.204465571973858e+02, 9.987217132567424e+03
41, 2.500000000000000e-04, 2.899999999993009e-03, 9.400476704765500e-05, -1.653818607400886e-05, -2.561397488242041e+03, -1.222250386593360e+04, -5.195176979489183e+02, 9.716818975107082e+03
42, 2.500000000000000e-04, 2.999999999992623e-03, 9.993938946255512e-05, -1.706246067415386e-05, -2.491889155745797e+03, -1.188514423213464e+04, -5.176712471294217e+02, 9.450141533888414e+03
43, 2.500000000000000e-04, 3.099999999992220e-03, 1.060113495141943e-04, -1.758541735439834e-05, -2.423309099556646e+03, -1.155258337239875e+04, -5.149590653234596e+02, 9.187185646573820e+03
44, 2.500000000000000e-04, 3.199999999991949e-03, 1.122168579840801e-04, -1.810714264130996e-05, -2.355657172529501e+03, -1.122482050243070e+04, -5.114319589559043e+02, 8.927950983682093e+03
45, 2.500000000000000e-04, 3.299999999991705e-03, 1.185521782890238e-04, -1.862771120906540e-05, -2.288933345813127e+03, -1.090185430136879e+04, -5.071389691492393e+02, 8.672437207773195e+03
46, 2.500000000000000e-04, 3.399999999991461e-03, 1.250136265649272e-04, -1.914718658795241e-05, -2.223138195406475e+03, -1.058368374231591e+04, -5.021274303923900e+02, 8.420644254886738e+03
47, 2.500000000000000e-04, 3.499999999991149e-03, 1.315975717730005e-04, -1.966562187025028e-05, -2.158267549899997e+03, -1.027030304875223e+04, -4.964438793992185e+02, 8.172572791735207e+03
48, 2.500000000000000e-04, 3.599999999990803e-03, 1.383004355279455e-04, -2.018306032833449e-05, -2.094323685494901e+03, -9.961711197656798e+03, -4.901334288167796e+02, 7.928222334085725e+03
49, 2.500000000000000e-04, 3.699999999990560e-03, 1.451186922151298e-04, -2.069953609292439e-05, -2.031313561104779e+03, -9.657910819331544e+03, -4.832391964950531e+02, 7.687591705034078e+03
50, 2.500000000000000e-04, 3.799999999990315e-03, 1.520488693480314e-04, -2.121507477929369e-05, -1.969231413832966e+03, -9.358893532377404e+03, -4.758030599816611e+02, 7.450681877103754e+03
51, 2.500000000000000e-04, 3.899999999990071e-03, 1.590875472598618e-04, -2.172969407920367e-05, -1.908078211533953e+03, -9.064656044116235e+03, -4.678661834964007e+02, 7.217492731998145e+03
52, 2.500000000000000e-04, 3.999999999989709e-03, 1.662313591690854e-04, -2.224340434977336e-05, -1.847855913961562e+03, -8.775195571841174e+03, -4.594681423405005e+02, 6.988023943214199e+03
53, 2.500000000000000e-04, 4.099999999989249e-03, 1.734769912659008e-04, -2.275620918557239e-05, -1.788565083137509e+03, -8.490507894596216e+03, -4.506472495826774e+02, 6.762275447087966e+03
54, 2.500000000000000e-04, 4.199999999988788e-03, 1.808211826813847e-04, -2.326810596819677e-05, -1.730207561871077e+03, -8.210589932183419e+03, -4.414406246847366e+02, 6.540247316879020e+03
55, 2.500000000000000e-04, 4.299999999988333e-03, 1.882607255242470e-04, -2.377908642483635e-05, -1.672786806679233e+03, -7.935440169671337e+03, -4.318839963779614e+02, 6.321939756934252e+03
56, 2.500000000000000e-04, 4.399999999988144e-03, 1.957924650170472e-04, -2.428913715973535e-05, -1.616300107483581e+03, -7.665051524278413e+03, -4.220123985517956e+02, 6.107353891850647e+03
57, 2.500000000000000e-04, 4.499999999988117e-03, 2.034132992751536e-04, -2.479824011671621e-05, -1.560754508289652e+03, -7.399424802938201e+03, -4.118592708458261e+02, 5.896489043959802e+03
58, 2.500000000000000e-04, 4.599999999988090e-03, 2.111201796167964e-04, -2.530637310187610e-05, -1.506151480990460e+03, -7.138555906729556e+03, -4.014565241804555e+02, 5.689345215252241e+03
59, 2.500000000000000e-04, 4.699999999988035e-03, 2.189101105700246e-04, -2.581351021051001e-05, -1.452488541452695e+03, -6.882437885614184e+03, -3.908352426223689e+02, 5.485923680444572e+03
60, 2.500000000000000e-04, 4.799999999987717e-03, 2.267801496028945e-04, -2.631962233453594e-05, -1.399774135682724e+03, -6.631072687963896e+03, -3.800259707594981e+02, 5.286223935561744e+03
61, 2.500000000000000e-04, 4.899999999987257e-03, 2.347274074864394e-04, -2.682467756069287e-05, -1.348005701220379e+03, -6.384452741467370e+03, -3.690574409434603e+02, 5.090246788523678e+03
62, 2.500000000000000e-04, 4.999999999986965e-03, 2.427490481213061e-04, -2.732864159278126e-05, -1.297186384037338e+03, -6.142575411387037e+03, -3.579574363641095e+02, 4.897992336800287e+03
63, 2.500000000000000e-04, 5.099999999987202e-03, 2.508422886227860e-04, -2.783147816767572e-05, -1.247318336391968e+03, -5.905437084298604e+03, -3.467527642018208e+02, 4.709460710901589e+03
64, 2.500000000000000e-04, 5.199999999987608e-03, 2.590043993110341e-04, -2.833314942749755e-05, -1.198404638851206e+03, -5.673034816627051e+03, -3.354690541716334e+02, 4.524651718429777e+03
65, 2.500000000000000e-04, 5.299999999988015e-03, 2.672327037874547e-04, -2.883361630502913e-05, -1.150445217246182e+03, -5.445363110050328e+03, -3.241310842489122e+02, 4.343565763866677e+03
66, 2.500000000000000e-04, 5.399999999988211e-03, 2.755245788419286e-04, -2.933283887248677e-05, -1.103442366821323e+03, -5.222418430103768e+03, -3.127627831879432e+02, 4.166202832806346e+03
67, 2.500000000000000e-04, 5.499999999988184e-03, 2.838774544763585e-04, -2.983077669306311e-05, -1.057399754188585e+03, -5.004198485981966e+03, -3.013868755717026e+02, 3.992562638751373e+03
68, 2.500000000000000e-04, 5.599999999988157e-03, 2.922888140125559e-04, -3.032738915595565e-05, -1.012318480068927e+03, -4.790698963692292e+03, -2.900249293041825e+02, 3.822645277487503e+03
69, 2.500000000000000e-04, 5.699999999988293e-03, 3.007561940778213e-04, -3.082263579336401e-05, -9.681998786346594e+02, -4.581915476607771e+03, -2.786977527796273e+02, 3.656450488199152e+03
70, 2.500000000000000e-04, 5.799999999988694e-03, 3.092771845829168e-04, -3.131647656184456e-05, -9.250461812552035e+02, -4.377844164427639e+03, -2.674253322431988e+02, 3.493977553720284e+03
71, 2.500000000000000e-04, 5.899999999989099e-03, 3.178494286961195e-04, -3.180887213335108e-05, -8.828588272920578e+02, -4.178480983737409e+03, -2.562269795047661e+02, 3.335226297893150e+03
72, 2.500000000000000e-04, 5.999999999989505e-03, 3.264706228080295e-04, -3.229978419746444e-05, -8.416407018902415e+02, -3.983823904275228e+03, -2.451210023189824e+02, 3.180196927937296e+03
73, 2.500000000000000e-04, 6.099999999989911e-03, 3.351385166488876e-04, -3.278917575675646e-05, -8.013918947735431e+02, -3.793868801818636e+03, -2.341247369258290e+02, 3.028890161257176e+03
74, 2.500000000000000e-04, 6.199999999990317e-03, 3.438509132715593e-04, -3.327701136137327e-05, -7.621169791839962e+02, -3.608614958286134e+03, -2.232541510967615e+02, 2.881305330741658e+03
75, 2.500000000000000e-04, 6.299999999990723e-03, 3.526056692324517e-04, -3.376325734625253e-05, -7.238095578130223e+02, -3.428052180586054e+03, -2.125253425114997e+02, 2.737443377982617e+03
76, 2.500000000000000e-04, 6.399999999990975e-03, 3.614006940998507e-04, -3.424788201391139e-05, -6.864809082963674e+02, -3.252184122284839e+03, -2.019534314662368e+02, 2.597301240941205e+03
77, 2.500000000000000e-04, 6.499999999990961e-03, 3.702339510142089e-04, -3.473085585339537e-05, -6.501289742068714e+02, -3.081002640547403e+03, -1.915515767249229e+02, 2.460876837204795e+03
78, 2.500000000000000e-04, 6.599999999990934e-03, 3.791034565604441e-04, -3.521215168665416e-05, -6.147469529717589e+02, -2.914496600790157e+03, -1.813328864355274e+02, 2.328169861812707e+03
79, 2.500000000000000e-04, 6.699999999991035e-03, 3.880072802678524e-04, -3.569174493662147e-05, -5.803469033481888e+02, -2.752669933202511e+03, -1.713108253381367e+02, 2.199176423470295e+03
80, 2.500000000000000e-04, 6.799999999991401e-03, 3.969435451065583e-04, -3.616961373367689e-05, -5.469234791272620e+02, -2.595512168561565e+03, -1.614968392960824e+02, 2.073895015397031e+03
81, 2.500000000000000e-04, 6.899999999991809e-03, 4.059104272165171e-04, -3.664573913799324e-05, -5.144805078806046e+02, -2.443021521405015e+03, -1.519014407397030e+02, 1.952323393201278e+03
82, 2.500000000000000e-04, 6.999999999992214e-03, 4.149061561774366e-04, -3.712010532553007e-05, -4.830066806403072e+02, -2.295184498295433e+03, -1.425353662672128e+02, 1.834462800208554e+03
83, 2.500000000000000e-04, 7.099999999992620e-03, 4.239290142941641e-04, -3.759269973777081e-05, -4.525118906803977e+02, -2.152004902827716e+03, -1.334097896263556e+02, 1.720310781867671e+03
84, 2.500000000000000e-04, 7.199999999993026e-03, 4.329773370287944e-04, -3.806351322414542e-05, -4.230080686683741e+02, -2.013486795487194e+03, -1.245327507582234e+02, 1.609862169413535e+03
85, 2.500000000000000e-04, 7.299999999993359e-03, 4.420495136612990e-04, -3.853254012004778e-05, -3.944699290310419e+02, -1.879604511616243e+03, -1.159121688303556e+02, 1.503119174224834e+03
86, 2.500000000000000e-04, 7.399999999993427e-03, 4.511439859341089e-04, -3.899977841672166e-05, -3.669168857399825e+02, -1.750368370934900e+03, -1.075570517174759e+02, 1.400075744159810e+03
87, 2.500000000000000e-04, 7.499999999993399e-03, 4.602592490143065e-04, -3.946522980124780e-05, -3.403420158197864e+02, -1.625763769315011e+03, -9.947423832079636e+01, 1.300726558780418e+03
88, 2.500000000000000e-04, 7.599999999993372e-03, 4.693938511049604e-04, -3.992889961920496e-05, -3.147495402430788e+02, -1.505783821331309e+03, -9.166840305737701e+01, 1.205062256982483e+03
89, 2.500000000000000e-04, 7.699999999993440e-03, 4.785463938096742e-04, -4.039079698601742e-05, -2.901226994479562e+02, -1.390405438738218e+03, -8.414427944300797e+01, 1.113078229699968e+03
90, 2.500000000000000e-04, 7.799999999993771e-03, 4.877155311186953e-04, -4.085093488329832e-05, -2.664570123060533e+02, -1.279619048327989e+03, -7.690902612031486e+01, 1.024771830424322e+03
91, 2.500000000000000e-04, 7.899999999994177e-03, 4.968999690418367e-04, -4.130933041997677e-05, -2.437736139840590e+02, -1.173434927735917e+03, -6.996960979644282e+01, 9.401346411376912e+02
92, 2.500000000000000e-04, 7.999999999994584e-03, 5.060984666960093e-04, -4.176600473584277e-05, -2.220590932993530e+02, -1.071833987236266e+03, -6.332957535502132e+01, 8.591623308921780e+02
93, 2.500000000000000e-04, 8.099999999994990e-03, 5.153098356214289e-04, -4.222098313424320e-05, -2.013104148290758e+02, -9.748075306664980e+02, -5.699282336777522e+01, 7.818506992198269e+02
94, 2.500000000000000e-04, 8.199999999995398e-03, 5.245329398404798e-04, -4.267429517922534e-05, -1.815288948667045e+02, -8.823487548349440e+02, -5.096288382025693e+01, 7.081930091684121e+02
95, 2.500000000000000e-04, 8.299999999995804e-03, 5.337666958102169e-04, -4.312597461143756e-05, -1.627145448586157e+02, -7.944466053362772e+02, -4.524233713688235e+01, 6.381793419672725e+02
96, 2.500000000000000e-04, 8.399999999996209e-03, 5.430100724111727e-04, -4.357605930822662e-05, -1.448631251993958e+02, -7.110837246882081e+02, -3.983227598209503e+01, 5.717973488265970e+02
97, 2.500000000000000e-04, 8.499999999996616e-03, 5.522620909244150e-04, -4.402459120168934e-05, -1.279574365031892e+02, -6.322311045222551e+02, -3.473329342908104e+01, 5.090358916099392e+02
98, 2.500000000000000e-04, 8.599999999997021e-03, 5.615218241554633e-04, -4.447161629059957e-05, -1.119932332807179e+02, -5.578718255611808e+02, -2.994727567300063e+01, 4.498834030445511e+02
99, 2.500000000000000e-04, 8.699999999997429e-03, 5.707883961385286e-04, -4.491718474323665e-05, -9.697829899649705e+01, -4.879969878015767e+02, -2.547641444391608e+01, 3.943244929832744e+02
100, 2.500000000000000e-04, 8.799999999997834e-03, 5.800609824405690e-04, -4.536135075899691e-05, -8.290593807235467e+01, -4.225855111014795e+02, -2.132005699968239e+01, 3.423454273904171e+02
101, 2.500000000000000e-04, 8.899999999997930e-03, 5.893388099070564e-04, -4.580417268928905e-05, -6.975936579296896e+01, -3.616128867641544e+02, -1.747791462127167e+01, 2.939394286265659e+02
102, 2.500000000000000e-04, 8.999999999997496e-03, 5.986211559758578e-04, -4.624571322782860e-05, -5.752847635320455e+01, -3.050611856467548e+02, -1.395195108920195e+01, 2.491005217316640e+02
103, 2.500000000000000e-04, 9.099999999997034e-03, 6.079073484009048e-04, -4.668603931446369e-05, -4.621726826628387e+01, -2.529192354311916e+02, -1.074169130429842e+01, 2.078153963452899e+02
104, 2.500000000000000e-04, 9.199999999996832e-03, 6.171967658694513e-04, -4.712522192696139e-05, -3.580773074163016e+01, -2.051461105803418e+02, -7.842611869997362e+00, 1.700632621413969e+02
105, 2.500000000000000e-04, 9.299999999997156e-03, 6.264888378356133e-04, -4.756333546613585e-05, -2.625133024745907e+01, -1.616617253471767e+02, -5.246868004929503e+00, 1.358163966408558e+02
106, 2.500000000000000e-04, 9.399999999997563e-03, 6.357830427224068e-04, -4.800045716379864e-05, -1.752518784990740e+01, -1.223960305053335e+02, -2.944989838745143e+00, 1.050361152169118e+02
107, 2.500000000000000e-04, 9.499999999997968e-03, 6.450789067532658e-04, -4.843666664093577e-05, -9.559629832574116e+00, -8.722889141297952e+01, -9.329511395959025e-01, 7.769167127666216e+01
108, 2.500000000000000e-04, 9.599999999998375e-03, 6.543760000875281e-04, -4.887204521077013e-05, -2.388343510499903e+00, -5.613506182313229e+01, 7.897332533985326e-01, 5.376992136709470e+01
109, 2.500000000000000e-04, 9.699999999998783e-03, 6.636739347669229e-04, -4.930667685121096e-05, 3.917350730762310e+00, -2.937301116534736e+01, 2.199899757125248e+00, 3.357985156220244e+01
110, 2.500000000000000e-04, 9.799999999999188e-03, 6.729723531268415e-04, -4.974066387274306e-05, 8.687099538325629e+00, -8.167856838209445e+00, 3.092087612995935e+00, 1.795365081761010e+01
111, 2.500000000000000e-04, 9.899999999999593e-03, 6.822709350561241e-04, -5.017414791816570e-05, 1.125869558912136e+01, 5.292620591941344e+00, 3.138514916165175e+00, 8.659974271782897e+00
112, 2.000000000000817e-04, 1.000000000000000e-02, 6.917859588315247e-04, -4.595829684926166e-05, 1.570352875427974e+01, 1.278780101094214e+01, 3.989527037453955e+00, 8.495102836550776e+00
113, 1.500000000001972e-04, 1.000000000000000e-02, 6.920025014091076e-04, -4.130936216696904e-05, 1.398687452873535e+01, 1.369722763747279e+01, 6.198890903577439e+00, 1.240116482671844e+01
114, 1.000000000003456e-04, 1.000000000000000e-02, 6.922191143729976e-04, -3.666054117973221e-05, 9.139930272539518e+00, 1.396326160477674e+01, 8.130248835203833e+00, 1.696078741184720e+01
115, 5.000000000047588e-05, 1.000000000000000e-02, 6.924358362074836e-04, -3.201178811028689e-05, 2.454179546180747e+00, 1.401861763392432e+01, 9.464281197036271e+00, 2.218167492755115e+01
116, 6.410887445906788e-16, 1.000000000000000e-02, 6.926526887835228e-04, -2.736303933751785e-05, -4.398099787598168e+00, 1.471527377846440e+01, 9.943195005737133e+00, 2.758241390386858e+01
117, -4.999999999945738e-05, 1.000000000000000e-02, 6.928696768043850e-04, -2.271421960009203e-05, -9.289050231555915e+00, 1.740656807241496e+01, 9.393197450171673e+00, 3.264329441068949e+01
118, -9.999999999958566e-05, 1.000000000000000e-02, 6.930867856203452e-04, -1.806525848626340e-05, -9.628829773499090e+00, 2.374951522777881e+01, 7.885050990094259e+00, 3.691625700812421e+01
119, -1.499999999997626e-04, 1.000000000000000e-02, 6.933039745368293e-04, -1.341612100657412e-05, -2.096216694488365e+00, 3.537735482077930e+01, 6.031974656789789e+00, 3.936759371806330e+01
120, -1.999999999998909e-04, 1.000000000000000e-02, 6.935211556607579e-04, -8.766867729196931e-06, 2.003671625832644e+01, 5.456051911004869e+01, 5.154723445598122e+00, 3.603023256304323e+01
121, -2.500000000000000e-04, 9.899999999999590e-03, 6.844396250778647e-04, -3.685413178131675e-06, -1.595624897219090e+01, 2.839923814537669e+01, -1.611467693871601e+00, 4.447242460165929e+01
122, -2.500000000000000e-04, 9.799999999999181e-03, 6.751408605513835e-04, -3.254001694462006e-06, 4.062418067868258e+00, 6.638133362386614e+01, 1.981777528448016e+00, 6.244483168977751e+01
123, -2.500000000000000e-04, 9.699999999999055e-03, 6.658422679488318e-04, -2.823251965143123e-06, 1.155150528932418e+01, 9.137508508746109e+01, 5.357537355910182e+00, 8.053953512325126e+01
124, -2.500000000000000e-04, 9.599999999999458e-03, 6.565440988900011e-04, -2.393270146346565e-06, 1.712016738516975e+01, 1.181162957518578e+02, 8.751277783751544e+00, 1.025014994839298e+02
125, -2.500000000000000e-04, 9.499999999999916e-03, 6.472466332000445e-04, -1.964227272278571e-06, 2.342998209313035e+01, 1.494758663853196e+02, 1.235188677269645e+01, 1.284439230729972e+02
126, -2.500000000000000e-04, 9.400000000000373e-03, 6.379502113921711e-04, -1.536290277725799e-06, 3.064411138285218e+01, 1.853734729965263e+02, 1.617211517138879e+01, 1.580737947347433e+02
127, -2.500000000000000e-04, 9.300000000000832e-03, 6.286552249244831e-04, -1.109626277118822e-06, 3.911155892978081e+01, 2.259425286104059e+02, 2.023345691716664e+01, 1.911632348206056e+02
128, -2.500000000000000e-04, 9.200000000001289e-03, 6.193621302418965e-04, -6.844031439647446e-07, 4.834487594032562e+01, 2.706722419655463e+02, 2.455659458640142e+01, 2.276874239707498e+02
129, -2.500000000000000e-04, 9.100000000001746e-03, 6.100714219663256e-04, -2.607902889586576e-07, 5.865567540327525e+01, 3.197822171833164e+02, 2.915827687511811e+01, 2.675591360116634e+02
130, -2.500000000000000e-04, 9.000000000002204e-03, 6.007836504354116e-04, 1.610376856450996e-07, 6.996830391637448e+01, 3.732289441201310e+02, 3.403023360290638e+01, 3.108041877019450e+02
131, -2.500000000000000e-04, 8.900000000002661e-03, 5.914994174779659e-04, 5.809004043770224e-07, 8.223326401951827e+01, 4.309992745358529e+02, 3.918260054460502e+01, 3.574616550530034e+02
132, -2.500000000000000e-04, 8.800000000003118e-03, 5.822193743025916e-04, 9.986118736549674e-07, 9.545699621794427e+01, 4.931200050783439e+02, 4.462591151286476e+01, 4.075558324074414e+02
133, -2.500000000000000e-04, 8.700000000003576e-03, 5.729442229336191e-04, 1.413980807742370e-06, 1.095994123420951e+02, 5.595750822398625e+02, 5.036623302832392e+01, 4.611129289206694e+02
134, -2.500000000000000e-04, 8.600000000004033e-03, 5.636747148790530e-04, 1.826810780876340e-06, 1.246655801291796e+02, 6.303878615666865e+02, 5.640841333928346e+01, 5.181531263286739e+02
135, -2.500000000000000e-04, 8.500000000004490e-03, 5.544116517883146e-04, 2.236900041746840e-06, 1.406677271455218e+02, 7.055861567674140e+02, 6.275621416282437e+01, 5.786935301095614e+02
136, -2.500000000000000e-04, 8.400000000004949e-03, 5.451558860682262e-04, 2.644041761398448e-06, 1.576476750964068e+02, 7.852280797643672e+02, 6.940453425391127e+01, 6.427481013765894e+02
137, -2.500000000000000e-04, 8.300000000005149e-03, 5.359083229546529e-04, 3.048023388760741e-06, 1.755654737555088e+02, 8.692996159902908e+02, 7.635680435084453e+01, 7.103439352770750e+02
138, -2.500000000000000e-04, 8.200000000005172e-03, 5.266699182113214e-04, 3.448627570531683e-06, 1.944890173912688e+02, 9.578799570311039e+02, 8.360563677996734e+01, 7.814891788948364e+02
139, -2.500000000000000e-04, 8.100000000005195e-03, 5.174416818909247e-04, 3.845631074188667e-06, 2.143606810200662e+02, 1.050943679333513e+03, 9.115269464382686e+01, 8.562163091359795e+02
140, -2.500000000000000e-04, 8.000000000005220e-03, 5.082246752219524e-04, 4.238805849494371e-06, 2.351828216508422e+02, 1.148499507535581e+03, 9.900248922690531e+01, 9.345337555208893e+02
141, -2.500000000000000e-04, 7.900000000005243e-03, 4.990200108154183e-04, 4.627919291852706e-06, 2.570557243976932e+02, 1.250650136434795e+03, 1.071403937170368e+02, 1.016437952604447e+03
142, -2.500000000000000e-04, 7.800000000005240e-03, 4.898288582882396e-04, 5.012733036075225e-06, 2.798373401337516e+02, 1.357290050977248e+03, 1.155688980596346e+02, 1.101965981733951e+03
143, -2.500000000000000e-04, 7.700000000005121e-03, 4.806524368637773e-04, 5.393004793108234e-06, 3.035911377733019e+02, 1.468479925786839e+03, 1.242852156383228e+02, 1.191114246302472e+03
144, -2.500000000000000e-04, 7.600000000005145e-03, 4.714920192742928e-04, 5.768487197939792e-06, 3.283103415140120e+02, 1.584222997364576e+03, 1.332864445924444e+02, 1.283891624855461e+03
145, -2.500000000000000e-04, 7.500000000005337e-03, 4.623489316587381e-04, 6.138928784484434e-06, 3.539351583191871e+02, 1.704469695816098e+03, 1.425711557348040e+02, 1.380307818844125e+03
146, -2.500000000000000e-04, 7.400000000005796e-03, 4.532245503802377e-04, 6.504074108835188e-06, 3.805838427174511e+02, 1.829333618114101e+03, 1.521265288098823e+02, 1.480353280397222e+03
147, -2.500000000000000e-04, 7.300000000006254e-03, 4.441203082446365e-04, 6.863662560444604e-06, 4.081998034550787e+02, 1.958787399589196e+03, 1.619443014213526e+02, 1.584053572432568e+03
148, -2.500000000000000e-04, 7.200000000006711e-03, 4.350376911834336e-04, 7.217429273001370e-06, 4.367715435857251e+02, 2.092827308394530e+03, 1.720227746378132e+02, 1.691415985537811e+03
149, -2.500000000000000e-04, 7.100000000007169e-03, 4.259782379102912e-04, 7.565105516845474e-06, 4.663373246142908e+02, 2.231492036281020e+03, 1.823513305996466e+02, 1.802437013380801e+03
150, -2.500000000000000e-04, 7.000000000007627e-03, 4.169435423294652e-04, 7.906418428884579e-06, 4.968497784365547e+02, 2.374752078398353e+03, 1.929215082078436e+02, 1.917131159185142e+03
151, -2.500000000000000e-04, 6.900000000008085e-03, 4.079352511381984e-04, 8.241091371617413e-06, 5.283308238587995e+02, 2.522631528665526e+03, 2.037261581769789e+02, 2.035498143279627e+03
152, -2.500000000000000e-04, 6.800000000008542e-03, 3.989550653070483e-04, 8.568844093410131e-06, 5.607572495730576e+02, 2.675114798878066e+03, 2.147566287615455e+02, 2.157542464168707e+03
153, -2.500000000000000e-04, 6.700000000009001e-03, 3.900047389668552e-04, 8.889393052283636e-06, 5.941592518962647e+02, 2.832235981007464e+03, 2.259999707963737e+02, 2.283263320904738e+03
154, -2.500000000000000e-04, 6.600000000009459e-03, 3.810860811450882e-04, 9.202451015117051e-06, 6.285238613390873e+02, 2.993992513504863e+03, 2.374448193958165e+02, 2.412667012542472e+03
155, -2.500000000000000e-04, 6.500000000009916e-03, 3.722009553956623e-04, 9.507727722603226e-06, 6.638037420436193e+02, 3.160348668634047e+03, 2.490822593844918e+02, 2.545762058450227e+03
156, -2.500000000000000e-04, 6.400000000010177e-03, 3.633512775400715e-04, 9.804930099853628e-06, 7.000461476625944e+02, 3.331349231956390e+03, 2.609011484034925e+02, 2.682542368419759e+03
157, -2.500000000000000e-04, 6.300000000010201e-03, 3.545390182856011e-04, 1.009376219161651e-05, 7.372508478059895e+02, 3.507002242205600e+03, 2.728854404605970e+02, 2.823010563430481e+03
158, -2.500000000000000e-04, 6.200000000010225e-03, 3.457662032153975e-04, 1.037392535133869e-05, 7.754071288457766e+02, 3.687306078537837e+03, 2.850201506554012e+02, 2.967170611598908e+03
159, -2.500000000000000e-04, 6.100000000010248e-03, 3.370349124901657e-04, 1.064511853612797e-05, 8.144903597861381e+02, 3.872245061792214e+03, 2.972927617867735e+02, 3.115027409587835e+03
160, -2.500000000000000e-04, 6.000000000010509e-03, 3.283472797793430e-04, 1.090703868895480e-05, 8.545231682872959e+02, 4.061843133644151e+03, 3.096879879032707e+02, 3.266577407560244e+03
161, -2.500000000000000e-04, 5.900000000010967e-03, 3.197054936308080e-04, 1.115938076324330e-05, 8.955114049571941e+02, 4.256112324306754e+03, 3.221869066313391e+02, 3.421820590029787e+03
162, -2.500000000000000e-04, 5.800000000011424e-03, 3.111117979805124e-04, 1.140183796253204e-05, 9.374314884808241e+02, 4.455039891333369e+03, 3.347711443485161e+02, 3.580761895487117e+03
163, -2.500000000000000e-04, 5.700000000011876e-03, 3.025684912865806e-04, 1.163410206690011e-05, 9.802639048587324e+02, 4.658614892827782e+03, 3.474249595189142e+02, 3.743405187884389e+03
164, -2.500000000000000e-04, 5.600000000012062e-03, 2.940779258735465e-04, 1.185586380209093e-05, 1.024012687446372e+03, 4.866844752428882e+03, 3.601318805811133e+02, 3.909749117948785e+03
165, -2.500000000000000e-04, 5.500000000012085e-03, 2.856425083222551e-04, 1.206681310693399e-05, 1.068698675993163e+03, 5.079751918681986e+03, 3.728708293093122e+02, 4.079789055463993e+03
166, -2.500000000000000e-04, 5.400000000012110e-03, 2.772647007002370e-04, 1.226663930140119e-05, 1.114310445651932e+03, 5.297333354903913e+03, 3.856189921927232e+02, 4.253526617747422e+03
167, -2.500000000000000e-04, 5.300000000012160e-03, 2.689470201629119e-04, 1.245503142019164e-05, 1.160834454148685e+03, 5.519583822190352e+03, 3.983547417971822e+02, 4.430964009631858e+03
168, -2.500000000000000e-04, 5.200000000012475e-03, 2.606920385637955e-04, 1.263167857118481e-05, 1.208267122279315e+03, 5.746506151887719e+03, 4.110560393403211e+02, 4.612101664076113e+03
169, -2.500000000000000e-04, 5.100000000012934e-03, 2.525023825708814e-04, 1.279627025615609e-05, 1.256608657897829e+03, 5.978106427907721e+03, 4.236992590187674e+02, 4.796939174158933e+03
170, -2.500000000000000e-04, 5.000000000013221e-03, 2.443807339480173e-04, 1.294849670964295e-05, 1.305854724086074e+03, 6.214387347225304e+03, 4.362592712312148e+02, 4.985477020242180e+03
171, -2.500000000000000e-04, 4.900000000012981e-03, 2.363298296034327e-04, 1.308804924053963e-05, 1.355993207807775e+03, 6.455344439091563e+03, 4.487115064902641e+02, 5.177716779066090e+03
172, -2.500000000000000e-04, 4.800000000012570e-03, 2.283524611726698e-04, 1.321462069236683e-05, 1.407032738556692e+03, 6.700989874435852e+03, 4.610294501321852e+02, 5.373655624626742e+03
173, -2.500000000000000e-04, 4.700000000012160e-03, 2.204514757215312e-04, 1.332790577344376e-05, 1.458976058448814e+03, 6.951332054895520e+03, 4.731830812843976e+02, 5.573291963046550e+03
174, -2.500000000000000e-04, 4.600000000011960e-03, 2.126297762383972e-04, 1.342760141506911e-05, 1.511793154701991e+03, 7.206352333614424e+03, 4.851436832002834e+02, 5.776630662897915e+03
175, -2.500000000000000e-04, 4.500000000011985e-03, 2.048903203789810e-04, 1.351340728479462e-05, 1.565485568937156e+03, 7.466057317974414e+03, 4.968833891768732e+02, 5.983671061756002e+03
176, -2.500000000000000e-04, 4.400000000012010e-03, 1.972361208209047e-04, 1.358502620371815e-05, 1.620064818425868e+03, 7.730461649637753e+03, 5.083708788409562e+02, 6.194409837643805e+03
177, -2.500000000000000e-04, 4.300000000011870e-03, 1.896702461069615e-04, 1.364216458450979e-05, 1.675520263008223e+03, 7.999561628608104e+03, 5.195728409024196e+02, 6.408847239701698e+03
178, -2.500000000000000e-04, 4.200000000011467e-03, 1.821958203291054e-04, 1.368453291557044e-05, 1.731843962963352e+03, 8.273355490634334e+03, 5.304560453966776e+02, 6.626983290385140e+03
179, -2.500000000000000e-04, 4.100000000011056e-03, 1.748160230137394e-04, 1.371184626384067e-05, 1.789035470510544e+03, 8.551847871791200e+03, 5.409855509287937e+02, 6.848816908063053e+03
180, -2.500000000000000e-04, 4.000000000010646e-03, 1.675340894337997e-04, 1.372382473859459e-05, 1.847084781178093e+03, 8.835035851434837e+03, 5.511255100218285e+02, 7.074349261344798e+03
181, -2.500000000000000e-04, 3.900000000010236e-03, 1.603533103558142e-04, 1.372019402491314e-05, 1.905987479254537e+03, 9.122920825331890e+03, 5.608398358026622e+02, 7.303580779824093e+03
182, -2.500000000000000e-04, 3.800000000009824e-03, 1.532770320348765e-04, 1.370068592439531e-05, 1.965749443693359e+03, 9.415512052953822e+03, 5.700903524612929e+02, 7.536509468859774e+03
183, -2.500000000000000e-04, 3.700000000009415e-03, 1.463086567742594e-04, 1.366503891727472e-05, 2.026362326522462e+03, 9.712806919700441e+03, 5.788368854299243e+02, 7.773135727859887e+03
184, -2.500000000000000e-04, 3.600000000009160e-03, 1.394516427377097e-04, 1.361299873038927e-05, 2.087820836317215e+03, 1.001480521054236e+04, 5.870386898404915e+02, 8.013459862174905e+03
185, -2.500000000000000e-04, 3.500000000009170e-03, 1.327095039483307e-04, 1.354431893579630e-05, 2.150121137262159e+03, 1.032150786116309e+04, 5.946538178771348e+02, 8.257482282391389e+03
186, -2.500000000000000e-04, 3.400000000009196e-03, 1.260858103149884e-04, 1.345876154517122e-05, 2.213263480974838e+03, 1.063291845855894e+04, 6.016391265609876e+02, 8.505202437096546e+03
187, -2.500000000000000e-04, 3.300000000009092e-03, 1.195841878331468e-04, 1.335609767462727e-05, 2.277246025911085e+03, 1.094903776221797e+04, 6.079495719770890e+02, 8.756619361725669e+03
188, -2.500000000000000e-04, 3.200000000008720e-03, 1.132083187026131e-04, 1.323610821131287e-05, 2.342062923954482e+03, 1.126986309055232e+04, 6.135386322833784e+02, 9.011733153390696e+03
189, -2.500000000000000e-04, 3.100000000008311e-03, 1.069619412390143e-04, 1.309858446071607e-05, 2.407711100088140e+03, 1.159539393642933e+04, 6.183589374684018e+02, 9.270544051100052e+03
190, -2.500000000000000e-04, 3.000000000007901e-03, 1.008488498942057e-04, 1.294332883963694e-05, 2.474190506902480e+03, 1.192563148426221e+04, 6.223616480479860e+02, 9.533051590774003e+03
191, -2.500000000000000e-04, 2.900000000007490e-03, 9.487289541970534e-05, 1.277015560228750e-05, 2.541499687312997e+03, 1.226057503186673e+04, 6.254960201965899e+02, 9.799255412440241e+03
192, -2.500000000000000e-04, 2.800000000007079e-03, 8.903798495540934e-05, 1.257889157054212e-05, 2.609633516946905e+03, 1.260022068941581e+04, 6.277101481362536e+02, 1.006915647762975e+04
193, -2.500000000000000e-04, 2.700000000006744e-03, 8.334808187418216e-05, 1.236937686811991e-05, 2.678593782629554e+03, 1.294456942973793e+04, 6.289512560201962e+02, 1.034275469673431e+04
194, -2.500000000000000e-04, 2.600000000006672e-03, 7.780720594318641e-05, 1.214146572082401e-05, 2.748383787594082e+03, 1.329362179561628e+04, 6.291643734737509e+02, 1.062004877019077e+04
195, -2.500000000000000e-04, 2.500000000006697e-03, 7.241943358414699e-05, 1.189502728708175e-05, 2.818998104433913e+03, 1.364737044819982e+04, 6.282927378650368e+02, 1.090103915565164e+04
196, -2.500000000000000e-04, 2.400000000006722e-03, 6.718889763565912e-05, 1.162994645089695e-05, 2.890438817284545e+03, 1.400581395079436e+04, 6.262786345514513e+02, 1.118572590720114e+04
197, -2.500000000000000e-04, 2.300000000006651e-03, 6.211978748101707e-05, 1.134612465056967e-05, 2.962707625474460e+03, 1.436894906487926e+04, 6.230627887180052e+02, 1.147410879888872e+04
198, -2.500000000000000e-04, 2.200000000006315e-03, 5.721634912846765e-05, 1.104348079024636e-05, 3.035805040896049e+03, 1.473677068813076e+04, 6.185839842373098e+02, 1.176618806835870e+04
199, -2.500000000000000e-04, 2.100000000005904e-03, 5.248288517364672e-05, 1.072195208148769e-05, 3.109735288733466e+03, 1.510927558671271e+04, 6.127798875960557e+02, 1.206196352694687e+04
200, -2.500000000000000e-04, 2.000000000005494e-03, 4.792375492365964e-05, 1.038149500164093e-05, 3.184500224454569e+03, 1.548645701015907e+04, 6.055861818877919e+02, 1.236143516150592e+04
201, -2.500000000000000e-04, 1.900000000005083e-03, 4.354337436772913e-05, 1.002208621617901e-05, 3.260104073828711e+03, 1.586830895452681e+04, 5.969370544957054e+02, 1.266460286395824e+04
202, -2.500000000000000e-04, 1.800000000004675e-03, 3.934621623370970e-05, 9.643723548587380e-06, 3.336550855392465e+03, 1.625482410889539e+04, 5.867649643618977e+02, 1.297146700823694e+04
203, -2.500000000000000e-04, 1.700000000004264e-03, 3.533680996749759e-05, 9.246426943233852e-06, 3.413846647284193e+03, 1.664599488960092e+04, 5.750011110933667e+02, 1.328202741367747e+04
204, -2.500000000000000e-04, 1.600000000003854e-03, 3.151974178920606e-05, 8.830239529528070e-06, 3.491996925768110e+03, 1.704181133362800e+04, 5.615745814441763e+02, 1.359628384999167e+04
205, -2.500000000000000e-04, 1.500000000003443e-03, 2.789965466098833e-05, 8.395228632316265e-06, 3.571009248305004e+03, 1.744226389004860e+04, 5.464129563695554e+02, 1.391423637184763e+04
206, -2.500000000000000e-04, 1.400000000003032e-03, 2.448124830322108e-05, 7.941486832436229e-06, 3.650892142427157e+03, 1.784734188188862e+04, 5.294421022994638e+02, 1.423588497297602e+04
207, -2.500000000000000e-04, 1.300000000002622e-03, 2.126927920995496e-05, 7.469133064769008e-06, 3.731654249944672e+03, 1.825703260182821e+04, 5.105861412835260e+02, 1.456122965604383e+04
208, -2.500000000000000e-04, 1.200000000002211e-03, 1.826856060043978e-05, 6.978313739435480e-06, 3.813308167834293e+03, 1.867132526273066e+04, 4.897676680840759e+02, 1.489027069824571e+04
209, -2.500000000000000e-04, 1.100000000002113e-03, 1.548396236382241e-05, 6.469203827697881e-06, 3.895880092784922e+03, 1.909022430581015e+04, 4.669088107721334e+02, 1.522301256040341e+04
210, -2.500000000000000e-04, 1.000000000002544e-03, 1.292041106580902e-05, 5.942007640933242e-06, 3.979440516723731e+03, 1.951379580179976e+04, 4.419342415481693e+02, 1.555947999190142e+04
211, -2.500000000000000e-04, 9.000000000030026e-04, 1.058289069989962e-05, 5.396958441584238e-06, 4.064136128895784e+03, 1.994223700477335e+04, 4.147777115880910e+02, 1.589975627563722e+04
212, -2.500000000000000e-04, 8.000000000032027e-04, 8.476446727938175e-06, 4.834316131643311e-06, 4.150143196369435e+03, 2.037585493602206e+04, 3.853692605829989e+02, 1.624400687411545e+04
213, -2.500000000000000e-04, 7.000000000028719e-04, 6.606200564083258e-06, 4.254365620363347e-06, 4.236682126908879e+03, 2.081379788652904e+04, 3.535572166234442e+02, 1.659219026317964e+04
214, -2.500000000000000e-04, 6.000000000024631e-04, 4.977380348870773e-06, 3.657446919681696e-06, 4.319489047366630e+03, 2.124987077420100e+04, 3.185979592155567e+02, 1.694236831304267e+04
215, -2.500000000000000e-04, 5.000000000020526e-04, 3.595354991981313e-06, 3.044103185917769e-06, 4.375705577726647e+03, 2.165108126037335e+04, 2.783883018020919e+02, 1.728434566776833e+04
216, -2.500000000000000e-04, 4.000000000016421e-04, 2.465415275579705e-06, 2.415750335009090e-06, 4.357199393210234e+03, 2.193519210238550e+04, 2.243422770557633e+02, 1.758371819362779e+04
217, -2.500000000000000e-04, 3.000000000012316e-04, 1.591645448478232e-06, 1.776028384000687e-06, 3.986018067113844e+03, 2.172610842987426e+04, 1.541024294934782e+02, 1.774276743673343e+04
218, -2.500000000000000e-04, 2.000000000008210e-04, 9.687976809044787e-07, 1.136869713340724e-06, 3.740601771173304e+03, 2.140151235340477e+04, 1.832840475425576e+01, 1.766094862444424e+04
219, -2.500000000000000e-04, 1.000000000004105e-04, 5.642986961089004e-07, 5.030709991283375e-07, -1.920297756742966e+03, 1.479847261647862e+04, 1.269642991660348e+03, 1.691050726907980e+04
220, -1.999999999998928e-04, 9.899999999999593e-03, 6.842223122563508e-04, -8.334957320087508e-06, -2.872370227021765e+00, 4.184633788637715e+01, 3.209129400555170e+00, 4.517695099682360e+01
221, -1.499999999997670e-04, 9.899999999999591e-03, 6.840050461983423e-04, -1.298417391847714e-05, -7.585383986907757e-01, 3.854250577922488e+01, 8.204320524900652e+00, 4.258891375200479e+01
222, -9.999999999959327e-05, 9.899999999999591e-03, 6.837878927986993e-04, -1.763314837067826e-05, 2.047713626016566e+00, 3.330135261202204e+01, 1.151432968024475e+01, 3.882150308539099e+01
223, -4.999999999946756e-05, 9.899999999999593e-03, 6.835708732129582e-04, -2.228190858232414e-05, 4.879108857830332e+00, 2.761082005006980e+01, 1.375064434509453e+01, 3.567984828090648e+01
224, 6.282680539010377e-16, 9.899999999999593e-03, 6.833539840370107e-04, -2.693051506585810e-05, 7.158344245820460e+00, 2.183092056317475e+01, 1.469621611099972e+01, 3.285117300361460e+01
225, 5.000000000046569e-05, 9.899999999999590e-03, 6.831372140004110e-04, -3.157905056007261e-05, 8.894055010504269e+00, 1.634129719750729e+01, 1.424665847526492e+01, 2.945047583716142e+01
226, 1.000000000003380e-04, 9.899999999999590e-03, 6.829205479116037e-04, -3.622760446008864e-05, 1.013193632936717e+01, 1.148028564839909e+01, 1.245595990490195e+01, 2.494838260281082e+01
227, 1.500000000001929e-04, 9.899999999999593e-03, 6.827039658276859e-04, -4.087626111843671e-05, 1.086914891502423e+01, 7.655015714082304e+00, 9.487653336795058e+00, 1.924559470606691e+01
228, 2.000000000000797e-04, 9.899999999999593e-03, 6.824874408032339e-04, -4.552509239206918e-05, 1.087054741311777e+01, 5.218283726027982e+00, 5.611490698355299e+00, 1.256596181035523e+01
229, -1.999999999998947e-04, 9.799999999999184e-03, 6.749233527362533e-04, -7.903399244015757e-06, -1.864253964951050e-01, 5.531553629374040e+01, 6.377557346315482e+00, 5.694875505475549e+01
230, -1.499999999997712e-04, 9.799999999999181e-03, 6.747059932589411e-04, -1.255240835643746e-05, 2.905654173399007e+00, 4.793172374538352e+01, 1.247224359838524e+01, 5.147401657740570e+01
231, -9.999999999960086e-05, 9.799999999999184e-03, 6.744887916738369e-04, -1.720110611206431e-05, 4.837778656459093e+00, 3.863070069328653e+01, 1.683203749722750e+01, 4.769938705077234e+01
232, -4.999999999947776e-05, 9.799999999999184e-03, 6.742717573800437e-04, -2.184957825415726e-05, 7.095330162614877e+00, 2.965642163315744e+01, 1.951817079332522e+01, 4.508701379346211e+01
233, 6.154473632113966e-16, 9.799999999999184e-03, 6.740548868920331e-04, -2.649790750565523e-05, 9.331669639633070e+00, 2.135554206604534e+01, 2.052203221679487e+01, 4.276901604380564e+01
234, 5.000000000045551e-05, 9.799999999999184e-03, 6.738381676514630e-04, -3.114618483512496e-05, 1.116730313036734e+01, 1.377519280743284e+01, 1.975951104753121e+01, 3.960497690843636e+01
235, 1.000000000003303e-04, 9.799999999999184e-03, 6.736215816003885e-04, -3.579450616383928e-05, 1.237519768525962e+01, 7.000396068114757e+00, 1.722368149337482e+01, 3.486415507601686e+01
236, 1.500000000001885e-04, 9.799999999999188e-03, 6.734051056882067e-04, -4.044296690598492e-05, 1.276093059968285e+01, 1.199894514213079e+00, 1.299858105549939e+01, 2.845188909712472e+01
237, 2.000000000000778e-04, 9.799999999999188e-03, 6.731887100236376e-04, -4.509165729334670e-05, 1.198536218652379e+01, -3.403668137145791e+00, 7.204619442943333e+00, 2.108194534603888e+01
238, -1.999999999998966e-04, 9.699999999999027e-03, 6.656245483699551e-04, -7.472340046053846e-06, 1.593384112537712e+00, 7.141524999617907e+01, 1.019550540882683e+01, 7.273847865908985e+01
239, -1.499999999997756e-04, 9.699999999998999e-03, 6.654070287951377e-04, -1.212099685643349e-05, 3.971747773897157e+00, 5.921727302261138e+01, 1.707722518828179e+01, 6.495070854526118e+01
240, -9.999999999960846e-05, 9.699999999998973e-03, 6.651897229638306e-04, -1.676931367519701e-05, 6.430924365023613e+00, 4.671039616030249e+01, 2.195917920854111e+01, 5.959243285986872e+01
241, -4.999999999948794e-05, 9.699999999998947e-03, 6.649726342637303e-04, -2.141738900167341e-05, 8.654373344848752e+00, 3.410767572778406e+01, 2.478723968532873e+01, 5.572700967276895e+01
242, 6.026266725217555e-16, 9.699999999998920e-03, 6.647557591273675e-04, -2.606532627205584e-05, 1.068184327476847e+01, 2.198124784801798e+01, 2.553459308157613e+01, 5.230428585763001e+01
243, 5.000000000044535e-05, 9.699999999998892e-03, 6.645390860049167e-04, -3.071323066925100e-05, 1.229430819623644e+01, 1.059566130014093e+01, 2.418819396410887e+01, 4.840620115500726e+01
244, 1.000000000003228e-04, 9.699999999998864e-03, 6.643225962079687e-04, -3.536120961734247e-05, 1.324788979839660e+01, 1.374389998024927e-01, 2.074813167935049e+01, 4.351808581356751e+01
245, 1.500000000001842e-04, 9.699999999998836e-03, 6.641062643274377e-04, -4.000937136265851e-05, 1.331829707561665e+01, -9.175946850375583e+00, 1.524164543761303e+01, 3.788432436226993e+01
246, 2.000000000000759e-04, 9.699999999998809e-03, 6.638900575048168e-04, -4.465782424969557e-05, 1.236439980250755e+01, -1.697701110976405e+01, 7.705242415379015e+00, 3.314213989834986e+01
247, -1.999999999998985e-04, 9.599999999999352e-03, 6.563261216225859e-04, -7.041925504695991e-06, 2.527602725476635e+00, 9.019470169052761e+01, 1.421635221190633e+01, 9.216256789933718e+01
248, -1.499999999997800e-04, 9.599999999999241e-03, 6.561084058828698e-04, -1.169009353061028e-05, 4.817187425646051e+00, 7.344706568652771e+01, 2.184386295828990e+01, 8.135525542867919e+01
249, -9.999999999961608e-05, 9.599999999999132e-03, 6.558909660301670e-04, -1.633788863548561e-05, 7.228492236495334e+00, 5.639659546269331e+01, 2.707009245537719e+01, 7.313454721971507e+01
250, -4.999999999949810e-05, 9.599999999999024e-03, 6.556738069450037e-04, -2.098542717246781e-05, 9.516356197029625e+00, 3.938640038287316e+01, 2.987920105099128e+01, 6.680783009083950e+01
251, 5.898059818321144e-16, 9.599999999998917e-03, 6.554569247438053e-04, -2.563282820186876e-05, 1.145525198366348e+01, 2.271877270313264e+01, 3.025827447885731e+01, 6.155582504320269e+01
252, 5.000000000043517e-05, 9.599999999998809e-03, 6.552403078322252e-04, -3.028021285504352e-05, 1.288598582947139e+01, 6.734885338626505e+00, 2.820678370698968e+01, 5.674792177357745e+01
253, 1.000000000003152e-04, 9.599999999998698e-03, 6.550239370442058e-04, -3.492770336933425e-05, 1.361983220332710e+01, -8.272492641090528e+00, 2.373500221635362e+01, 5.227499601085351e+01
254, 1.500000000001798e-04, 9.599999999998591e-03, 6.548077858240625e-04, -3.957542291355094e-05, 1.348695038069636e+01, -2.200204455480783e+01, 1.685971074489771e+01, 4.895373476190267e+01
255, 2.000000000000740e-04, 9.599999999998483e-03, 6.545918204214141e-04, -4.422349529332360e-05, 1.235334362091126e+01, -3.412203209679453e+01, 7.596972482525681e+00, 4.889597643674709e+01
256, -1.999999999999004e-04, 9.499999999999719e-03, 6.470283598373084e-04, -6.612293177396909e-06, 3.018752622748039e+00, 1.117151052658038e+02, 1.837159786129175e+01, 1.147386574342388e+02
257, -1.499999999997843e-04, 9.499999999999528e-03, 6.468104224375731e-04, -1.125981367602246e-05, 5.434350388036476e+00, 8.982888586990535e+01, 2.669712100591570e+01, 9.986682481794665e+01
258, -9.999999999962368e-05, 9.499999999999330e-03, 6.465928352166115e-04, -1.590692306088314e-05, 7.871471370285924e+00, 6.755925380285578e+01, 3.221533535824749e+01, 8.782905385289766e+01
259, -4.999999999950831e-05, 9.499999999999136e-03, 6.463756031313709e-04, -2.055375683473795e-05, 1.013152442241716e+01, 4.529124356688048e+01, 3.493856926846129e+01, 7.822416724021939e+01
260, 5.769988436696294e-16, 9.499999999998942e-03, 6.461587224809773e-04, -2.520045144973980e-05, 1.201363897124062e+01, 2.337081341945465e+01, 3.487831412444829e+01, 7.067512006429081e+01
261, 5.000000000042495e-05, 9.499999999998747e-03, 6.459421813526892e-04, -2.984714433016634e-05, 1.332680213486927e+01, 2.124796636757008e+00, 3.204825160426395e+01, 6.506801557401735e+01
262, 1.000000000003075e-04, 9.499999999998551e-03, 6.457259600410661e-04, -3.449397366433495e-05, 1.390235406341896e+01, -1.811696931092687e+01, 2.646709242437259e+01, 6.186489307314813e+01
263, 1.500000000001755e-04, 9.499999999998359e-03, 6.455100313041659e-04, -3.914107806813254e-05, 1.358042350425613e+01, -3.703305132172895e+01, 1.815872280318607e+01, 6.229510967429485e+01
264, 2.000000000000721e-04, 9.499999999998164e-03, 6.452943606386591e-04, -4.378859633704303e-05, 1.222302643210044e+01, -5.430197891664118e+01, 7.155590726584189e+00, 6.804694152741629e+01
265, -1.999999999999023e-04, 9.400000000000087e-03, 6.377316101154523e-04, -6.183580562504762e-06, 3.318188120911817e+00, 1.360035805742354e+02, 2.267920988660605e+01, 1.402241049706341e+02
266, -1.499999999997887e-04, 9.399999999999811e-03, 6.375134321284330e-04, -1.083026513768220e-05, 5.906632796570394e+00, 1.081827380280402e+02, 3.164899108459671e+01, 1.202789933779386e+02
267, -9.999999999963125e-05, 9.399999999999530e-03, 6.372956905891797e-04, -1.547649848735519e-05, 8.435185653488297e+00, 7.997686302180948e+01, 3.741487979730368e+01, 1.035263469927327e+02
268, -4.999999999951849e-05, 9.399999999999249e-03, 6.370783897955255e-04, -2.012243470018831e-05, 1.070812764071416e+01, 5.175364030022062e+01, 4.001141938647128e+01, 8.993547039273251e+01
269, 5.641646004528322e-16, 9.399999999998968e-03, 6.368615255348142e-04, -2.476822802258505e-05, 1.254273789335455e+01, 2.387500304149003e+01, 3.946640845734877e+01, 7.974214581685652e+01
270, 5.000000000041476e-05, 9.399999999998687e-03, 6.366450853643943e-04, -2.941403291073264e-05, 1.375992169226864e+01, -3.311600886638272e+00, 3.580707148768825e+01, 7.362080111802504e+01
271, 1.000000000003000e-04, 9.399999999998406e-03, 6.364290488699675e-04, -3.406000396193679e-05, 1.418666276858958e+01, -2.946958480968291e+01, 2.906304157439750e+01, 7.269463181580916e+01
272, 1.500000000001711e-04, 9.399999999998125e-03, 6.362133879164241e-04, -3.870629572601153e-05, 1.365860591719444e+01, -5.426918378645256e+01, 1.926918987497136e+01, 7.809860003722017e+01
273, 2.000000000000702e-04, 9.399999999997844e-03, 6.359980668764425e-04, -4.335306233986060e-05, 1.200720950369629e+01, -7.739783801250668e+01, 6.467768115593881e+00, 9.033598739684469e+01
274, -1.999999999999042e-04, 9.300000000000464e-03, 6.284362707914321e-04, -5.755923791841604e-06, 3.768070892395137e+00, 1.632291796564878e+02, 2.715810253340279e+01, 1.684579928086912e+02
275, -1.499999999997930e-04, 9.300000000000100e-03, 6.282178386600821e-04, -1.040155634411139e-05, 6.496058159862681e+00, 1.286578993535937e+02, 3.670842819479171e+01, 1.425256125963718e+02
276, -9.999999999963886e-05, 9.299999999999729e-03, 6.279999402387788e-04, -1.504669677830116e-05, 9.082713741427355e+00, 9.372275784927277e+01, 4.267953980582617e+01, 1.202086084218864e+02
277, -4.999999999952863e-05, 9.299999999999361e-03, 6.277825788758969e-04, -1.969151740922857e-05, 1.135815447512918e+01, 5.880034741655749e+01, 4.511251355572485e+01, 1.019378103961113e+02
278, 5.513303572360351e-16, 9.299999999998993e-03, 6.275657495242087e-04, -2.433619024409508e-05, 1.314133538537358e+01, 2.425006454872657e+01, 4.404500493823508e+01, 8.878768891947431e+01
279, 5.000000000040461e-05, 9.299999999998625e-03, 6.273494388896143e-04, -2.898088704719523e-05, 1.425389344836026e+01, -9.576406307766055e+00, 3.951410106541745e+01, 8.254295801883363e+01
280, 1.000000000002923e-04, 9.299999999998258e-03, 6.271336255970224e-04, -3.362577928947079e-05, 1.452061350142401e+01, -4.233510775437234e+01, 3.155868175875642e+01, 8.494924730048334e+01
281, 1.500000000001668e-04, 9.299999999997890e-03, 6.269182803475687e-04, -3.827103800179467e-05, 1.376804524267570e+01, -7.369006501262660e+01, 2.022140627063949e+01, 9.635632898610058e+01
282, 2.000000000000683e-04, 9.299999999997520e-03, 6.267033660355395e-04, -4.291683356874981e-05, 1.182618257213172e+01, -1.033090526963702e+02, 5.550427988411553e+00, 1.156691462912710e+02
283, -1.999999999999061e-04, 9.200000000000841e-03, 6.191427994976187e-04, -5.329463558047606e-06, 4.088949539198900e+00, 1.931394935682973e+02, 3.184183608466294e+01, 1.994886420292349e+02
284, -1.499999999997973e-04, 9.200000000000397e-03, 6.189241006212610e-04, -9.973800694345366e-06, 6.996563239229403e+00, 1.510865436912734e+02, 4.191021723020071e+01, 1.666966937278627e+02
285, -9.999999999964642e-05, 9.199999999999951e-03, 6.187060440085728e-04, -1.461760490663765e-05, 9.693990349872479e+00, 1.087130608004219e+02, 4.803651930983177e+01, 1.379666809867739e+02
286, -4.999999999953884e-05, 9.199999999999505e-03, 6.184886317024519e-04, -1.926106635667126e-05, 1.200676245878018e+01, 6.638568301496777e+01, 5.026154113276257e+01, 1.142889192748698e+02
287, 5.385367716007061e-16, 9.199999999999058e-03, 6.182718574491006e-04, -2.390437474553816e-05, 1.375987310531129e+01, 2.446655782789852e+01, 4.862792973697555e+01, 9.784342236331376e+01
288, 5.000000000039439e-05, 9.199999999998614e-03, 6.180557067569568e-04, -2.854771928822352e-05, 1.477720392633327e+01, -1.668847824585014e+01, 4.317881839950226e+01, 9.191153675175734e+01
289, 1.000000000002848e-04, 9.199999999998171e-03, 6.178401569802246e-04, -3.319128865690989e-05, 1.488302902254640e+01, -5.672891830322519e+01, 3.395887592622749e+01, 9.869697065503448e+01
290, 1.500000000001625e-04, 9.199999999997726e-03, 6.176251773964719e-04, -3.783527088261329e-05, 1.390256780339532e+01, -9.530830088203342e+01, 2.101552753868214e+01, 1.170197565795725e+02
291, 2.000000000000664e-04, 9.199999999997280e-03, 6.174107292671473e-04, -4.247985321067106e-05, 1.166201414352418e+01, -1.320827304109252e+02, 4.400017941924930e+00, 1.440138612029444e+02
292, -1.999999999999080e-04, 9.100000000001274e-03, 6.098516953298253e-04, -4.904344449528466e-06, 4.548623162392232e+00, 2.259285720293838e+02, 3.675620550072480e+01, 2.332662777419785e+02
293, -1.499999999998017e-04, 9.100000000000802e-03, 6.096327208114187e-04, -9.547116636715098e-06, 7.593576659330903e+00, 1.756205691080495e+02, 4.728689173309463e+01, 1.928140832783524e+02
294, -9.999999999965405e-05, 9.100000000000334e-03, 6.094145075520546e-04, -1.418931537845039e-05, 1.037690272896777e+01, 1.250536604589375e+02, 5.351161239039196e+01, 1.568589474844721e+02
295, -4.999999999954905e-05, 9.099999999999862e-03, 6.091970562748844e-04, -1.883114859725580e-05, 1.271492855451917e+01, 7.458612134133624e+01, 5.547545655499457e+01, 1.270360170062170e+02
296, 5.257025283839090e-16, 9.099999999999390e-03, 6.089803593840265e-04, -2.347282367681618e-05, 1.442977300180177e+01, 2.457798510888460e+01, 5.322352940083698e+01, 1.069297083905936e+02
297, 5.000000000038422e-05, 9.099999999998916e-03, 6.087644010179107e-04, -2.811454739312300e-05, 1.534450208761411e+01, -2.461296013640221e+01, 4.680204693710008e+01, 1.017758575370101e+02
298, 1.000000000002772e-04, 9.099999999998446e-03, 6.085491570922872e-04, -3.275652586036069e-05, 1.528242640653607e+01, -7.263151398211556e+01, 3.625862154015632e+01, 1.139632022129448e+02
299, 1.500000000001581e-04, 9.099999999997978e-03, 6.083345953360432e-04, -3.739896445861406e-05, 1.406683012712602e+01, -1.191246527223501e+02, 2.164283909109518e+01, 1.400486381202418e+02
300, 2.000000000000645e-04, 9.099999999997506e-03, 6.081206753100922e-04, -4.204206774334786e-05, 1.152037228999390e+01, -1.637408734941976e+02, 3.007022343220072e+00, 1.753644006271435e+02
301, -1.999999999999099e-04, 9.000000000001736e-03, 6.005635104092418e-04, -4.480714845711618e-06, 5.073385550686012e+00, 2.615430880674539e+02, 4.189662778039555e+01, 2.698110783242887e+02
302, -1.499999999998060e-04, 9.000000000001264e-03, 6.003442533505430e-04, -9.121627218759010e-06, 8.259885154976750e+00, 2.022536920605147e+02, 5.283542070204287e+01, 2.209070479653163e+02
303, -9.999999999966160e-05, 9.000000000000792e-03, 6.001258869515355e-04, -1.376192589758172e-05, 1.111909325387253e+01, 1.427592972829648e+02, 5.910547073430094e+01, 1.769264536458984e+02
304, -4.999999999955923e-05, 9.000000000000320e-03, 5.999084105357430e-04, -1.840183668644085e-05, 1.347207253561153e+01, 8.342282445217674e+01, 6.075402414638639e+01, 1.402045416297620e+02
305, 5.128818376942679e-16, 8.999999999999852e-03, 5.996918150821297e-04, -2.304158471707959e-05, 1.513910093863957e+01, 2.460418603309022e+01, 5.782846966473618e+01, 1.160435928903722e+02
306, 5.000000000037403e-05, 8.999999999999380e-03, 5.994760832613612e-04, -2.768139444300157e-05, 1.594174326594903e+01, -3.333726324079592e+01, 5.037677097558723e+01, 1.121592470463264e+02
307, 1.000000000002695e-04, 8.999999999998908e-03, 5.992611894599101e-04, -3.232148959973583e-05, 1.570193064229128e+01, -9.004314434175393e+01, 3.844796813435535e+01, 1.307478714856305e+02
308, 1.500000000001538e-04, 8.999999999998436e-03, 5.990470997944580e-04, -3.696209315746607e-05, 1.424148524668681e+01, -1.451559143114361e+02, 2.209244690987286e+01, 1.654080887615660e+02
309, 2.000000000000626e-04, 8.999999999997964e-03, 5.988337721139578e-04, -4.160342726745045e-05, 1.138112824783117e+01, -1.983187722436084e+02, 1.361968756595605e+00, 2.097175913024357e+02
310, -1.999999999999118e-04, 8.900000000002187e-03, 5.912788482155775e-04, -4.058729333717950e-06, 5.627084200362944e+00, 2.999887002104854e+02, 4.727177302817849e+01, 3.091718665742426e+02
311, -1.499999999998104e-04, 8.900000000001712e-03, 5.910593033090018e-04, -8.697461344860888e-06, 8.956526816972875e+00, 2.309875136265438e+02, 5.856148562719316e+01, 2.510289813927620e+02
312, -9.999999999966923e-05, 8.900000000001240e-03, 5.908407889406463e-04, -1.333554000631952e-05, 1.189307157007434e+01, 1.618408971397898e+02, 6.482038517963386e+01, 1.982197763403798e+02
313, -4.999999999956943e-05, 8.900000000000770e-03, 5.906233029360490e-04, -1.797320897299513e-05, 1.425743260061413e+01, 9.291075271596318e+01, 6.609682756042719e+01, 1.538229736397622e+02
314, 5.000475944774707e-16, 8.900000000000293e-03, 5.904068347755078e-04, -2.261071119399664e-05, 1.587094389553176e+01, 2.455927434652602e+01, 6.243918405299319e+01, 1.251802456733486e+02
315, 5.000000000036387e-05, 8.899999999999823e-03, 5.901913655985596e-04, -2.724828890152643e-05, 1.655459820604181e+01, -4.285215428321871e+01, 5.389632773299543e+01, 1.230789129531540e+02
316, 1.000000000002620e-04, 8.899999999999349e-03, 5.899768682114326e-04, -3.188618358796025e-05, 1.612945217223643e+01, -1.089624979232333e+02, 4.051792067538281e+01, 1.490463134804546e+02
317, 1.500000000001494e-04, 8.899999999998874e-03, 5.897633070911580e-04, -3.652463597308235e-05, 1.441654347975421e+01, -1.734109029692360e+02, 2.235454287382768e+01, 1.930752495477850e+02
318, 2.000000000000606e-04, 8.899999999998404e-03, 5.895506383846599e-04, -4.116388597440766e-05, 1.123725841326275e+01, -2.358360452894539e+02, -5.424080877558772e-01, 2.470756852235960e+02
319, -1.999999999999137e-04, 8.800000000002590e-03, 5.819983619882931e-04, -3.638548208740095e-06, 6.219151829852805e+00, 3.413001461411786e+02, 5.289058295865982e+01, 3.513814562715202e+02
320, -1.499999999998147e-04, 8.800000000002060e-03, 5.817785258422632e-04, -8.274753770285590e-06, 9.685213025923062e+00, 2.618541510275367e+02, 6.447158507388772e+01, 2.832234355074096e+02
321, -9.999999999967683e-05, 8.800000000001532e-03, 5.815598705190881e-04, -1.291026701735013e-05, 1.269246899946484e+01, 1.823228724317133e+02, 7.066054305699043e+01, 2.207852421449916e+02
322, -4.999999999957961e-05, 8.800000000001001e-03, 5.813423923360239e-04, -1.754534945435268e-05, 1.506314489266192e+01, 1.030700088145734e+02, 7.150554435368505e+01, 1.679207539008717e+02
323, 4.872540088421418e-16, 8.800000000000474e-03, 5.811260792459426e-04, -2.218026189074233e-05, 1.661808493680968e+01, 2.445884476776819e+01, 6.705502481453476e+01, 1.343390595703210e+02
324, 5.000000000035368e-05, 8.799999999999947e-03, 5.809109108300617e-04, -2.681526442063202e-05, 1.717780184932510e+01, -5.314734566444619e+01, 5.735807640604541e+01, 1.345563899963159e+02
325, 1.000000000002544e-04, 8.799999999999419e-03, 5.806968582950868e-04, -3.145061639631298e-05, 1.656262922338410e+01, -1.293853820688138e+02, 4.246456373087222e+01, 1.688602341925439e+02
326, 1.500000000001451e-04, 8.799999999998892e-03, 5.804838844729841e-04, -3.608657639860127e-05, 1.459308281299660e+01, -2.038919216386791e+02, 2.242518877032546e+01, 2.230409234552881e+02
327, 2.000000000000587e-04, 8.799999999998365e-03, 5.802719438230870e-04, -4.072340220519488e-05, 1.109032820731831e+01, -2.763031925466037e+02, -2.708500508914481e+00, 2.874445679976613e+02
328, -1.999999999999156e-04, 8.700000000002964e-03, 5.727227555744866e-04, -3.220337315675319e-06, 6.823884284666313e+00, 3.854799762062751e+02, 5.875981513803386e+01, 3.964735797623462e+02
329, -1.499999999998191e-04, 8.700000000002345e-03, 5.725026265895176e-04, -7.853644860822768e-06, 1.042296521370119e+01, 2.948590612720447e+02, 7.057250916537627e+01, 3.175307999871819e+02
330, -9.999999999968445e-05, 8.700000000001731e-03, 5.722838391646815e-04, -1.248622181287905e-05, 1.349941891902402e+01, 2.042134758765856e+02, 7.663175978913898e+01, 2.446662174365992e+02
331, -4.999999999958977e-05, 8.700000000001117e-03, 5.720663881115828e-04, -1.711834756110614e-05, 1.587454796252381e+01, 1.139082107986457e+02, 7.698448072176997e+01, 1.825295596254719e+02
332, 4.743926605710325e-16, 8.700000000000502e-03, 5.718502598458735e-04, -2.175030083388622e-05, 1.736869835172157e+01, 2.430830202822732e+01, 7.167876384958329e+01, 1.435253944331953e+02
333, 5.000000000034347e-05, 8.699999999999888e-03, 5.716354323753491e-04, -2.638235966217040e-05, 1.780171127078854e+01, -6.422120621735085e+01, 6.076361225333471e+01, 1.466172748674608e+02
334, 1.000000000002468e-04, 8.699999999999274e-03, 5.714218752952402e-04, -3.101480134393739e-05, 1.699329788805900e+01, -1.513151626559442e+02, 4.428891661844361e+01, 1.901940336383718e+02
335, 1.500000000001407e-04, 8.699999999998657e-03, 5.712095497864596e-04, -3.564790240975953e-05, 1.476312645147309e+01, -2.366083746099310e+02, 2.230547197138792e+01, 2.552993691048393e+02
336, 2.000000000000568e-04, 8.699999999998044e-03, 5.709984086156899e-04, -4.028193858564135e-05, 1.093101946507349e+01, -3.197355461753045e+02, -5.134886140620104e+00, 3.308260054093555e+02
337, -1.999999999999175e-04, 8.600000000003331e-03, 5.634527825014651e-04, -2.804267859463504e-06, 7.444035152586885e+00, 4.325483395815129e+02, 6.488550711503737e+01, 4.444706804484446e+02
338, -1.499999999998235e-04, 8.600000000002632e-03, 5.632323611196795e-04, -7.434280330224751e-06, 1.117025489244212e+01, 3.300189377369900e+02, 7.687155946803236e+01, 3.539794191360453e+02
339, -9.999999999969208e-05, 8.600000000001931e-03, 5.630134524997351e-04, -1.206352455902115e-05, 1.431199990784058e+01, 2.275255695488157e+02, 8.274056228106332e+01, 2.698963298479492e+02
340, -4.999999999959999e-05, 8.600000000001230e-03, 5.627960499669595e-04, -1.669229790211316e-05, 1.668832190736543e+01, 1.254346041368242e+02, 8.253895259857521e+01, 1.976776888852368e+02
341, 4.615584173542353e-16, 8.600000000000526e-03, 5.625801383998851e-04, -2.132089708881753e-05, 1.811817233123815e+01, 2.411264326909329e+01, 7.631445473051700e+01, 1.527465799456384e+02
342, 5.000000000033329e-05, 8.599999999999825e-03, 5.623656942270874e-04, -2.594961816744670e-05, 1.842049553530559e+01, -7.607345202275876e+01, 6.411591924965056e+01, 1.592875090206921e+02
343, 1.000000000002392e-04, 8.599999999999124e-03, 5.621526854240786e-04, -3.057875646401588e-05, 1.741414595336249e+01, -1.747567177815615e+02, 4.599318280333570e+01, 2.130519474826525e+02
344, 1.500000000001364e-04, 8.599999999998423e-03, 5.619410715118824e-04, -3.520860654354214e-05, 1.491788248959215e+01, -2.715701515713204e+02, 2.199701920544903e+01, 2.898462852544192e+02
345, 2.000000000000548e-04, 8.599999999997722e-03, 5.617308035555781e-04, -3.983946217454712e-05, 1.074975324168692e+01, -3.661472060572382e+02, -7.820849215279895e+00, 3.772213947518992e+02
346, -1.999999999999195e-04, 8.500000000003703e-03, 5.541892465142839e-04, -2.390516103539603e-06, 8.083421277360813e+00, 4.825205290830116e+02, 7.127097628545519e+01, 4.953875023713440e+02
347, -1.499999999998278e-04, 8.500000000002915e-03, 5.539685353454608e-04, -7.016810906435680e-06, 1.193287409580847e+01, 3.673480259431542e+02, 8.337220521388844e+01, 3.925858231923037e+02
348, -9.999999999969967e-05, 8.500000000002127e-03, 5.537495186387627e-04, -1.164230037864976e-05, 1.513544789898781e+01, 2.522710899043263e+02, 8.899043024361714e+01, 2.964970478926568e+02
349, -4.999999999961013e-05, 8.500000000001340e-03, 5.535321882380285e-04, -1.626729997561757e-05, 1.750805068296187e+01, 1.376577907316427e+02, 8.817198579399533e+01, 2.133849956046386e+02
350, 4.487512791917503e-16, 8.500000000000552e-03, 5.533165274898195e-04, -2.089212452457160e-05, 1.886856046142555e+01, 2.387685090540364e+01, 8.096451650871310e+01, 1.620064650164614e+02
351, 5.000000000032310e-05, 8.499999999999765e-03, 5.531025112442008e-04, -2.551708818192528e-05, 1.903484409565894e+01, -8.870300088029974e+01, 6.741673399149407e+01, 1.725905771714759e+02
352, 1.000000000002316e-04, 8.499999999998977e-03, 5.528901058552426e-04, -3.014250438880651e-05, 1.782478598075406e+01, -1.997129473887894e+02, 4.757837666541788e+01, 2.374394094164321e+02
353, 1.500000000001320e-04, 8.499999999998190e-03, 5.526792691806602e-04, -3.476868583158222e-05, 1.505627596983768e+01, -3.087840787059920e+02, 2.150014162805240e+01, 3.266827201990831e+02
354, 2.000000000000531e-04, 8.499999999997402e-03, 5.524699505818386e-04, -3.939594440552860e-05, 1.054733919203413e+01, -4.155472638311770e+02, -1.076652916851498e+01, 4.266383519174687e+02
355, -1.999999999999213e-04, 8.400000000004074e-03, 5.449330022449313e-04, -1.979263265891125e-06, 8.767634569834591e+00, 5.354329588501204e+02, 7.791264246730005e+01, 5.492339057489149e+02
356, -1.499999999998322e-04, 8.400000000003200e-03, 5.447120061618883e-04, -6.601392145736452e-06, 1.273000553416496e+01, 4.068728568601097e+02, 9.007234349998372e+01, 4.333597760587178e+02
357, -9.999999999970726e-05, 8.400000000002326e-03, 5.444928967461860e-04, -1.122267916458245e-05, 1.598311784512858e+01, 2.784683207511570e+02, 9.538020867776217e+01, 3.244811528799057e+02
358, -4.999999999962035e-05, 8.400000000001451e-03, 5.442756643746572e-04, -1.584345798386793e-05, 1.834355893635597e+01, 1.505901907345875e+02, 9.388321261007941e+01, 2.296636716199027e+02
359, 4.359305885021092e-16, 8.400000000000581e-03, 5.440602908725055e-04, -2.046406163865696e-05, 1.962746551162117e+01, 2.360860751102969e+01, 8.562905320119484e+01, 1.713043738500324e+02
360, 5.000000000031294e-05, 8.399999999999703e-03, 5.438467495218898e-04, -2.508482248948522e-05, 1.965139113560288e+01, -1.021060785446502e+02, 7.066643888172310e+01, 1.865472158994472e+02
361, 1.000000000002240e-04, 8.399999999998832e-03, 5.436350050648935e-04, -2.970607218467756e-05, 1.823205234619830e+01, -2.261833603820277e+02, 4.904502542004877e+01, 2.633639156242214e+02
362, 1.500000000001277e-04, 8.399999999997958e-03, 5.434250137047740e-04, -3.432814162128979e-05, 1.518631928581964e+01, -3.482525278561176e+02, 2.081543051988121e+01, 3.658154236808126e+02
363, 2.000000000000511e-04, 8.399999999997083e-03, 5.432167231072459e-04, -3.895136090651470e-05, 1.033186011729028e+01, -4.679422154423361e+02, -1.397067929358922e+01, 4.790895645619016e+02
364, -1.999999999999233e-04, 8.300000000004210e-03, 5.356849567339964e-04, -1.570695826300047e-06, 9.461732219648255e+00, 5.912735116950169e+02, 8.481175085832287e+01, 6.060338926750811e+02
365, -1.499999999998365e-04, 8.300000000003279e-03, 5.354636825392982e-04, -6.188184671984753e-06, 1.353887360775405e+01, 4.485871131669938e+02, 9.697121917363930e+01, 4.763198926516524e+02
366, -9.999999999971485e-05, 8.300000000002344e-03, 5.352444978544459e-04, -1.080479569549661e-05, 1.684257426602237e+01, 3.061157750811184e+02, 1.019089995112789e+02, 3.538654566856875e+02
367, -4.999999999963053e-05, 8.300000000001409e-03, 5.350273915572195e-04, -1.542088088198242e-05, 1.918800588465733e+01, 1.642316541080334e+02, 9.967186270720424e+01, 2.465270385820621e+02
368, 4.231098978124681e-16, 8.300000000000474e-03, 5.348123439414318e-04, -2.003679156234756e-05, 2.039122809930281e+01, 2.330724747132172e+01, 9.030773829684624e+01, 1.806390144850903e+02
369, 5.000000000030276e-05, 8.299999999999542e-03, 5.345993267205246e-04, -2.465287839139267e-05, 2.026827810065806e+01, -1.162850327633208e+02, 7.386531025453802e+01, 2.011744092669620e+02
370, 1.000000000002164e-04, 8.299999999998609e-03, 5.343883030298083e-04, -2.926949131254671e-05, 1.863513708785092e+01, -2.541727852763066e+02, 5.039413572460935e+01, 2.908306004642042e+02
371, 1.500000000001233e-04, 8.299999999997672e-03, 5.341792274267005e-04, -3.388697952249619e-05, 1.530775267927617e+01, -3.899834702168061e+02, 1.994469811537093e+01, 4.072494804026827e+02
372, 2.000000000000492e-04, 8.299999999996739e-03, 5.339720458893381e-04, -3.850569143185988e-05, 1.010165337354004e+01, -5.233446616984153e+02, -1.743140588250972e+01, 5.345843120668721e+02
373, -1.999999999999252e-04, 8.200000000004194e-03, 5.264460681123692e-04, -1.165005327410922e-06, 1.021398410521431e+01, 6.500988802513903e+02, 9.196312093910285e+01, 6.657939191427349e+02
374, -1.499999999998408e-04, 8.200000000003217e-03, 5.262245249247123e-04, -5.777354027614449e-06, 1.439034020991616e+01, 4.925298422362804e+02, 1.040654228517453e+02, 5.214746708434359e+02
375, -9.999999999972244e-05, 8.200000000002240e-03, 5.260052846642978e-04, -1.038878958849197e-05, 1.773083557004175e+01, 3.352379704291332e+02, 1.085735474990632e+02, 3.846604236889397e+02
376, -4.999999999964069e-05, 8.200000000001265e-03, 5.257883347249493e-04, -1.499968236784388e-05, 2.005022298423767e+01, 1.785967757854556e+02, 1.055352843748835e+02, 2.639844586287221e+02
377, 4.102892071228270e-16, 8.200000000000287e-03, 5.255736538784198e-04, -1.961040207784902e-05, 2.116344513702882e+01, 2.298005053506192e+01, 9.499855538159699e+01, 1.900057950525025e+02
378, 5.000000000029257e-05, 8.199999999999309e-03, 5.253612122782873e-04, -2.422131774858626e-05, 2.088531220452553e+01, -1.312386303758415e+02, 7.701204965307254e+01, 2.164835261013272e+02
379, 1.000000000002088e-04, 8.199999999998328e-03, 5.251509714631681e-04, -2.883279770018320e-05, 1.903067616462425e+01, -2.836855441123219e+02, 5.162518381374839e+01, 3.198401920240385e+02
380, 1.500000000001190e-04, 8.199999999997352e-03, 5.249428843561525e-04, -3.344520951377028e-05, 1.541418861456962e+01, -4.339868195037535e+02, 1.888815077398142e+01, 4.509859366503658e+02
381, 2.000000000000473e-04, 8.199999999996377e-03, 5.247368952594003e-04, -3.805892000097523e-05, 9.849959311648494e+00, -5.817684046263741e+02, -2.114807011098513e+01, 5.931283604974383e+02
382, -1.999999999999271e-04, 8.100000000004175e-03, 5.172173480960211e-04, -7.623885101291684e-07, 1.097476733441995e+01, 7.118882200728547e+02, 9.936622352667976e+01, 7.285425545165707e+02
383, -1.499999999998452e-04, 8.100000000003150e-03, 5.169955468320349e-04, -5.369070874693855e-06, 1.525115940591049e+01, 5.386900419559811e+02, 1.113520298806737e+02, 5.688456398703013e+02
384, -9.999999999973005e-05, 8.100000000002133e-03, 5.167762726296562e-04, -9.974805419426248e-06, 1.862642191750179e+01, 3.658293553612884e+02, 1.153711689708476e+02, 4.168835610944260e+02
385, -4.999999999965090e-05, 8.100000000001112e-03, 5.165595113751954e-04, -1.457998096885649e-05, 2.091646024865845e+01, 1.936828747892579e+02, 1.114707690257777e+02, 2.820481579128064e+02
386, 3.974685164331859e-16, 8.100000000000092e-03, 5.163452403006817e-04, -1.918498568359195e-05, 2.193504191325107e+01, 2.262497689487731e+01, 9.969897868493666e+01, 1.993991509850448e+02
387, 5.000000000028236e-05, 8.099999999999071e-03, 5.161334279937006e-04, -2.379020703755050e-05, 2.149638939616181e+01, -1.469695451177955e+02, 8.010446438199892e+01, 2.324815518430843e+02
388, 1.000000000002012e-04, 8.099999999998051e-03, 5.159240343989587e-04, -2.839603179697185e-05, 1.941467834711496e+01, -3.147256907870307e+02, 5.273643525680232e+01, 3.503916561499184e+02
389, 1.500000000001146e-04, 8.099999999997031e-03, 5.157170108163057e-04, -3.300284599957717e-05, 1.550392342011256e+01, -4.802681300094143e+02, 1.764465569712350e+01, 4.970264222960484e+02
390, 2.000000000000454e-04, 8.099999999996011e-03, 5.155122998945701e-04, -3.761103493641544e-05, 9.577835543289424e+00, -6.432210938468118e+02, -2.512055855688368e+01, 6.547294189676386e+02
391, -1.999999999999291e-04, 8.000000000004158e-03, 5.079998600407287e-04, -3.630473938396241e-07, 1.174754686983758e+01, 7.766530468162217e+02, 1.070246332813865e+02, 7.942905717458121e+02
392, -1.499999999998495e-04, 8.000000000003093e-03, 5.077778137440519e-04, -4.963510902349088e-06, 1.612047248839867e+01, 5.870739734141497e+02, 1.188336589684589e+02, 6.184445441870270e+02
393, -9.999999999973761e-05, 8.000000000002028e-03, 5.075585293884407e-04, -9.562992652998590e-06, 1.953002848531286e+01, 3.978970825364300e+02, 1.223019594111367e+02, 4.505471170638364e+02
394, -4.999999999966106e-05, 8.000000000000966e-03, 5.073419913157349e-04, -1.416189998123551e-05, 2.178704414082758e+01, 2.094955329142630e+02, 1.174771794143950e+02, 3.007291596939924e+02
395, 3.846478257435448e-16, 7.999999999999901e-03, 5.071281752086655e-04, -1.876063953990710e-05, 2.270623854074404e+01, 2.224564137392976e+01, 1.044074010227839e+02, 2.088153100303704e+02
396, 5.000000000027218e-05, 7.999999999998840e-03, 5.069170480898793e-04, -2.335961729451599e-05, 2.210187890238895e+01, -1.634764406377021e+02, 8.314101213655475e+01, 2.491766928901801e+02
397, 1.000000000001936e-04, 7.999999999997775e-03, 5.067085683205777e-04, -2.795923850915535e-05, 1.978799980289267e+01, -3.472943414900849e+02, 5.372681816528706e+01, 3.824862471381126e+02
398, 1.500000000001103e-04, 7.999999999996709e-03, 5.065026855958635e-04, -3.255990773220917e-05, 1.557841237889870e+01, -5.288313148486590e+02, 1.621407668549446e+01, 5.453746750913873e+02
399, 2.000000000000435e-04, 7.999999999995648e-03, 5.062993409390964e-04, -3.716202878123942e-05, 9.286806078885313e+00, -7.077100751013002e+02, -2.934754602933682e+01, 7.193953304365335e+02
400, -1.999999999999309e-04, 7.900000000004136e-03, 4.987947191566222e-04, 3.281172838545947e-08, 1.260130509617279e+01, 8.444590679757296e+02, 1.149260981708961e+02, 8.630291824881281e+02
401, -1.499999999998538e-04, 7.900000000003030e-03, 4.985724433912082e-04, -4.560854234019634e-06, 1.705047963110815e+01, 6.377342631383696e+02, 1.265002543498952e+02, 6.702668248624884e+02
402, -9.999999999974523e-05, 7.900000000001926e-03, 4.983531750198313e-04, -9.153505267737801e-06, 2.047150838362500e+01, 4.314743226025709e+02, 1.293582924571163e+02, 4.856517112145047e+02
403, -4.999999999967128e-05, 7.900000000000816e-03, 4.981368968940350e-04, -1.374556723272928e-05, 2.267939842990381e+01, 2.260560229128238e+02, 1.235488957146652e+02, 3.200302640615720e+02
404, 3.718271350539037e-16, 7.899999999999709e-03, 4.979235831834021e-04, -1.833746531363102e-05, 2.348705517318360e+01, 2.185499491710743e+01, 1.091198477295794e+02, 2.182457978857460e+02
405, 5.000000000026201e-05, 7.899999999998603e-03, 4.977131993785525e-04, -2.292962400804673e-05, 2.270771614711879e+01, -1.807523605362366e+02, 8.611919598006790e+01, 2.665746921015013e+02
406, 1.000000000001860e-04, 7.899999999997496e-03, 4.975057022877720e-04, -2.752246712185160e-05, 2.015453321536604e+01, -3.813891286347319e+02, 5.459528408907116e+01, 4.161248521189901e+02
407, 1.500000000001060e-04, 7.899999999996389e-03, 4.973010400323294e-04, -3.211641775902748e-05, 1.564042102632551e+01, -5.796779610551284e+02, 1.459684381754874e+01, 5.960337636760318e+02
408, 2.000000000000416e-04, 7.899999999995286e-03, 4.970991520399341e-04, -3.671189830809763e-05, 8.978398531452889e+00, -7.752407248794367e+02, -3.382689593576227e+01, 7.871319260949459e+02
409, -1.999999999999328e-04, 7.800000000004094e-03, 4.896030963331338e-04, 4.249773478332896e-07, 1.342916144060084e+01, 9.152386975955983e+02, 1.230703093842290e+02, 9.347971136603979e+02
410, -1.499999999998583e-04, 7.800000000002947e-03, 4.893806080654306e-04, -4.161286055556817e-06, 1.796248436069143e+01, 6.906236025131420e+02, 1.343483742960733e+02, 7.243417167180808e+02
411, -9.999999999975283e-05, 7.800000000001799e-03, 4.891613834738666e-04, -8.746502138005420e-06, 2.140178864822045e+01, 4.665347265695551e+02, 1.365373804323114e+02, 5.222194533371480e+02
412, -4.999999999968147e-05, 7.800000000000654e-03, 4.889454038812717e-04, -1.333111531484576e-05, 2.356200814429016e+01, 2.433490538960276e+02, 1.296837889385709e+02, 3.399674777594637e+02
413, 3.590064443642627e-16, 7.799999999999507e-03, 4.887326419367432e-04, -1.791556931578529e-05, 2.425714827415209e+01, 2.144360709664972e+01, 1.138350649205241e+02, 2.276875140094364e+02
414, 5.000000000025183e-05, 7.799999999998360e-03, 4.885230616024291e-04, -2.250030720119588e-05, 2.330069337624850e+01, -1.988040726585075e+02, 8.903875280085569e+01, 2.846789860468828e+02
415, 1.000000000001784e-04, 7.799999999997211e-03, 4.883166181450470e-04, -2.708577135390786e-05, 2.050574236483063e+01, -4.170159989392777e+02, 5.534271114494266e+01, 4.513053698121365e+02
416, 1.500000000001016e-04, 7.799999999996065e-03, 4.881132581290152e-04, -3.167240346982838e-05, 1.568505937424591e+01, -6.328137519068621e+02, 1.279512611481193e+01, 6.490035202078537e+02
417, 2.000000000000397e-04, 7.799999999994919e-03, 4.879129194098583e-04, -3.626064455030902e-05, 8.650278094387389e+00, -8.458191471796408e+02, -3.855540421954102e+01, 8.579417669668828e+02
418, -1.999999999999347e-04, 7.700000000003952e-03, 4.804262131605312e-04, 8.132329539419955e-07, 1.428338715348306e+01, 9.890439663734891e+02, 1.314575986552013e+02, 1.009595259387686e+03
419, -1.499999999998626e-04, 7.700000000002785e-03, 4.802035316107756e-04, -3.764996406884065e-06, 1.888729455332866e+01, 7.457768065511253e+02, 1.423814715286470e+02, 7.806781003659873e+02
420, -9.999999999976044e-05, 7.700000000001617e-03, 4.799843807268165e-04, -8.342146921645678e-06, 2.233565974538392e+01, 5.030995235778619e+02, 1.438412085050902e+02, 5.602633896873441e+02
421, -4.999999999969162e-05, 7.700000000000449e-03, 4.797687403473867e-04, -1.291868150224247e-05, 2.444124092613345e+01, 2.613871720893478e+02, 1.358834865216722e+02, 3.605560454796793e+02
422, 3.461857536746216e-16, 7.699999999999279e-03, 4.795565816289967e-04, -1.749506244150375e-05, 2.501817626784107e+01, 2.101787115475655e+01, 1.185546170956265e+02, 2.371429766612543e+02
423, 5.000000000024164e-05, 7.699999999998113e-03, 4.793478670268399e-04, -2.207175138807603e-05, 2.387956857117077e+01, -2.176300594014870e+02, 9.190142614829722e+01, 3.034969339480306e+02
424, 1.000000000001708e-04, 7.699999999996944e-03, 4.791425502836903e-04, -2.664920933381569e-05, 2.083802867466475e+01, -4.541778446708864e+02, 5.597115987670761e+01, 4.880278300281784e+02
425, 1.500000000000973e-04, 7.699999999995776e-03, 4.789405764223758e-04, -3.122789660002239e-05, 1.570584227342504e+01, -6.882462720563085e+02, 1.081148396546923e+01, 7.042841273317499e+02
426, 2.000000000000377e-04, 7.699999999994609e-03, 4.787418817409292e-04, -3.580827282469047e-05, 8.295244983138637e+00, -9.194555139062149e+02, -4.352982064196336e+01, 9.318266210836957e+02
427, -1.999999999999367e-04, 7.600000000003967e-03, 4.712653443822630e-04, 1.197357881028497e-06, 1.515662551314762e+01, 1.065876102646859e+03, 1.400840111804798e+02, 1.087430706013855e+03
428, -1.499999999998669e-04, 7.600000000002791e-03, 4.710424907852015e-04, -3.372179759676483e-06, 1.982390828139391e+01, 8.032015497064824e+02, 1.505954463686639e+02, 8.392833150686622e+02
429, -9.999999999976803e-05, 7.600000000001615e-03, 4.708234455564625e-04, -7.940607728074967e-06, 2.327161607352872e+01, 5.411741805327357e+02, 1.512687807313862e+02, 5.997933330483625e+02
430, -4.999999999970180e-05, 7.600000000000435e-03, 4.706081871129020e-04, -1.250840750048052e-05, 2.531662683003073e+01, 2.801747467283998e+02, 1.421485136748036e+02, 3.818081468983535e+02
431, 3.333650629849805e-16, 7.599999999999259e-03, 4.703966851558104e-04, -1.707605996496250e-05, 2.577130962059985e+01, 2.058129942275168e+01, 1.232801206338120e+02, 2.466148592031768e+02
432, 5.000000000023146e-05, 7.599999999998081e-03, 4.701889006619470e-04, -2.164404539687723e-05, 2.444787684698480e+01, -2.372272544380494e+02, 9.470968095532965e+01, 3.230380302683899e+02
433, 1.000000000001632e-04, 7.599999999996904e-03, 4.699847858751234e-04, -2.621284343551651e-05, 2.115823893092813e+01, -4.928714275261807e+02, 5.648382571387310e+01, 5.262966732434353e+02
434, 1.500000000000929e-04, 7.599999999995727e-03, 4.697842843001374e-04, -3.078293306427643e-05, 1.571419643713383e+01, -7.459711027688907e+02, 8.649693419562329e+00, 7.618817256054779e+02
435, 2.000000000000358e-04, 7.599999999994550e-03, 4.695873306995696e-04, -3.535479259314554e-05, 7.928299307206963e+00, -9.961450928974946e+02, -4.874491653097094e+01, 1.008795144954565e+03
436, -1.999999999999386e-04, 7.500000000004145e-03, 4.621218178600613e-04, 1.577126647626571e-06, 1.601035193870479e+01, 1.145710574738433e+03, 1.489504854576250e+02, 1.168318270791826e+03
437, -1.499999999998712e-04, 7.500000000002950e-03, 4.618988152196899e-04, -2.983035143166464e-06, 2.073945599000503e+01, 8.628743572830283e+02, 1.589935889911309e+02, 9.001705601367624e+02
438, -9.999999999977570e-05, 7.500000000001755e-03, 4.616799094986554e-04, -7.542057117312222e-06, 2.419171330837077e+01, 5.807464093987332e+02, 1.588230127469899e+02, 6.408214472474824e+02
439, -4.999999999971198e-05, 7.500000000000564e-03, 4.614650776910585e-04, -1.210043936859559e-05, 2.617787274335002e+01, 2.997047081719389e+02, 1.484819701650871e+02, 4.037381720323230e+02
440, 3.205443722953394e-16, 7.499999999999370e-03, 4.612542880541130e-04, -1.665868143088355e-05, 2.651063454011597e+01, 2.012925543589721e+01, 1.280151482296400e+02, 2.561098098556527e+02
441, 5.000000000022125e-05, 7.499999999998177e-03, 4.610475001014211e-04, -2.121728224598379e-05, 2.500213596718186e+01, -2.575997067046713e+02, 9.746790329808995e+01, 3.433129333055050e+02
442, 1.000000000001556e-04, 7.499999999996980e-03, 4.608446645967694e-04, -2.577674013947057e-05, 2.146415408159341e+01, -5.331014325385111e+02, 5.688617741830560e+01, 5.661158349563880e+02
443, 1.500000000000885e-04, 7.499999999995787e-03, 4.606457235470512e-04, -3.033755279857227e-05, 1.570812787049350e+01, -8.059946511693228e+02, 6.316536371033294e+00, 8.217998853788333e+02
444, 2.000000000000339e-04, 7.499999999994593e-03, 4.604506101960772e-04, -3.490021724508779e-05, 7.544785643316359e+00, -1.075897925846044e+03, -5.419368967862101e+01, 1.088850739579740e+03
445, -1.999999999999404e-04, 7.400000000004559e-03, 4.529970124793127e-04, 1.952309897298057e-06, 1.692425656898702e+01, 1.228613964732751e+03, 1.580474048205557e+02, 1.252241141933948e+03
446, -1.499999999998756e-04, 7.400000000003323e-03, 4.527738863037264e-04, -2.597765554035151e-06, 2.169584230499015e+01, 9.248462854608856e+02, 1.675701928144927e+02, 9.633274630426745e+02
447, -9.999999999978329e-05, 7.400000000002085e-03, 4.525551562758203e-04, -7.146671661000979e-06, 2.513395914898705e+01, 6.218474803648833e+02, 1.665003098919290e+02, 6.833421099115051e+02
448, -4.999999999972218e-05, 7.400000000000849e-03, 4.523407980277553e-04, -1.169492721568749e-05, 2.704804647388340e+01, 3.199960846112771e+02, 1.548820419679421e+02, 4.263476758998288e+02
449, 3.077507866600104e-16, 7.399999999999613e-03, 4.521307784191251e-04, -1.624305045307572e-05, 2.724898669573010e+01, 1.967215089163352e+01, 1.327595239637009e+02, 2.656271319972344e+02
450, 5.000000000021107e-05, 7.399999999998373e-03, 4.519250555410094e-04, -2.079155902739182e-05, 2.554787335249006e+01, -2.787434920129357e+02, 1.001774303582772e+02, 3.643285677087441e+02
451, 1.000000000001480e-04, 7.399999999997137e-03, 4.517235787119188e-04, -2.534096999387359e-05, 2.175554582040967e+01, -5.748694184819656e+02, 5.718095554599086e+01, 6.074866210357400e+02
452, 1.500000000000842e-04, 7.399999999995899e-03, 4.515262884706995e-04, -2.989179978998585e-05, 1.568230271805186e+01, -8.683237021894568e+02, 3.815842596273910e+00, 8.840389467276950e+02
453, 2.000000000000320e-04, 7.399999999994663e-03, 4.513331165650966e-04, -3.444456421665102e-05, 7.137585829675089e+00, -1.158723941983938e+03, -5.987155236568878e+01, 1.171994672840539e+03
454, -1.999999999999424e-04, 7.300000000004963e-03, 4.438923625491354e-04, 2.322674038218262e-06, 1.784497225145061e+01, 1.314555816331804e+03, 1.673652229433925e+02, 1.339217489640555e+03
455, -1.499999999998800e-04, 7.300000000003675e-03, 4.436691400125354e-04, -2.216578119359407e-06, 2.266034833616168e+01, 9.891000124558328e+02, 1.763147015178934e+02, 1.028762907704743e+03
456, -9.999999999979085e-05, 7.300000000002383e-03, 4.434506236687493e-04, -6.754632019489222e-06, 2.608000113802252e+01, 6.644689669899608e+02, 1.742929190003522e+02, 7.273599921470526e+02
457, -4.999999999973237e-05, 7.300000000001096e-03, 4.432367877837627e-04, -1.129202521892168e-05, 2.791643525483035e+01, 3.410445946329170e+02, 1.613434519451547e+02, 4.496399472220214e+02
458, 2.949029909160572e-16, 7.299999999999806e-03, 4.430275978390901e-04, -1.582929470065048e-05, 2.798026700349902e+01, 1.920776640718694e+01, 1.375101305425560e+02, 2.751601366005538e+02
459, 5.000000000020089e-05, 7.299999999998517e-03, 4.428230105298410e-04, -2.036697687601305e-05, 2.608197116807654e+01, -3.006599915203588e+02, 1.028370050337288e+02, 3.860856234033061e+02
460, 1.000000000001404e-04, 7.299999999997227e-03, 4.426229737598177e-04, -2.490560757386730e-05, 2.203173738722725e+01, -6.181764650989982e+02, 5.736849851929386e+01, 6.504084263138639e+02
461, 1.500000000000799e-04, 7.299999999995936e-03, 4.424274266333067e-04, -2.944572202848208e-05, 1.563939739689523e+01, -9.329586502174543e+02, 1.149433664649823e+00, 9.486008331899953e+02
462, 2.000000000000302e-04, 7.299999999994650e-03, 4.422362994444897e-04, -3.398785486947318e-05, 6.714105968166166e+00, -1.244622866774696e+03, -6.577502830931657e+01, 1.258232743473813e+03
463, -1.999999999999443e-04, 7.200000000005343e-03, 4.348093558153131e-04, 2.687980798273160e-06, 1.876909203718282e+01, 1.403544911097357e+03, 1.769019118762670e+02, 1.429258973998656e+03
464, -1.499999999998843e-04, 7.200000000003976e-03, 4.345860658517786e-04, -1.839684382494952e-06, 2.362276060424745e+01, 1.055636891111907e+03, 1.852247972825656e+02, 1.096488060893027e+03
465, -9.999999999979844e-05, 7.200000000002606e-03, 4.343678029780877e-04, -6.366123115801165e-06, 2.702177468982751e+01, 7.086120312453997e+02, 1.821977534335265e+02, 7.728837967355682e+02
466, -4.999999999974257e-05, 7.200000000001237e-03, 4.341545400958424e-04, -1.089189170664102e-05, 2.877723749149582e+01, 3.628511736088100e+02, 1.678635995274347e+02, 4.736223674808266e+02
467, 2.821094052807283e-16, 7.199999999999870e-03, 4.339462413221539e-04, -1.541754591009234e-05, 2.870032398185054e+01, 1.873629349129187e+01, 1.422653619771273e+02, 2.847051365492886e+02
468, 5.000000000019069e-05, 7.199999999998501e-03, 4.337428619796351e-04, -1.994364092432553e-05, 2.660144849540541e+01, -3.233502433386697e+02, 1.054462909884872e+02, 4.085852025593271e+02
469, 1.000000000001328e-04, 7.199999999997132e-03, 4.335443485872864e-04, -2.447073138564833e-05, 2.229048209620566e+01, -6.630254152880240e+02, 5.744990205565577e+01, 6.948811727139898e+02
470, 1.500000000000756e-04, 7.199999999995762e-03, 4.333506388501063e-04, -2.899937136111069e-05, 1.557675253728911e+01, -9.999054723508877e+02, -1.679957370451348e+00, 1.015487783329227e+03
471, 2.000000000000282e-04, 7.199999999994395e-03, 4.331616616476970e-04, -3.353011433840768e-05, 6.269675634270641e+00, -1.333605341512172e+03, -7.189913783941506e+01, 1.347569295309664e+03
472, -1.999999999999461e-04, 7.100000000005715e-03, 4.257495330573265e-04, 3.047988037245844e-06, 1.972667266005153e+01, 1.495611832797962e+03, 1.866488985173362e+02, 1.522362719980440e+03
473, -1.499999999998886e-04, 7.100000000004259e-03, 4.255262065913183e-04, -1.467299888532604e-06, 2.460406151253082e+01, 1.124481249108596e+03, 1.942939628109251e+02, 1.166503494951182e+03
474, -9.999999999980600e-05, 7.100000000002804e-03, 4.253082388838998e-04, -5.981333868996089e-06, 2.797055027433562e+01, 7.542924731903654e+02, 1.902100900662768e+02, 8.199164891380851e+02
475, -4.999999999975274e-05, 7.100000000001348e-03, 4.250956015228864e-04, -1.049468897242238e-05, 2.963697937780574e+01, 3.854264822290288e+02, 1.744393299431161e+02, 4.982995982971827e+02
476, 2.692616095367750e-16, 7.099999999999895e-03, 4.248882573023356e-04, -1.500793973713508e-05, 2.941378588208617e+01, 1.826513292407901e+01, 1.470237711710660e+02, 2.942588140060142e+02
477, 5.000000000018050e-05, 7.099999999998441e-03, 4.246861602136026e-04, -1.952166016885667e-05, 2.711106742025518e+01, -3.468087403133738e+02, 1.080056925628708e+02, 4.318297594185648e+02
478, 1.000000000001252e-04, 7.099999999996985e-03, 4.244892554344664e-04, -2.403642373627158e-05, 2.253838987458018e+01, -7.094115027320202e+02, 5.742761218884282e+01, 7.409064501363598e+02
479, 1.500000000000712e-04, 7.099999999995530e-03, 4.242974793183072e-04, -2.855280336516939e-05, 1.550481192524782e+01, -1.069158665689327e+03, -4.667685364106109e+00, 1.084703650227829e+03
480, 2.000000000000263e-04, 7.099999999994075e-03, 4.241107593823911e-04, -3.307137143314910e-05, 5.818626215899698e+00, -1.425665106081458e+03, -7.823692302196957e+01, 1.440010326465667e+03
481, -1.999999999999481e-04, 7.000000000006086e-03, 4.167144896645494e-04, 3.402449588323506e-06, 2.067884367527529e+01, 1.590733898380139e+03, 1.965988737889593e+02, 1.618541733630814e+03
482, -1.499999999998929e-04, 7.000000000004546e-03, 4.164911591908396e-04, -1.099644158200840e-06, 2.557841504952326e+01, 1.195620189671864e+03, 2.035162319011271e+02, 1.238819268880788e+03
483, -9.999999999981362e-05, 7.000000000003004e-03, 4.162735299859685e-04, -5.600457146047232e-06, 2.890946350955358e+01, 8.015037832555149e+02, 1.983256994972146e+02, 8.684666460077569e+02
484, -4.999999999976293e-05, 7.000000000001462e-03, 4.160615723474276e-04, -1.010058321153084e-05, 3.048334342869930e+01, 4.087663305753928e+02, 1.810681445943199e+02, 5.236799693629150e+02
485, 2.564544713742900e-16, 6.999999999999921e-03, 4.158552477776912e-04, -1.460061568777066e-05, 3.011072230767321e+01, 1.779044284686509e+01, 1.517846019009214e+02, 3.038191086532859e+02
486, 5.000000000017032e-05, 6.999999999998381e-03, 4.156545089693227e-04, -1.910114740376187e-05, 2.760144333095457e+01, -3.710405924509327e+02, 1.105162979491499e+02, 4.558189126636461e+02
487, 1.000000000001176e-04, 6.999999999996837e-03, 4.154592997931644e-04, -2.360277067877884e-05, 2.276475599568685e+01, -7.573426364459600e+02, 5.730469643020198e+01, 7.884813610187218e+02
488, 1.500000000000668e-04, 6.999999999995296e-03, 4.152695552863028e-04, -2.810607731778390e-05, 1.540930012001418e+01, -1.140730703495536e+03, -7.808481854247777e+00, 1.156245474592501e+03
489, 2.000000000000244e-04, 6.999999999993755e-03, 4.150852016396643e-04, -3.261165860584342e-05, 5.342605566022698e+00, -1.520819276675390e+03, -8.478140938949555e+01, 1.535552552118921e+03
490, -1.999999999999499e-04, 6.900000000006458e-03, 4.077058741750593e-04, 3.751115427103571e-06, 2.164416710447534e+01, 1.688933558844966e+03, 2.067456985710706e+02, 1.717797732947897e+03
491, -1.499999999998973e-04, 6.900000000004828e-03, 4.074825739560974e-04, -7.369405469727262e-07, 2.655495796478476e+01, 1.269068106051883e+03, 2.128870520459517e+02, 1.313439191924991e+03
492, -9.999999999982122e-05, 6.900000000003202e-03, 4.072653283225942e-04, -5.223689616797870e-06, 2.984248928213003e+01, 8.502550983148245e+02, 2.065414042258919e+02, 9.185391966041765e+02
493, -4.999999999977310e-05, 6.900000000001573e-03, 4.070541063343172e-04, -9.709744386470336e-06, 3.131838340109597e+01, 4.328771226156817e+02, 1.877483206737397e+02, 5.497700871299249e+02
494, 2.436337806846489e-16, 6.899999999999946e-03, 4.068488682443131e-04, -1.419571699854482e-05, 3.079256884056706e+01, 1.731675832969690e+01, 1.565476116312423e+02, 3.133850926555219e+02
495, 5.000000000016015e-05, 6.899999999998319e-03, 4.066495654881718e-04, -1.868221911987956e-05, 2.807445568568770e+01, -3.960424370821806e+02, 1.129793646531575e+02, 4.805543528892399e+02
496, 1.000000000001100e-04, 6.899999999996692e-03, 4.064561406716620e-04, -2.316986193714943e-05, 2.297287811965698e+01, -8.068159458515900e+02, 5.708389346572444e+01, 8.376059789426109e+02
497, 1.500000000000625e-04, 6.899999999995065e-03, 4.062685275583093e-04, -2.765925615185779e-05, 1.529607706899314e+01, -1.214618309218529e+03, -1.109825907592527e+01, 1.230114662547795e+03
498, 2.000000000000225e-04, 6.899999999993437e-03, 4.060866510568125e-04, -3.215101197793334e-05, 4.852331139396284e+00, -1.619062635180087e+03, -9.152632483591889e+01, 1.634199525880573e+03
499, -1.999999999999519e-04, 6.800000000006828e-03, 3.987253891178022e-04, 4.093731916723152e-06, 2.260557702124026e+01, 1.790201373563898e+03, 2.170824092927179e+02, 1.820135706383619e+03
500, -1.499999999999017e-04, 6.800000000005111e-03, 3.985021550009262e-04, -3.794160299461423e-07, 2.752190409964277e+01, 1.344819285708889e+03, 2.224014238820938e+02, 1.390367564701402e+03
501, -9.999999999982880e-05, 6.800000000003401e-03, 3.982853396308279e-04, -4.851231540197982e-06, 3.076320003356736e+01, 9.005447727162218e+02, 2.148540664226732e+02, 9.701386826695168e+02
502, -4.999999999978328e-05, 6.800000000001686e-03, 3.980749108622302e-04, -9.322346020888933e-06, 3.213862403500292e+01, 4.577590277030089e+02, 1.944784787756270e+02, 5.765763113812812e+02
503, 2.308130899950078e-16, 6.799999999999972e-03, 3.978708277397745e-04, -1.379339043317273e-05, 3.145804178195448e+01, 1.684504872736548e+01, 1.613133301769226e+02, 3.229574299146699e+02
504, 5.000000000014997e-05, 6.799999999998255e-03, 3.976730404862975e-04, -1.826499529429809e-05, 2.853082177392449e+01, -4.218130336040354e+02, 1.153974470508579e+02, 5.060393969051293e+02
505, 1.000000000001024e-04, 6.799999999996542e-03, 3.974814904893017e-04, -2.273779067263800e-05, 2.316568795635212e+01, -8.578300780895524e+02, 5.676989412991781e+01, 8.882819503451020e+02
506, 1.500000000000582e-04, 6.799999999994830e-03, 3.972961102873305e-04, -2.721240618263634e-05, 1.517080817719048e+01, -1.290819885885303e+03, -1.452998757953642e+01, 1.306313964992367e+03
507, 2.000000000000206e-04, 6.799999999993115e-03, 3.971168235579858e-04, -3.168947097769827e-05, 4.353698978633389e+00, -1.720395401943531e+03, -9.846247109447197e+01, 1.735954749982825e+03
508, -1.999999999999538e-04, 6.700000000007203e-03, 3.897747903429009e-04, 4.430042046928419e-06, 2.358143991810866e+01, 1.894556224092418e+03, 2.275985653848126e+02, 1.925552147015760e+03
509, -1.499999999999060e-04, 6.700000000005407e-03, 3.895516599036360e-04, -2.730092118135165e-08, 2.849458791319586e+01, 1.422890065949543e+03, 2.320520601756063e+02, 1.469602457705888e+03
510, -9.999999999983645e-05, 6.700000000003612e-03, 3.893353231555297e-04, -4.483286539030293e-06, 3.168032560148995e+01, 9.523838360487518e+02, 2.232586784295725e+02, 1.023265705536147e+03
511, -4.999999999979346e-05, 6.700000000001816e-03, 3.891257468048447e-04, -8.938565007084638e-06, 3.294835009373301e+01, 4.834189864244842e+02, 2.012561688741675e+02, 6.041026206166148e+02
512, 2.179923993053667e-16, 6.700000000000018e-03, 3.889228887455457e-04, -1.339378611647721e-05, 3.210845983069078e+01, 1.637900032999130e+01, 1.660818050342137e+02, 3.325358322795823e+02
513, 5.000000000013978e-05, 6.699999999998221e-03, 3.887266980431046e-04, -1.784959924710115e-05, 2.896966989804329e+01, -4.483515915790937e+02, 1.177730631252251e+02, 5.322758347414604e+02
514, 1.000000000000948e-04, 6.699999999996424e-03, 3.885371149191819e-04, -2.230665336447037e-05, 2.334027202751683e+01, -9.103872006491275e+02, 5.636767640747343e+01, 9.405085076730693e+02
515, 1.500000000000538e-04, 6.699999999994629e-03, 3.883540707370026e-04, -2.676559701366336e-05, 1.502778220534245e+01, -1.369341264237556e+03, -1.809630232273466e+01, 1.384842070916479e+03
516, 2.000000000000187e-04, 6.699999999992831e-03, 3.881774879864487e-04, -3.122707831070263e-05, 3.838897956352483e+00, -1.824826250020878e+03, -1.055804718938386e+02, 1.840816440498043e+03
517, -1.999999999999557e-04, 6.600000000007607e-03, 3.808558883183901e-04, 4.759785560499602e-06, 2.456210989873543e+01, 2.001999793987271e+03, 2.382833070698795e+02, 2.034053964909993e+03
518, -1.499999999999103e-04, 6.600000000005753e-03, 3.806329005354901e-04, 3.191711638875914e-07, 2.946395812065140e+01, 1.503282300747102e+03, 2.418292517371137e+02, 1.551149913788189e+03
519, -9.999999999984406e-05, 6.600000000003900e-03, 3.804170921879930e-04, -4.120061529098117e-06, 3.258643391849873e+01, 1.005773703928999e+03, 2.317490525442188e+02, 1.077925765501068e+03
520, -4.999999999980367e-05, 6.600000000002050e-03, 3.802084288953849e-04, -8.558581519268796e-06, 3.374194263775354e+01, 5.098582087496121e+02, 2.080782350926412e+02, 6.323550478436714e+02
521, 2.051717086157256e-16, 6.600000000000198e-03, 3.800068674579332e-04, -1.299705743781620e-05, 3.273978396890644e+01, 1.591950334622760e+01, 1.708526423631495e+02, 3.421190194217602e+02
522, 5.000000000012958e-05, 6.599999999998345e-03, 3.798123558377695e-04, -1.743615754457569e-05, 2.938840221757704e+01, -4.756575944132225e+02, 1.201083538717135e+02, 5.592633774813872e+02
523, 1.000000000000872e-04, 6.599999999996491e-03, 3.796248331430063e-04, -2.187654972134052e-05, 2.349551470770830e+01, -9.644871173269353e+02, 5.588173949643797e+01, 9.942840421321731e+02
524, 1.500000000000495e-04, 6.599999999994639e-03, 3.794442296125619e-04, -2.631890146521328e-05, 1.486815096474004e+01, -1.450181927282166e+03, -2.179053451924712e+01, 1.465698141279372e+03
525, 2.000000000000168e-04, 6.599999999992787e-03, 3.792704666008503e-04, -3.076387988396367e-05, 3.312458868667235e+00, -1.932353880475348e+03, -1.128714628130985e+02, 1.948785274405504e+03
526, -1.999999999999576e-04, 6.500000000008018e-03, 3.719705477690727e-04, 5.082698688247232e-06, 2.551684065020666e+01, 2.112516073150517e+03, 2.491304985630657e+02, 2.145653704052453e+03
527, -1.499999999999147e-04, 6.500000000006126e-03, 3.717477428069698e-04, 6.597632276719440e-07, 3.040349320616858e+01, 1.585981765072908e+03, 2.517297652329841e+02, 1.635021485706204e+03
528, -9.999999999985163e-05, 6.500000000004228e-03, 3.715325139008047e-04, -3.761766715964800e-06, 3.346386426238223e+01, 1.060705979655423e+03, 2.403232040633715e+02, 1.134128446553700e+03
529, -4.999999999981387e-05, 6.500000000002332e-03, 3.713248256252085e-04, -8.182578942378552e-06, 3.450767616430423e+01, 5.370716919636671e+02, 2.149442895711410e+02, 6.613431639121648e+02
530, 1.923510179260846e-16, 6.500000000000438e-03, 3.711246337276838e-04, -1.260336093727249e-05, 3.334418424301487e+01, 1.546329331887461e+01, 1.756272542192882e+02, 3.517093344775868e+02
531, 5.000000000011942e-05, 6.499999999998543e-03, 3.709318851109816e-04, -1.702479985540978e-05, 2.978167675896498e+01, -5.037337914895433e+02, 1.224066926298056e+02, 5.870028521759463e+02
532, 1.000000000000796e-04, 6.499999999996646e-03, 3.707465178164610e-04, -2.144758251259080e-05, 2.362761502834476e+01, -1.020132971786187e+03, 5.531749848331285e+01, 1.049607672009509e+03
533, 1.500000000000451e-04, 6.499999999994751e-03, 3.705684610074378e-04, -2.587239537883027e-05, 1.468866859599254e+01, -1.533346471682456e+03, -2.560511148854175e+01, 1.548881945944970e+03
534, 2.000000000000149e-04, 6.499999999992855e-03, 3.703976349530485e-04, -3.029992457009053e-05, 2.770964027639820e+00, -2.042985123290053e+03, -1.203256697850296e+02, 2.059861897320851e+03
535, -1.999999999999595e-04, 6.400000000008258e-03, 3.631206861052290e-04, 5.398514857133442e-06, 2.647824569872520e+01, 2.226132400826847e+03, 2.601312475276522e+02, 2.260343218613842e+03
536, -1.499999999999190e-04, 6.400000000006336e-03, 3.628981056996617e-04, 9.942354047786018e-07, 3.133876716594446e+01, 1.671010302880607e+03, 2.617479655105709e+02, 1.721211995899568e+03
537, -9.999999999985919e-05, 6.400000000004416e-03, 3.626835087674993e-04, -3.408615179771485e-06, 3.432871249346093e+01, 1.117195126511348e+03, 2.489777353389906e+02, 1.191872191716078e+03
538, -4.999999999982406e-05, 6.400000000002495e-03, 3.624768589076762e-04, -7.810743535485656e-06, 3.525589477700620e+01, 5.650692153677418e+02, 2.218530573156970e+02, 6.910696570076485e+02
539, 1.795438797635995e-16, 6.400000000000575e-03, 3.622781108784379e-04, -1.221285601848357e-05, 3.392877514406300e+01, 1.501704021947035e+01, 1.804066296173422e+02, 3.613085409416911e+02
540, 5.000000000010922e-05, 6.399999999998654e-03, 3.620872105852683e-04, -1.661565869363958e-05, 3.015530346561550e+01, -5.325754832460646e+02, 1.246714429225425e+02, 6.154980203336980e+02
541, 1.000000000000720e-04, 6.399999999996736e-03, 3.619040950644091e-04, -2.101985732754641e-05, 2.374262126860347e+01, -1.077321183765549e+03, 5.468078999491942e+01, 1.106481566920191e+03
542, 1.500000000000408e-04, 6.399999999994814e-03, 3.617286924657322e-04, -2.542615738154620e-05, 1.449702951779096e+01, -1.618831640689590e+03, -2.953172009719080e+01, 1.634396229464877e+03
543, 2.000000000000129e-04, 6.399999999992895e-03, 3.615609220351868e-04, -2.983526400554901e-05, 2.224116310475836e+00, -2.156717109516519e+03, -1.279320036395718e+02, 2.174050046985191e+03
544, -1.999999999999615e-04, 6.300000000008254e-03, 3.543082752825797e-04, 5.706964951413440e-06, 2.744104043729786e+01, 2.342848082830810e+03, 2.712713597925794e+02, 2.378121606339830e+03
545, -1.499999999999234e-04, 6.300000000006307e-03, 3.540859624600148e-04, 1.322345285978555e-06, 3.226965800819241e+01, 1.758370770285070e+03, 2.718722822645635e+02, 1.809719094571984e+03
546, -9.999999999986685e-05, 6.300000000004357e-03, 3.538720513250300e-04, -3.060822588949533e-06, 3.518192846053549e+01, 1.175244614148092e+03, 2.577048362009896e+02, 1.251155489019106e+03
547, -4.999999999983422e-05, 6.300000000002410e-03, 3.536665045582047e-04, -7.443264173987124e-06, 3.598708748672860e+01, 5.938534049487145e+02, 2.288003171986649e+02, 7.215352858727256e+02
548, 1.667096365468024e-16, 6.300000000000461e-03, 3.534692759953625e-04, -1.182570471385690e-05, 3.449344742994703e+01, 1.458216927145281e+01, 1.851899039637994e+02, 3.709146278032047e+02
549, 5.000000000009904e-05, 6.299999999998514e-03, 3.532803106110151e-04, -1.620886920055218e-05, 3.050849572401282e+01, -5.621827734495948e+02, 1.269049571810927e+02, 6.447498842056210e+02
550, 1.000000000000644e-04, 6.299999999996569e-03, 3.530995445015195e-04, -2.059348236904445e-05, 2.383889103764957e+01, -1.136053780995659e+03, 5.397711034151007e+01, 1.164905628967362e+03
551, 1.500000000000364e-04, 6.299999999994618e-03, 3.529269048673716e-04, -2.498026869198503e-05, 1.429043894780210e+01, -1.706641874593722e+03, -3.356168612148812e+01, 1.722240858559758e+03
552, 2.000000000000111e-04, 6.299999999992672e-03, 3.527623099949978e-04, -2.936995237276008e-05, 1.667664557904942e+00, -2.273557034914553e+03, -1.356791824440209e+02, 2.291349557637212e+03
553, -1.999999999999633e-04, 6.200000000008235e-03, 3.455353419798409e-04, 6.007777174986493e-06, 2.839910124982330e+01, 2.462667679572000e+03, 2.825378141183509e+02, 2.498994593238204e+03
554, -1.499999999999277e-04, 6.200000000006244e-03, 3.453133408226832e-04, 1.643847850779393e-06, 3.318760675449963e+01, 1.848064423819112e+03, 2.820920914543677e+02, 1.900547724568624e+03
555, -9.999999999987445e-05, 6.200000000004252e-03, 3.451001703826751e-04, -2.718607181166194e-06, 3.601657400002526e+01, 1.234855194200381e+03, 2.664969924007371e+02, 1.311981945423963e+03
556, -4.999999999984441e-05, 6.200000000002263e-03, 3.448957924840129e-04, -7.080332274392899e-06, 3.669619350729261e+01, 6.234248932512860e+02, 2.357817937550900e+02, 7.527435048997422e+02
557, 1.538618408028491e-16, 6.200000000000271e-03, 3.447001601020761e-04, -1.144207157544193e-05, 3.503453099022107e+01, 1.415892147788637e+01, 1.899759622702149e+02, 3.805249742585733e+02
558, 5.000000000008886e-05, 6.199999999998280e-03, 3.445132173438546e-04, -1.580456901963297e-05, 3.083859263539020e+01, -5.925560982291878e+02, 1.291091795361681e+02, 6.747574835154871e+02
559, 1.000000000000568e-04, 6.199999999996288e-03, 3.443348994299632e-04, -2.016856832804124e-05, 2.391448587784888e+01, -1.196332169081336e+03, 5.321136311986893e+01, 1.224878645254042e+03
560, 1.500000000000321e-04, 6.199999999994299e-03, 3.441651326761684e-04, -2.453481300365168e-05, 1.406738687934225e+01, -1.796779905009831e+03, -3.768730457456299e+01, 1.812415307330727e+03
561, 2.000000000000091e-04, 6.199999999992307e-03, 3.440038344736693e-04, -2.890404632817088e-05, 1.101795505370717e+00, -2.393508256229219e+03, -1.435563767574468e+02, 2.411760981751558e+03
562, -1.999999999999653e-04, 6.100000000008216e-03, 3.368039672747334e-04, 6.300677172941191e-06, 2.933615335273720e+01, 2.585585181600626e+03, 2.939204756218884e+02, 2.622968943464155e+03
563, -1.499999999999321e-04, 6.100000000006179e-03, 3.365823227877754e-04, 1.958495557175288e-06, 3.407911610857190e+01, 1.940086788205892e+03, 2.924000926046585e+02, 1.993704216456066e+03
564, -9.999999999988203e-05, 6.100000000004146e-03, 3.363699488963345e-04, -2.382189643949851e-06, 3.682330472631517e+01, 1.296024653716173e+03, 2.753491819989566e+02, 1.374356840637778e+03
565, -4.999999999985460e-05, 6.100000000002112e-03, 3.361668066263145e-04, -6.722141645189348e-06, 3.737729974927078e+01, 6.537830484438825e+02, 2.427949029210620e+02, 7.846996282409955e+02
566, 1.410275975860520e-16, 6.100000000000079e-03, 3.359728481501496e-04, -1.106212350161793e-05, 3.554891741736063e+01, 1.374763137081879e+01, 1.947649214545356e+02, 3.901394553105964e+02
567, 5.000000000007866e-05, 6.099999999998046e-03, 3.357880167691382e-04, -1.540289810210737e-05, 3.114504366254246e+01, -6.236945178432505e+02, 1.312871155537089e+02, 7.055211394102595e+02
568, 1.000000000000492e-04, 6.099999999996011e-03, 3.356122468944328e-04, -1.974522816659413e-05, 2.397160439478517e+01, -1.258154864266968e+03, 5.238956924514387e+01, 1.286400773284059e+03
569, 1.500000000000277e-04, 6.099999999993980e-03, 3.354454640271639e-04, -2.408987624402500e-05, 1.383358724961863e+01, -1.889243359096934e+03, -4.189939878920066e+01, 1.904921022560070e+03
570, 2.000000000000072e-04, 6.099999999991945e-03, 3.352875847383324e-04, -2.843760470976835e-05, 5.350356016417948e-01, -2.516568449826736e+03, -1.515511553604811e+02, 2.535287156737887e+03
571, -1.999999999999672e-04, 6.000000000008407e-03, 3.281162859065261e-04, 6.585388523450089e-06, 3.026705171844651e+01, 2.711614930688563e+03, 3.054067712247684e+02, 2.750039932745939e+03
572, -1.499999999999365e-04, 6.000000000006308e-03, 3.278950441558897e-04, 2.266038783972140e-06, 3.495593851743541e+01, 2.034449813534118e+03, 3.027872972794927e+02, 2.089185569978049e+03
573, -9.999999999988962e-05, 6.000000000004209e-03, 3.276835236792541e-04, -2.051792754398097e-06, 3.760923553065732e+01, 1.358761576829671e+03, 2.842552437984551e+02, 1.438279417716717e+03
574, -4.999999999986476e-05, 6.000000000002106e-03, 3.274816847742290e-04, -6.368888182150353e-06, 3.803415375481160e+01, 6.849336334916059e+02, 2.498364404054197e+02, 8.174056059885683e+02
575, 1.282204594235670e-16, 6.000000000000007e-03, 3.272894788824245e-04, -1.068602946793890e-05, 3.603815937950884e+01, 1.335170959987244e+01, 1.995566943886506e+02, 3.997576417092051e+02
576, 5.000000000006848e-05, 5.999999999997906e-03, 3.271068485725880e-04, -1.500399845941762e-05, 3.142792051892323e+01, -6.555967983596536e+02, 1.334419427102971e+02, 7.370413642716264e+02
577, 1.000000000000416e-04, 5.999999999995806e-03, 3.269337275201484e-04, -1.932357688378521e-05, 2.400909926986921e+01, -1.321522927632431e+03, 5.151830092741832e+01, 1.349471369367132e+03
578, 1.500000000000234e-04, 5.999999999993707e-03, 3.267700404858493e-04, -2.364554634702448e-05, 1.358629172688603e+01, -1.984036178897359e+03, -4.618788700497547e+01, 1.999757189952533e+03
579, 2.000000000000053e-04, 5.999999999991606e-03, 3.266157032938834e-04, -2.797068833187529e-05, -3.710573608327650e-02, -2.642744596942874e+03, -1.596500218986819e+02, 2.661927009151356e+03
580, -1.999999999999690e-04, 5.900000000008779e-03, 3.194744872935046e-04, 6.861633069300612e-06, 3.119329019091830e+01, 2.840762697537110e+03, 3.169800554489888e+02, 2.880205839329094e+03
581, -1.499999999999408e-04, 5.900000000006594e-03, 3.192536952113737e-04, 2.566226143244060e-06, 3.582070048362041e+01, 2.131160378802737e+03, 3.132401761128370e+02, 2.186990168990996e+03
582, -9.999999999989724e-05, 5.900000000004408e-03, 3.190430858564050e-04, -1.727641096410975e-06, 3.837582116655508e+01, 1.423071778222256e+03, 2.932058485625028e+02, 1.503749171907147e+03
583, -4.999999999987495e-05, 5.900000000002220e-03, 3.188426188737875e-04, -6.020769614862591e-06, 3.866722625835317e+01, 7.168811591714248e+02, 2.569011669893288e+02, 8.508624901823634e+02
584, 1.153862162067698e-16, 5.900000000000033e-03, 3.186522450566531e-04, -1.031396029516891e-05, 3.650230666204644e+01, 1.297445253223972e+01, 2.043499603280496e+02, 4.093765809914573e+02
585, 5.000000000005830e-05, 5.899999999997847e-03, 3.184719063231612e-04, -1.460801394925917e-05, 3.168739320014032e+01, -6.882607039602627e+02, 1.355761068037680e+02, 7.693170903789620e+02
586, 1.000000000000340e-04, 5.899999999995659e-03, 3.183015356937984e-04, -1.890373132028226e-05, 2.402773106497264e+01, -1.386435018067340e+03, 5.060365491663934e+01, 1.414089136601215e+03
587, 1.500000000000191e-04, 5.899999999993472e-03, 3.181410572688131e-04, -2.320191308262028e-05, 1.332747202063192e+01, -2.081157559003572e+03, -5.054312907808157e+01, 2.096922978264217e+03
588, 2.000000000000034e-04, 5.899999999991286e-03, 3.179903862055592e-04, -2.750335984157865e-05, -6.102882346999081e-01, -2.772035720523865e+03, -1.678397389283151e+02, 2.791680432748936e+03
589, -1.999999999999710e-04, 5.800000000009150e-03, 3.108808159503890e-04, 7.129130862231067e-06, 3.209934250839461e+01, 2.973025701409234e+03, 3.286247568422118e+02, 3.013473871085688e+03
590, -1.499999999999452e-04, 5.800000000006880e-03, 3.106605210170776e-04, 2.858804492570816e-06, 3.665875544952519e+01, 2.230215905922506e+03, 3.237465207994009e+02, 2.287124878818385e+03
591, -9.999999999990477e-05, 5.800000000004606e-03, 3.104508810602086e-04, -1.409960982555737e-06, 3.911186439001452e+01, 1.488954086350921e+03, 3.021926769443447e+02, 1.570771824478557e+03
592, -4.999999999988512e-05, 5.800000000002332e-03, 3.102518551532744e-04, -5.677985374590480e-06, 3.926832720658501e+01, 7.496252863690445e+02, 2.639847216823809e+02, 8.850755575415200e+02
593, 1.025655255171287e-16, 5.800000000000059e-03, 3.100633935212139e-04, -9.946088478995741e-06, 3.693557041071347e+01, 1.261580090558931e+01, 2.091442195029994e+02, 4.189948321815647e+02
594, 5.000000000004811e-05, 5.799999999997786e-03, 3.098854375115968e-04, -1.421509007745416e-05, 3.191959918698367e+01, -7.216864621816101e+02, 1.376928826136669e+02, 8.023461942461801e+02
595, 1.000000000000264e-04, 5.799999999995513e-03, 3.097179195698343e-04, -1.848580993832559e-05, 2.402524084781447e+01, -1.452891873898208e+03, 4.965261712038564e+01, 1.480251902000916e+03
596, 1.500000000000147e-04, 5.799999999993240e-03, 3.095607632155786e-04, -2.275906781594580e-05, 1.305622045639791e+01, -2.180609062731813e+03, -5.495443951478376e+01, 2.196416931357694e+03
597, 2.000000000000015e-04, 5.799999999990969e-03, 3.094138830198366e-04, -2.703568344940386e-05, -1.184789032416717e+00, -2.904444910103708e+03, -1.761058967934511e+02, 2.924546542311234e+03
598, -1.999999999999729e-04, 5.700000000009518e-03, 3.023375707960149e-04, 7.387600348020902e-06, 3.297332675761066e+01, 3.108402582308178e+03, 3.403283085004093e+02, 3.149850557750846e+03
599, -1.499999999999495e-04, 5.700000000007160e-03, 3.021178209308575e-04, 3.143519088836827e-06, 3.745844189094720e+01, 2.331614848389972e+03, 3.342976835585030e+02, 2.389596907934651e+03
600, -9.999999999991239e-05, 5.700000000004800e-03, 3.019092091033206e-04, -1.098980273400959e-06, 3.980795657466422e+01, 1.556407629019365e+03, 3.112103518959635e+02, 1.639354171302898e+03
601, -4.999999999989533e-05, 5.700000000002444e-03, 3.017116939029306e-04, -5.340736389437454e-06, 3.983050896152278e+01, 7.831657899331599e+02, 2.710849761257973e+02, 9.200519534578897e+02
602, 8.974483482748763e-17, 5.700000000000083e-03, 3.015252250658530e-04, -9.582587967086208e-06, 3.733314895497384e+01, 1.227580633503121e+01, 2.139407148389477e+02, 4.286144984509656e+02
603, 5.000000000003792e-05, 5.699999999997726e-03, 3.013497434480293e-04, -1.382537376281897e-05, 3.212161959707444e+01, -7.558740717408775e+02, 1.397969936841395e+02, 8.361279850236269e+02
604, 1.000000000000188e-04, 5.699999999995369e-03, 3.011851809997467e-04, -1.806993257847267e-05, 2.400044256902822e+01, -1.520893796533337e+03, 4.867347426639571e+01, 1.547958215973649e+03
605, 1.500000000000104e-04, 5.699999999993010e-03, 3.010314607410264e-04, -2.231710325899118e-05, 1.277297010442837e+01, -2.282391511929916e+03, -5.940992703113112e+01, 2.298238054969797e+03
606, 1.999999999999996e-04, 5.699999999990651e-03, 3.008884967375897e-04, -2.656772468992171e-05, -1.758559976607728e+00, -3.039973545710098e+03, -1.844329967035791e+02, 3.060524860318537e+03
607, -1.999999999999748e-04, 5.600000000009672e-03, 2.938471046219235e-04, 7.636758847028608e-06, 3.381717215087139e+01, 3.246897495257361e+03, 3.520774485642747e+02, 3.289334169993103e+03
608, -1.499999999999538e-04, 5.600000000007281e-03, 2.936279482201933e-04, 3.420114049257987e-06, 3.822212842128627e+01, 2.435361628948339e+03, 3.448847521146552e+02, 2.494405691532922e+03
609, -9.999999999991998e-05, 5.600000000004890e-03, 2.934204237112615e-04, -7.949279684490333e-07, 4.046553138094865e+01, 1.625436227064028e+03, 3.202534298352458e+02, 1.709497336487852e+03
610, -4.999999999990553e-05, 5.600000000002499e-03, 2.932244892896961e-04, -5.009224716504363e-06, 4.035438333350385e+01, 8.175056416357015e+02, 2.781999060995612e+02, 9.557953909158109e+02
611, 7.692414413784654e-17, 5.600000000000110e-03, 2.930400942894624e-04, -9.223633822024922e-06, 3.769527811277825e+01, 1.195656890732059e+01, 2.187409507892009e+02, 4.382384001433667e+02
612, 5.000000000002774e-05, 5.599999999997718e-03, 2.928671791608054e-04, -1.343901302193489e-05, 3.229369181322753e+01, -7.908223576395676e+02, 1.418935955924807e+02, 8.706636553500014e+02
613, 1.000000000000112e-04, 5.599999999995330e-03, 2.927056754449908e-04, -1.765622015928473e-05, 2.395386077802249e+01, -1.590440626532623e+03, 4.767512345827677e+01, 1.617207850044654e+03
614, 1.500000000000060e-04, 5.599999999992939e-03, 2.925555057485880e-04, -2.187611318044594e-05, 1.247876363163618e+01, -2.386505858204468e+03, -6.389690817988770e+01, 2.402385996318225e+03
615, 1.999999999999977e-04, 5.599999999990549e-03, 2.924165837177757e-04, -2.609955013192748e-05, -2.329891174362729e+00, -3.178623821795506e+03, -1.928046233492740e+02, 3.199615230748868e+03
616, -1.999999999999767e-04, 5.500000000009695e-03, 2.854118244460752e-04, 7.876323041584736e-06, 3.464387089578594e+01, 3.388522759921443e+03, 3.638542924090198e+02, 3.431918324591925e+03
617, -1.499999999999582e-04, 5.500000000007305e-03, 2.851933103300400e-04, 3.688332827703793e-06, 3.896072380184933e+01, 2.541466711655994e+03, 3.554942075758964e+02, 2.601545837713782e+03
618, -9.999999999992762e-05, 5.500000000004914e-03, 2.849869327141505e-04, -4.980337745637758e-07, 4.109196681036727e+01, 1.696047675571257e+03, 3.293130094632988e+02, 1.781198088581771e+03
619, -4.999999999991570e-05, 5.500000000002524e-03, 2.847926494926924e-04, -4.683653154387275e-06, 4.084464227593108e+01, 8.526504393525151e+02, 2.853251137553606e+02, 9.923055649975898e+02
620, 6.410345344820545e-17, 5.500000000000133e-03, 2.846104096952122e-04, -8.869401868388475e-06, 3.802492480204478e+01, 1.166190489396919e+01, 2.235449128271258e+02, 4.478664097945086e+02
621, 5.000000000001756e-05, 5.499999999997745e-03, 2.844401534631342e-04, -1.305615664227442e-05, 3.243786256416800e+01, -8.265290046993799e+02, 1.439869715751497e+02, 9.059542322822304e+02
622, 1.000000000000036e-04, 5.499999999995354e-03, 2.842818120241645e-04, -1.724479436985935e-05, 2.388725414814576e+01, -1.661531389249276e+03, 4.666608489760019e+01, 1.688000858243350e+03
623, 1.500000000000017e-04, 5.499999999992964e-03, 2.841353076657818e-04, -2.143619211128968e-05, 1.217559140953327e+01, -2.492952390960142e+03, -6.840268303836005e+01, 2.508860680914535e+03
624, 1.999999999999958e-04, 5.499999999990576e-03, 2.840005537081338e-04, -2.563122709068497e-05, -2.895971347366753e+00, -3.320397193523522e+03, -2.012039582127525e+02, 3.341817842184430e+03
625, -1.999999999999786e-04, 5.400000000009719e-03, 2.770341924421545e-04, 8.106009104991141e-06, 3.544432973509851e+01, 3.533277221289373e+03, 3.756392812246746e+02, 3.577604563899552e+03
626, -1.499999999999625e-04, 5.400000000007331e-03, 2.768163695362327e-04, 3.947918392583621e-06, 3.966711809499395e+01, 2.649929839402479e+03, 3.661106086483983e+02, 2.711018145514183e+03
627, -9.999999999993521e-05, 5.400000000004939e-03, 2.766111984987378e-04, -2.085278854863300e-07, 4.168238311324959e+01, 1.768242664633423e+03, 3.383785387016534e+02, 1.854456941408585e+03
628, -4.999999999992589e-05, 5.400000000002551e-03, 2.764186370148967e-04, -4.364224994976412e-06, 4.129795163319375e+01, 8.886012218105363e+02, 2.924549515474035e+02, 1.029583617969709e+03
629, 5.128276275856436e-17, 5.400000000000158e-03, 2.762386339063701e-04, -8.520068428044270e-06, 3.831987472845344e+01, 1.139274157474136e+01, 2.283517391936139e+02, 4.574965985347549e+02
630, 5.000000000000737e-05, 5.399999999997771e-03, 2.760711291037510e-04, -1.267695390793297e-05, 3.255283770657019e+01, -8.629935360674954e+02, 1.460809213074574e+02, 9.419988587360500e+02
631, 9.999999999999598e-05, 5.399999999995381e-03, 2.759160536193468e-04, -1.683577739000216e-05, 2.380020129594834e+01, -1.734166314287076e+03, 4.565472068354913e+01, 1.760336241743006e+03
632, 1.499999999999973e-04, 5.399999999992991e-03, 2.757733295196012e-04, -2.099743506127444e-05, 1.186398858966683e+01, -2.601732232176586e+03, -7.291439091097295e+01, 2.617661406448763e+03
633, 1.999999999999938e-04, 5.399999999990601e-03, 2.756428698971291e-04, -2.516282333959379e-05, -3.455172737909066e+00, -3.465295894057369e+03, -2.096136587565110e+02, 3.487132449955809e+03
634, -1.999999999999805e-04, 5.300000000009745e-03, 2.687167256926181e-04, 8.325532832011083e-06, 3.621003811543750e+01, 3.681161855037751e+03, 3.874143158638724e+02, 3.726396806062173e+03
635, -1.499999999999669e-04, 5.300000000007331e-03, 2.684996428244252e-04, 4.198613367416427e-06, 4.033257636772947e+01, 2.760751265314672e+03, 3.767202426617583e+02, 2.822826669864152e+03
636, -9.999999999994280e-05, 5.300000000004915e-03, 2.682957379613996e-04, 7.335919794646849e-08, 4.222973553373379e+01, 1.842021740118888e+03, 3.474406487709668e+02, 1.929277397743053e+03
637, -4.999999999993605e-05, 5.300000000002501e-03, 2.681049686763426e-04, -4.051143807028300e-06, 4.170904132528602e+01, 9.253587193982660e+02, 2.995845483113987e+02, 1.067633064262371e+03
638, 3.846207206892327e-17, 5.300000000000087e-03, 2.679272836797671e-04, -8.175810075757471e-06, 3.857640458517113e+01, 1.114969383990058e+01, 2.331611261996721e+02, 4.671281061391002e+02
639, 4.999999999999720e-05, 5.299999999997673e-03, 2.677626227897531e-04, -1.230155433517653e-05, 3.263624408469408e+01, -9.002157465886145e+02, 1.481797245930856e+02, 9.787960766293893e+02
640, 9.999999999998842e-05, 5.299999999995259e-03, 2.676109169026551e-04, -1.642929161190092e-05, 2.369155172114029e+01, -1.808345875830736e+03, 4.464988445005000e+01, 1.834212524402913e+03
641, 1.499999999999930e-04, 5.299999999992844e-03, 2.674720879640352e-04, -2.055993723225758e-05, 1.154391555332933e+01, -2.712846819652661e+03, -7.741860930315742e+01, 2.728787174248292e+03
642, 1.999999999999920e-04, 5.299999999990430e-03, 2.673460489397420e-04, -2.469440682156850e-05, -4.006432345569721e+00, -3.613322519732878e+03, -2.180157059586929e+02, 3.635558555552571e+03
643, -1.999999999999824e-04, 5.200000000009989e-03, 2.604619958670426e-04, 8.534610031299325e-06, 3.693850996441404e+01, 3.832180582584890e+03, 3.991611499302308e+02, 3.878296131581892e+03
644, -1.499999999999712e-04, 5.200000000007502e-03, 2.602457016669312e-04, 4.440160378603367e-06, 4.095463572944624e+01, 2.873934929172622e+03, 3.873097216847081e+02, 2.936973378340929e+03
645, -9.999999999995044e-05, 5.200000000005017e-03, 2.600431223642319e-04, 3.473969921524953e-07, 4.273132090897650e+01, 1.917388170297595e+03, 3.564904671764428e+02, 2.005662014326037e+03
646, -4.999999999994625e-05, 5.200000000002529e-03, 2.598542155250052e-04, -3.744613121394115e-06, 4.207546309321333e+01, 9.629255337195593e+02, 3.067095583596843e+02, 1.106457349078272e+03
647, 2.564138137928218e-17, 5.200000000000042e-03, 2.596789298523627e-04, -7.836803326164198e-06, 3.879270025880004e+01, 1.093469820780126e+01, 2.379733298825486e+02, 4.767612518020174e+02
648, 4.999999999998700e-05, 5.199999999997556e-03, 2.595172051555938e-04, -1.193010735732859e-05, 3.268718442566461e+01, -9.381943933848745e+02, 1.502882952650444e+02, 1.016345081606919e+03
649, 9.999999999998081e-05, 5.199999999995069e-03, 2.593689723192866e-04, -1.602545932127379e-05, 2.356155953232181e+01, -1.884069576988380e+03, 4.366118121504989e+01, 1.909628693752699e+03
650, 1.499999999999887e-04, 5.199999999992581e-03, 2.592341532728378e-04, -2.012379369519506e-05, 1.121699083411079e+01, -2.826296458114893e+03, -8.190103367560720e+01, 2.842237444379868e+03
651, 1.999999999999900e-04, 5.199999999990096e-03, 2.591126609602813e-04, -2.422604532614802e-05, -4.546774301701703e+00, -3.764478382043817e+03, -2.263910639701638e+02, 3.787096163326247e+03
652, -1.999999999999843e-04, 5.100000000010360e-03, 2.522726293065364e-04, 8.732956937337997e-06, 3.762916098885660e+01, 3.986338072383076e+03, 4.108599903910198e+02, 4.033302095521802e+03
653, -1.499999999999755e-04, 5.100000000007788e-03, 2.520571720668057e-04, 4.672302463137135e-06, 4.153284640178981e+01, 2.989485577190726e+03, 3.978643070850328e+02, 3.053458585010604e+03
654, -9.999999999995803e-05, 5.100000000005215e-03, 2.518559773549475e-04, 6.133554143806213e-07, 4.318614516272021e+01, 1.994345955392312e+03, 3.655183187549013e+02, 2.083612048927730e+03
655, -4.999999999995644e-05, 5.100000000002642e-03, 2.516690028422352e-04, -3.444836066131658e-06, 4.239594853900820e+01, 1.001304763565915e+03, 3.138253012557043e+02, 1.146059071064507e+03
656, 1.282069068964109e-17, 5.100000000000066e-03, 2.514961973357388e-04, -7.503224281100109e-06, 3.896763832613283e+01, 1.074996670557061e+01, 2.427886328534152e+02, 4.863964617089722e+02
657, 4.999999999997683e-05, 5.099999999997495e-03, 2.513375007460834e-04, -1.156276197945947e-05, 3.270501081529972e+01, -9.769281759265026e+02, 1.524118807664523e+02, 1.054645294573240e+03
658, 9.999999999997324e-05, 5.099999999994921e-03, 2.511928440558159e-04, -1.562440235585124e-05, 2.341031691030543e+01, -1.961337086604937e+03, 4.269883697714350e+01, 1.986583755716657e+03
659, 1.499999999999843e-04, 5.099999999992348e-03, 2.510621492878626e-04, -1.968909905004918e-05, 1.088426641572090e+01, -2.942081867375156e+03, -8.634644587580787e+01, 2.958011464172743e+03
660, 1.999999999999881e-04, 5.099999999989774e-03, 2.509453294739847e-04, -2.375780614559182e-05, -5.074000474325260e+00, -3.918765319809811e+03, -2.347196099778494e+02, 3.941744908574698e+03
661, -1.999999999999862e-04, 5.000000000010596e-03, 2.441513072457858e-04, 8.920290533758946e-06, 3.827879075246841e+01, 4.143638075068711e+03, 4.224898372460157e+02, 4.191415692057547e+03
662, -1.499999999999799e-04, 5.000000000007969e-03, 2.439367347121831e-04, 4.894783406419692e-06, 4.206362845086892e+01, 3.107406126666477e+03, 4.083682730994449e+02, 3.172283596600971e+03
663, -9.999999999996564e-05, 5.000000000005344e-03, 2.437369830696660e-04, 8.710051304481092e-07, 4.359096591681543e+01, 2.072897540793059e+03, 3.745138430343297e+02, 2.163129133762782e+03
664, -4.999999999996662e-05, 5.000000000002718e-03, 2.435520102104986e-04, -3.152015016673635e-06, 4.266779612688714e+01, 1.040498436069876e+03, 3.209266961753002e+02, 1.186440796365756e+03
665, 0.000000000000000e+00, 5.000000000000093e-03, 2.433817651593873e-04, -7.175248281961842e-06, 3.909906566229466e+01, 1.059693121784761e+01, 2.476071703635722e+02, 4.960338848604090e+02
666, 4.999999999996663e-05, 4.999999999997467e-03, 2.432261880416467e-04, -1.119966643492800e-05, 3.268814917946065e+01, -1.016416456745799e+03, 1.545558028082307e+02, 1.093695779867684e+03
667, 9.999999999996559e-05, 4.999999999994841e-03, 2.430852100510608e-04, -1.522624176748424e-05, 2.323686006335851e+01, -2.040148775590463e+03, 4.177334588922271e+01, 2.065076349951654e+03
668, 1.499999999999799e-04, 4.999999999992216e-03, 2.429587534173569e-04, -1.925594709373977e-05, 1.054542694358111e+01, -3.060204641226004e+03, -9.073919923406454e+01, 3.076107993922526e+03
669, 1.999999999999863e-04, 4.999999999989590e-03, 2.428467313733313e-04, -2.328975574976489e-05, -5.587561630395157e+00, -4.076186269166222e+03, -2.429805448129699e+02, 4.099503874668589e+03
670, -1.999999999999881e-04, 4.900000000010410e-03, 2.361007658374871e-04, 9.096328851877709e-06, 3.887818126226711e+01, 4.304078854198633e+03, 4.340301668508154e+02, 4.352638914884052e+03
671, -1.499999999999843e-04, 4.900000000007836e-03, 2.358871250022724e-04, 5.107348064250635e-06, 4.253953671842919e+01, 3.227695624409313e+03, 4.188063202194328e+02, 3.293450202808183e+03
672, -9.999999999997321e-05, 4.900000000005265e-03, 2.356888741636592e-04, 1.120117898139620e-06, 4.394062492170468e+01, 2.153043267345370e+03, 3.834668400713655e+02, 2.244215057880096e+03
673, -4.999999999997681e-05, 4.900000000002690e-03, 2.355059715453689e-04, -2.866351242263457e-06, 4.288742352647188e+01, 1.080507486241982e+03, 3.280087053422719e+02, 1.227605082129832e+03
674, -1.282069068964109e-17, 4.900000000000120e-03, 2.353383665029966e-04, -6.853049551983133e-06, 3.918461957645297e+01, 1.047660026036999e+01, 2.524291500471205e+02, 5.056738608501523e+02
675, 4.999999999995644e-05, 4.899999999997547e-03, 2.351859994921435e-04, -1.084096782659733e-05, 3.263534663099330e+01, -1.056658513279772e+03, 1.567255597982809e+02, 1.133495795146868e+03
676, 9.999999999995801e-05, 4.899999999994974e-03, 2.350488020348799e-04, -1.483109746350572e-05, 2.304109278796858e+01, -2.120504454775139e+03, 4.089551482027844e+01, 2.145105425616021e+03
677, 1.499999999999756e-04, 4.899999999992402e-03, 2.349266966856522e-04, -1.882443046260886e-05, 1.020169606091781e+01, -3.180665287321931e+03, -9.506316434551935e+01, 3.196526259317182e+03
678, 1.999999999999843e-04, 4.899999999989829e-03, 2.348195969971406e-04, -2.282195942626167e-05, -6.084622469894953e+00, -4.236742505234814e+03, -2.511523885026808e+02, 4.260372778291044e+03
679, -1.999999999999901e-04, 4.800000000010084e-03, 2.281237958980609e-04, 9.260791449919680e-06, 3.943271913768035e+01, 4.467668372700321e+03, 4.454586423401931e+02, 4.516968520105671e+03
680, -1.499999999999886e-04, 4.800000000007600e-03, 2.279111329209195e-04, 5.309742822128064e-06, 4.296493755347240e+01, 3.350361424972921e+03, 4.291616632782344e+02, 3.416956314895680e+03
681, -9.999999999998080e-05, 4.800000000005114e-03, 2.277144397543590e-04, 1.360466995688421e-06, 4.423739170722104e+01, 2.234788884635891e+03, 3.923659367554720e+02, 2.326869131789758e+03
682, -4.999999999998701e-05, 4.800000000002629e-03, 2.275336750738752e-04, -2.588044496749620e-06, 4.305574972042825e+01, 1.121336219079120e+03, 3.350655245855751e+02, 1.269552832167148e+03
683, -2.564138137928218e-17, 4.800000000000143e-03, 2.273687886900342e-04, -6.536800798601988e-06, 3.922461995278746e+01, 1.039203662330056e+01, 2.572543929327184e+02, 5.153160278840331e+02
684, 4.999999999994627e-05, 4.799999999997659e-03, 2.272197215134998e-04, -1.048681173538656e-05, 3.254689139457702e+01, -1.097652435670491e+03, 1.589266171813403e+02, 1.174044802166063e+03
685, 9.999999999995042e-05, 4.799999999995174e-03, 2.270864055194841e-04, -1.443908781755321e-05, 2.282370385844757e+01, -2.202403363907114e+03, 4.007645538168525e+01, 2.226670157930976e+03
686, 1.499999999999713e-04, 4.799999999992687e-03, 2.269687637120473e-04, -1.839464024193321e-05, 9.854428274843201e+00, -3.303464317780078e+03, -9.930159702127884e+01, 3.319265632883705e+03
687, 1.999999999999824e-04, 4.799999999990203e-03, 2.268667100881861e-04, -2.235448089190945e-05, -6.563245533776069e+00, -4.400436188128303e+03, -2.592127397576305e+02, 4.424351298605809e+03
688, -1.999999999999919e-04, 4.700000000009747e-03, 2.202232434480388e-04, 9.413399857720791e-06, 3.994460432845784e+01, 4.634414550553885e+03, 4.567497759920671e+02, 4.684403432481440e+03
689, -1.499999999999929e-04, 4.700000000007334e-03, 2.200116034046508e-04, 5.501715999600699e-06, 4.334035061265462e+01, 3.475410274119115e+03, 4.394146221844924e+02, 3.542801829145374e+03
690, -9.999999999998839e-05, 4.700000000004922e-03, 2.198165236676103e-04, 1.591827611603353e-06, 4.448030197685165e+01, 2.318139384928415e+03, 4.011979256279747e+02, 2.411092019729008e+03
691, -4.999999999999717e-05, 4.700000000002511e-03, 2.196379634984418e-04, -2.317292634745072e-06, 4.317131720360112e+01, 1.162988351058392e+03, 3.420902818225367e+02, 1.312285499798360e+03
692, -3.846207206892327e-17, 4.700000000000096e-03, 2.194758732956627e-04, -6.226672831039309e-06, 3.921771362627442e+01, 1.034590367419514e+01, 2.620822190354253e+02, 5.249589884438971e+02
693, 4.999999999993608e-05, 4.699999999997685e-03, 2.193301945566087e-04, -1.013734183757986e-05, 3.242195909105408e+01, -1.139396514429099e+03, 1.611643823151919e+02, 1.215341255529183e+03
694, 9.999999999994281e-05, 4.699999999995272e-03, 2.192008598403582e-04, -1.405032928630069e-05, 2.258472817148834e+01, -2.285844726773933e+03, 3.932759825727697e+01, 2.309769076855598e+03
695, 1.499999999999669e-04, 4.699999999992859e-03, 2.190877927309008e-04, -1.796666558238620e-05, 9.504927504002069e+00, -3.428601801118192e+03, -1.034370809034827e+02, 3.444325013151421e+03
696, 1.999999999999805e-04, 4.699999999990447e-03, 2.189909078003717e-04, -2.188738190582527e-05, -7.020510594765256e+00, -4.567268221533500e+03, -2.671383232363756e+02, 4.591438850740380e+03
697, -1.999999999999939e-04, 4.600000000009572e-03, 2.124020100213404e-04, 9.553877738642697e-06, 4.039295641995483e+01, 4.804309203106827e+03, 4.678797212731051e+02, 4.854950436385682e+03
698, -1.499999999999973e-04, 4.600000000007185e-03, 2.121914365273748e-04, 5.683018076699058e-06, 4.364815381247524e+01, 3.602835897668456e+03, 4.495473691974147e+02, 3.670992882671375e+03
699, -9.999999999999598e-05, 4.600000000004799e-03, 2.119980245501326e-04, 1.813977128081819e-06, 4.465674874521073e+01, 2.403091437894579e+03, 4.099509491534784e+02, 2.496888725159860e+03
700, -5.000000000000737e-05, 4.600000000002412e-03, 2.118217340650277e-04, -2.054291287531114e-06, 4.322516239656954e+01, 1.205462244727967e+03, 3.490770875140341e+02, 1.355807614543937e+03
701, -5.126921023140829e-17, 4.600000000000025e-03, 2.116625161858756e-04, -5.922834209626574e-06, 3.915753882172157e+01, 1.033729110848145e+01, 2.669127199697503e+02, 5.346028497911827e+02
702, 4.999999999992590e-05, 4.599999999997638e-03, 2.115203131251642e-04, -9.792699537704954e-06, 3.225605593207143e+01, -1.181891684028514e+03, 1.634449392948600e+02, 1.257382888055902e+03
703, 9.999999999993524e-05, 4.599999999995251e-03, 2.113950581555028e-04, -1.366493603308843e-05, 2.232100470054291e+01, -2.370830125250097e+03, 3.866101862933276e+01, 2.394399930719565e+03
704, 1.499999999999625e-04, 4.599999999992864e-03, 2.112866755712742e-04, -1.754059332077846e-05, 9.150796008782208e+00, -3.556080656558688e+03, -1.074515434078920e+02, 3.571702485804117e+03
705, 1.999999999999786e-04, 4.599999999990477e-03, 2.111950806502801e-04, -2.142072188995136e-05, -7.457867132325248e+00, -4.737242916804023e+03, -2.749050361597454e+02, 4.761633935081724e+03
706, -1.999999999999958e-04, 4.500000000009600e-03, 2.046630517737766e-04, 9.681951370286291e-06, 4.077879826725689e+01, 4.977358189618094e+03, 4.788254991916971e+02, 5.028609302959866e+03
707, -1.500000000000016e-04, 4.500000000007212e-03, 2.044535869340124e-04, 5.853402158729753e-06, 4.388844934140383e+01, 3.732643320080393e+03, 4.595433379072346e+02, 3.801530325284846e+03
708, -1.000000000000036e-04, 4.500000000004825e-03, 2.042618955168022e-04, 2.026695573245155e-06, 4.476586525276923e+01, 2.489649049510403e+03, 4.186140825155460e+02, 2.584260974628352e+03
709, -5.000000000001756e-05, 4.500000000002437e-03, 2.040879383482332e-04, -1.799233419821124e-06, 4.321624318812025e+01, 1.248761201188288e+03, 3.560207799425457e+02, 1.400122076378778e+03
710, -6.409667718462742e-17, 4.500000000000053e-03, 2.039316673922947e-04, -5.625450808486724e-06, 3.904346174254596e+01, 1.036893652217384e+01, 2.717466512149658e+02, 5.442492059551460e+02
711, 4.999999999991571e-05, 4.499999999997665e-03, 2.037930257122457e-04, -9.453023534459435e-06, 3.204949492380285e+01, -1.225135657620547e+03, 1.657750844633574e+02, 1.300169228328872e+03
712, 9.999999999992765e-05, 4.499999999995279e-03, 2.036719474311138e-04, -1.328301949491288e-05, 2.203437273805338e+01, -2.457357576250338e+03, 3.808964700774129e+01, 2.480561976961098e+03
713, 1.499999999999582e-04, 4.499999999992891e-03, 2.035683576920218e-04, -1.711650754427091e-05, 8.796182731050237e+00, -3.685898880504839e+03, -1.113258853674640e+02, 3.701397765886700e+03
714, 1.999999999999767e-04, 4.499999999990504e-03, 2.034821726184075e-04, -2.095455749658127e-05, -7.868906558020626e+00, -4.910358692265209e+03, -2.824874104122544e+02, 4.934936944595037e+03
715, -1.999999999999977e-04, 4.400000000009622e-03, 1.970093797402919e-04, 9.797350306553230e-06, 4.110905981501952e+01, 5.153570235932499e+03, 4.895606403163335e+02, 5.205375851895450e+03
716, -1.500000000000059e-04, 4.400000000007235e-03, 1.968010640003363e-04, 6.012624587651543e-06, 4.406702929139817e+01, 3.864840623431287e+03, 4.693825473850247e+02, 3.934411107247852e+03
717, -1.000000000000112e-04, 4.400000000004850e-03, 1.966111442469618e-04, 2.229766180620630e-06, 4.481084572780571e+01, 2.577818342522900e+03, 4.271740980462423e+02, 2.673207402912582e+03
718, -5.000000000002772e-05, 4.400000000002464e-03, 1.964395823019730e-04, -1.552308809967009e-06, 4.314590698043725e+01, 1.292889647946396e+03, 3.629147706919735e+02, 1.445229373223926e+03
719, -7.691736787426851e-17, 4.400000000000076e-03, 1.962863311250757e-04, -5.334685323248553e-06, 3.887571462441849e+01, 1.044377130763996e+01, 2.765840219503245e+02, 5.538982399264678e+02
720, 4.999999999990552e-05, 4.399999999997690e-03, 1.961513347750744e-04, -9.118449346836947e-06, 3.180188819357784e+01, -1.269126977795811e+03, 1.681614178367108e+02, 1.343699729909866e+03
721, 9.999999999991999e-05, 4.399999999995304e-03, 1.960345283695905e-04, -1.290468791996356e-05, 2.172407873515277e+01, -2.545427240405009e+03, 3.762668526012229e+01, 2.568254069428826e+03
722, 1.499999999999539e-04, 4.399999999992917e-03, 1.959358380441906e-04, -1.669448913628780e-05, 8.439947698048456e+00, -3.818058604634581e+03, -1.150402371731819e+02, 3.833409474042547e+03
723, 1.999999999999748e-04, 4.399999999990530e-03, 1.958551809114136e-04, -2.048894214518014e-05, -8.255030393532763e+00, -5.086619741227556e+03, -2.898592024286601e+02, 5.111346355430695e+03
724, -1.999999999999997e-04, 4.300000000009517e-03, 1.894440604727388e-04, 9.899807726240710e-06, 4.137583006337110e+01, 5.332944465940667e+03, 5.000570142909064e+02, 5.385250848230420e+03
725, -1.500000000000103e-04, 4.300000000007164e-03, 1.892369322742915e-04, 6.160445342395465e-06, 4.417718106681377e+01, 3.999427562903458e+03, 4.790434720975395e+02, 4.069635877527126e+03
726, -1.000000000000188e-04, 4.300000000004808e-03, 1.890488332863761e-04, 2.422975813110096e-06, 4.478692802437786e+01, 2.667600232042119e+03, 4.356164632967960e+02, 2.763728720427043e+03
727, -5.000000000003792e-05, 4.300000000002456e-03, 1.888797264691365e-04, -1.313703614242211e-06, 4.301067958417957e+01, 1.337848930676566e+03, 3.697515336932794e+02, 1.491130739796521e+03
728, -8.973805856390960e-17, 4.300000000000101e-03, 1.887295659247480e-04, -5.050696831108462e-06, 3.865181114233440e+01, 1.056307498856893e+01, 2.814242386400038e+02, 5.635489202146864e+02
729, 4.999999999989533e-05, 4.299999999997747e-03, 1.885982968556108e-04, -8.789108874950862e-06, 3.151164364643756e+01, -1.313864786124505e+03, 1.706101997064253e+02, 1.387973018022567e+03
730, 9.999999999991241e-05, 4.299999999995395e-03, 1.884858555222595e-04, -1.253004593420047e-05, 2.138943567762510e+01, -2.635038957663164e+03, 3.728517444005988e+01, 2.657474843884553e+03
731, 1.499999999999495e-04, 4.299999999993039e-03, 1.883921692010019e-04, -1.627461535179536e-05, 8.082346558844563e+00, -3.952560613286380e+03, -1.185748943912509e+02, 3.967736467772416e+03
732, 1.999999999999729e-04, 4.299999999990687e-03, 1.883171561411285e-04, -2.002392562863326e-05, -8.614380404768781e+00, -5.266027623670593e+03, -2.969938262068003e+02, 5.290861493337989e+03
733, -2.000000000000014e-04, 4.200000000009198e-03, 1.819702158404678e-04, 9.989060819274993e-06, 4.157405417797384e+01, 5.515482669702842e+03, 5.102867442979861e+02, 5.568235427560721e+03
734, -1.500000000000147e-04, 4.200000000006931e-03, 1.817643113809369e-04, 6.296628426294216e-06, 4.421387136171018e+01, 4.136405988955083e+03, 4.885051089329601e+02, 4.207206352570284e+03
735, -1.000000000000264e-04, 4.200000000004664e-03, 1.815780800078692e-04, 2.606115374111175e-06, 4.468981711168954e+01, 2.758996727722245e+03, 4.439270000245900e+02, 2.855826803290344e+03
736, -5.000000000004811e-05, 4.200000000002396e-03, 1.814114859697603e-04, -1.083599935261444e-06, 4.280729238342826e+01, 1.383641127912281e+03, 3.765238514483077e+02, 1.537828409588301e+03
737, -1.025587492535507e-16, 4.200000000000129e-03, 1.812644846627638e-04, -4.773640342401369e-06, 3.836965902446849e+01, 1.072883385990804e+01, 2.862671080214200e+02, 5.732010500300634e+02
738, 4.999999999988515e-05, 4.199999999997860e-03, 1.811370225857467e-04, -8.465129937175887e-06, 3.117806451571477e+01, -1.359347293651267e+03, 1.731282839676999e+02, 1.432987921283294e+03
739, 9.999999999990481e-05, 4.199999999995591e-03, 1.810290372960933e-04, -1.215919406375595e-05, 2.103148440689387e+01, -2.726191155308316e+03, 3.707902137591043e+01, 2.748223362004731e+03
740, 1.499999999999452e-04, 4.199999999993324e-03, 1.809404573657609e-04, -1.585695932470190e-05, 7.726759835809389e+00, -4.089403381411783e+03, -1.219088585269242e+02, 4.104378451540364e+03
741, 1.999999999999710e-04, 4.199999999991056e-03, 1.808712023376803e-04, -1.955955358411385e-05, -8.941490985979328e+00, -5.448581416203675e+03, -3.038632930391038e+02, 5.473482814392372e+03
742, -2.000000000000034e-04, 4.100000000008875e-03, 1.745910229387006e-04, 1.006485133550365e-05, 4.170381797610872e+01, 5.701190365291026e+03, 5.202206155470648e+02, 5.754329321006854e+03
743, -1.500000000000190e-04, 4.100000000006694e-03, 1.743863759550048e-04, 6.420942377926655e-06, 4.417607443767895e+01, 4.275780886026850e+03, 4.977456138663115e+02, 4.347123424283836e+03
744, -1.000000000000340e-04, 4.100000000004513e-03, 1.742020565620270e-04, 2.778980298047754e-06, 4.451735591648281e+01, 2.852011630517743e+03, 4.520911873974000e+02, 2.949503325783583e+03
745, -5.000000000005830e-05, 4.100000000002334e-03, 1.740380304590308e-04, -8.621753386041299e-07, 4.253322115063031e+01, 1.430269068599663e+03, 3.832244881341258e+02, 1.585324829654080e+03
746, -1.153726636796137e-16, 4.100000000000152e-03, 1.738942544957837e-04, -4.503666319430774e-06, 3.802679541602646e+01, 1.094293453516076e+01, 2.911126779912200e+02, 5.828549568023705e+02
747, 4.999999999987496e-05, 4.099999999997971e-03, 1.737706766262910e-04, -8.146635789103681e-06, 3.079894224286608e+01, -1.405573686696398e+03, 1.757230144033575e+02, 1.478742925707475e+03
748, 9.999999999989721e-05, 4.099999999995790e-03, 1.736672358631438e-04, -1.179222825392667e-05, 2.064829099245168e+01, -2.818884351909115e+03, 3.702288850156518e+01, 2.840497915365465e+03
749, 1.499999999999408e-04, 4.099999999993610e-03, 1.735838622322235e-04, -1.544158958567931e-05, 7.371242266038848e+00, -4.228589261144060e+03, -1.250201295293227e+02, 4.243333774003697e+03
750, 1.999999999999691e-04, 4.099999999991429e-03, 1.735204767275280e-04, -1.909586702474840e-05, -9.238028364606919e+00, -5.634285244659961e+03, -3.104382658088966e+02, 5.659208765637282e+03
751, -2.000000000000054e-04, 4.000000000008551e-03, 1.673097142913442e-04, 1.012692605793753e-05, 4.175779283129350e+01, 5.890067583840994e+03, 5.298287183659654e+02, 5.943534411008419e+03
752, -1.500000000000234e-04, 4.000000000006458e-03, 1.671063557581102e-04, 6.533160760318454e-06, 4.405735619546016e+01, 4.417552870276613e+03, 5.067426759332924e+02, 4.489389220165267e+03
753, -1.000000000000416e-04, 4.000000000004365e-03, 1.669239899474387e-04, 2.941371045352896e-06, 4.426451604813218e+01, 2.946646301524713e+03, 4.600942870257842e+02, 3.044760588368367e+03
754, -5.000000000006849e-05, 4.000000000002271e-03, 1.667625841730042e-04, -6.496023570090373e-07, 4.218456360179619e+01, 1.477734369938849e+03, 3.898461855945150e+02, 1.633622796169521e+03
755, -1.282069068964109e-16, 4.000000000000177e-03, 1.666220969009061e-04, -4.240920181464591e-06, 3.762037625428223e+01, 1.120691995827076e+01, 2.959611436497603e+02, 5.925113204618099e+02
756, 4.999999999986478e-05, 3.999999999998083e-03, 1.665024777028505e-04, -7.833744631128272e-06, 3.037254435171729e+01, -1.452542729577482e+03, 1.784020304989619e+02, 1.525236652981144e+03
757, 9.999999999988963e-05, 3.999999999995989e-03, 1.664036672094505e-04, -1.142923938138487e-05, 2.023937347212978e+01, -2.913117779712811e+03, 3.713184746333508e+01, 2.934297068213344e+03
758, 1.499999999999365e-04, 3.999999999993896e-03, 1.663255970635950e-04, -1.502856958369482e-05, 7.016877152333393e+00, -4.370117955499912e+03, -1.278862326008193e+02, 4.384601338454036e+03
759, 1.999999999999672e-04, 3.999999999991804e-03, 1.662681898738943e-04, -1.863290186913942e-05, -9.501161598395583e+00, -5.823139456134591e+03, -3.166888099717095e+02, 5.848038767753075e+03
760, -2.000000000000072e-04, 3.900000000008219e-03, 1.601295776775774e-04, 1.017503730694572e-05, 4.173209712071701e+01, 6.082115974830569e+03, 5.390809283779025e+02, 6.135851235114833e+03
761, -1.500000000000277e-04, 3.900000000006203e-03, 1.599275355769901e-04, 6.633062687650502e-06, 4.385448952317154e+01, 4.561724057375631e+03, 5.154739416247141e+02, 4.634004636392140e+03
762, -1.000000000000492e-04, 3.900000000004186e-03, 1.597471619492043e-04, 3.093093634797218e-06, 4.392850119493454e+01, 3.042903070591095e+03, 4.679214584472350e+02, 3.141599979785211e+03
763, -5.000000000007867e-05, 3.900000000002170e-03, 1.595884258884440e-04, -4.460479573866454e-07, 4.175893318461442e+01, 1.526039282127249e+03, 3.963816887031347e+02, 1.682724554647570e+03
764, -1.410275975860520e-16, 3.900000000000153e-03, 1.594512876442211e-04, -3.985541772447762e-06, 3.714851351508071e+01, 1.152270538504195e+01, 3.008128878461063e+02, 6.021712846188981e+02
765, 4.999999999985460e-05, 3.899999999998138e-03, 1.593356985738798e-04, -7.526569075800466e-06, 2.989763816916633e+01, -1.500253055762904e+03, 1.811733934714228e+02, 1.572468231840822e+03
766, 9.999999999988204e-05, 3.899999999996121e-03, 1.592416010945185e-04, -1.107031271917217e-05, 1.980434478413133e+01, -3.008890805002333e+03, 3.742166538534349e+01, 3.029619750810472e+03
767, 1.499999999999321e-04, 3.899999999994104e-03, 1.591689286348565e-04, -1.461795714447814e-05, 6.664319490735636e+00, -4.513989741918410e+03, -1.304836670240529e+02, 4.528180329047770e+03
768, 1.999999999999652e-04, 3.899999999992088e-03, 1.591176055873730e-04, -1.817068838721129e-05, -9.729185373289226e+00, -6.015145539645220e+03, -3.225837572126630e+02, 6.039972409690836e+03
769, -2.000000000000091e-04, 3.800000000007874e-03, 1.530539561635683e-04, 1.020894357146922e-05, 4.163061837275984e+01, 6.277342597258434e+03, 5.479450724324989e+02, 6.331277840470319e+03
770, -1.500000000000321e-04, 3.800000000005924e-03, 1.528532552631471e-04, 6.720433426132660e-06, 4.356979202213279e+01, 4.708300564184321e+03, 5.239151322931015e+02, 4.780968671737938e+03
771, -1.000000000000568e-04, 3.800000000003971e-03, 1.526749091759661e-04, 3.233960224936047e-06, 4.350994638707215e+01, 3.140786755005542e+03, 4.755565162246221e+02, 3.240021547721653e+03
772, -5.000000000008884e-05, 3.800000000002021e-03, 1.525188889517496e-04, -2.516729742427971e-07, 4.125598320037494e+01, 1.575187559009482e+03, 4.028228977129237e+02, 1.732631301504033e+03
773, -1.538415120121150e-16, 3.800000000000070e-03, 1.523851567993932e-04, -3.737664804871008e-06, 3.661045073834157e+01, 1.189308468062751e+01, 3.056678894092412e+02, 6.118352577683240e+02
774, 4.999999999984441e-05, 3.799999999998119e-03, 1.522736660378494e-04, -7.225215599142406e-06, 2.937349142485402e+01, -1.548702843532928e+03, 1.840451456860483e+02, 1.620436787275635e+03
775, 9.999999999987444e-05, 3.799999999996168e-03, 1.521843610464672e-04, -1.071552739327453e-05, 1.934280539489600e+01, -3.106202692872488e+03, 3.790842825856924e+01, 3.126464913839854e+03
776, 1.499999999999278e-04, 3.799999999994218e-03, 1.521171772151513e-04, -1.420980393171390e-05, 6.313658485506892e+00, -4.660205199560934e+03, -1.327883337547484e+02, 4.674069877401118e+03
777, 1.999999999999633e-04, 3.799999999992265e-03, 1.520720408946762e-04, -1.770925067001865e-05, -9.921036448063376e+00, -6.210305298949335e+03, -3.280910025795263e+02, 6.235009208218381e+03
778, -2.000000000000110e-04, 3.700000000007529e-03, 1.460862485035858e-04, 1.022841002069953e-05, 4.144734365087083e+01, 6.475747565178979e+03, 5.563873975481853e+02, 6.529815241288105e+03
779, -1.500000000000364e-04, 3.700000000005644e-03, 1.458869100055006e-04, 6.795064921158009e-06, 4.319803728197485e+01, 4.857283343198853e+03, 5.320407231365211e+02, 4.930282614307960e+03
780, -1.000000000000644e-04, 3.700000000003758e-03, 1.457106232446452e-04, 3.363789648552718e-06, 4.300461957350370e+01, 3.240298973447734e+03, 4.829823541254091e+02, 3.340026796734140e+03
781, -5.000000000009902e-05, 3.700000000001873e-03, 1.455573614042557e-04, -6.663156883312838e-08, 4.067229705458982e+01, 1.625181042925189e+03, 4.091611436494437e+02, 1.783344983908190e+03
782, -1.666825314924902e-16, 3.699999999999988e-03, 1.454270888323753e-04, -3.497416314841372e-06, 3.600356883858746e+01, 1.231981414846132e+01, 3.105258928686223e+02, 6.215032106141066e+02
783, 4.999999999983423e-05, 3.699999999998102e-03, 1.453197609901863e-04, -6.929783992971061e-06, 2.879837138156438e+01, -1.597890669938996e+03, 1.870254249320263e+02, 1.669140879445598e+03
784, 9.999999999986681e-05, 3.699999999996217e-03, 1.452353244005947e-04, -1.036495583256103e-05, 1.885409977669133e+01, -3.205052547037344e+03, 3.860864422321046e+01, 3.224831247834022e+03
785, 1.499999999999234e-04, 3.699999999994331e-03, 1.451737165965636e-04, -1.380415489390217e-05, 5.965580369786153e+00, -4.808764128791008e+03, -1.347754005036984e+02, 4.822269155345782e+03
786, 1.999999999999614e-04, 3.699999999992445e-03, 1.451348660689481e-04, -1.724860607167487e-05, -1.007484680356220e+01, -6.408619796825878e+03, -3.331774150203377e+02, 6.433149014050166e+03
787, -2.000000000000130e-04, 3.600000000007325e-03, 1.392299090299907e-04, 1.023320902884653e-05, 4.117900096581764e+01, 6.677333526071903e+03, 5.643737694770305e+02, 6.731464765396966e+03
788, -1.500000000000407e-04, 3.600000000005489e-03, 1.390319502783716e-04, 6.856756322230326e-06, 4.273514678253184e+01, 5.008674622890656e+03, 5.398250775271198e+02, 5.081948380068188e+03
789, -1.000000000000720e-04, 3.600000000003653e-03, 1.388577507603923e-04, 3.482407950381204e-06, 4.240856104732404e+01, 3.341441884459785e+03, 4.901817970816827e+02, 3.441617882006482e+03
790, -5.000000000010923e-05, 3.600000000001818e-03, 1.387072859772750e-04, 1.089293180574968e-07, 4.000433127284879e+01, 1.676021797270982e+03, 4.153877540670036e+02, 1.834868140757333e+03
791, -1.794761171278192e-16, 3.599999999999982e-03, 1.385805226003085e-04, -3.264916108196211e-06, 3.532486447805195e+01, 1.280469493239406e+01, 3.153867794381229e+02, 6.311754436080114e+02
792, 4.999999999982404e-05, 3.599999999998146e-03, 1.384774184179736e-04, -6.640366806707604e-06, 2.816995463655292e+01, -1.647815168394272e+03, 1.901227148185845e+02, 1.718578691646270e+03
793, 9.999999999985923e-05, 3.599999999996311e-03, 1.383979222830115e-04, -1.001866320748262e-05, 1.833678351813546e+01, -3.305439588791400e+03, 3.953945470704723e+01, 3.324716957432204e+03
794, 1.499999999999191e-04, 3.599999999994474e-03, 1.383419740591741e-04, -1.340104769855943e-05, 5.619897562182587e+00, -4.959666391457321e+03, -1.364190074273625e+02, 4.972776740843586e+03
795, 1.999999999999595e-04, 3.599999999992638e-03, 1.383095045673368e-04, -1.678876463219187e-05, -1.018907026109059e+01, -6.610089602418279e+03, -3.378085137698480e+02, 6.634391110137411e+03
796, -2.000000000000149e-04, 3.500000000007369e-03, 1.324884476362359e-04, 1.022312078741441e-05, 4.082235392022551e+01, 6.882102155731835e+03, 5.718690906814575e+02, 6.936227097938969e+03
797, -1.500000000000451e-04, 3.500000000005565e-03, 1.322918818323134e-04, 6.905314590042399e-06, 4.217804160095602e+01, 5.162476554722920e+03, 5.472419061742582e+02, 5.235967119737473e+03
798, -1.000000000000796e-04, 3.500000000003764e-03, 1.321197933173044e-04, 3.589648986396405e-06, 4.171862678592424e+01, 3.444217702515128e+03, 4.971371964534972e+02, 3.544796401590458e+03
799, -5.000000000011939e-05, 3.500000000001962e-03, 1.319721600989514e-04, 2.748705598413913e-07, 3.924890163044506e+01, 1.727711805708079e+03, 4.214937374488405e+02, 1.887202920006390e+03
800, -1.923239128717724e-16, 3.500000000000160e-03, 1.318489513607319e-04, -3.040276171844039e-06, 3.457116710412515e+01, 1.334920371848824e+01, 3.202502554156941e+02, 6.408519923548733e+02
801, 4.999999999981385e-05, 3.499999999998358e-03, 1.317501274081105e-04, -6.357048764347236e-06, 2.748507166750409e+01, -1.698475699850393e+03, 1.933454543924279e+02, 1.768748270318734e+03
802, 9.999999999985163e-05, 3.499999999996555e-03, 1.316756396140851e-04, -9.676706854652439e-06, 1.778757208662978e+01, -3.407364430065537e+03, 4.071805864628229e+01, 3.426119974409345e+03
803, 1.499999999999148e-04, 3.499999999994753e-03, 1.316254303643500e-04, -1.300051216871659e-05, 5.272912015151405e+00, -5.112914423810400e+03, -1.376931434811981e+02, 5.125590620762840e+03
804, 1.999999999999576e-04, 3.499999999992950e-03, 1.315994330021255e-04, -1.632972852891566e-05, -1.026732410378992e+01, -6.814718932816986e+03, -3.419493296405230e+02, 6.838733733044884e+03
805, -2.000000000000167e-04, 3.400000000007423e-03, 1.258654298210808e-04, 1.019793395379182e-05, 4.037704576334636e+01, 7.090056463785751e+03, 5.788369888588273e+02, 7.144101688496135e+03
806, -1.500000000000494e-04, 3.400000000005649e-03, 1.256702657400430e-04, 6.940555144746269e-06, 4.152623455055948e+01, 5.318692594483561e+03, 5.542637010932243e+02, 5.392338805361434e+03
807, -1.000000000000872e-04, 3.400000000003875e-03, 1.255003075432680e-04, 3.685355064248326e-06, 4.093388319964015e+01, 3.548629821221392e+03, 5.038300206873166e+02, 3.649562926241637e+03
808, -5.000000000012958e-05, 3.400000000002102e-03, 1.253555359397824e-04, 4.310614780371713e-07, 3.840494607247410e+01, 1.780254292434577e+03, 4.274695748288980e+02, 1.940350508294746e+03
809, -2.051242747706794e-16, 3.400000000000329e-03, 1.252359228219897e-04, -2.823600043328944e-06, 3.374171489994990e+01, 1.395635541229581e+01, 3.251158323856427e+02, 6.505326112665629e+02
810, 4.999999999980369e-05, 3.399999999998554e-03, 1.251414312101850e-04, -6.079906134851837e-06, 2.674374035005894e+01, -1.749869459937677e+03, 1.967021928417269e+02, 1.819648722724143e+03
811, 9.999999999984403e-05, 3.399999999996781e-03, 1.250720151965103e-04, -9.339135646240022e-06, 1.720780392227766e+01, -3.510824428974114e+03, 4.216204323372712e+01, 3.529039811041308e+03
812, 1.499999999999104e-04, 3.399999999995008e-03, 1.250276198886751e-04, -1.260256965032883e-05, 4.927923503837064e+00, -5.268505601464612e+03, -1.385711959281959e+02, 5.280711036179224e+03
813, 1.999999999999557e-04, 3.399999999993234e-03, 1.250081813537920e-04, -1.587149145149239e-05, -1.030446892283550e+01, -7.022505662289209e+03, -3.455639854752083e+02, 7.046177931934363e+03
814, -2.000000000000187e-04, 3.300000000007353e-03, 1.193644768510898e-04, 1.015744629345295e-05, 3.984221771171553e+01, 7.301199034784964e+03, 5.852395247125006e+02, 7.355088308783177e+03
815, -1.500000000000538e-04, 3.300000000005614e-03, 1.191707185104979e-04, 6.962302504840977e-06, 4.077802803162956e+01, 5.477325342119443e+03, 5.608617260705773e+02, 5.551063880140355e+03
816, -1.000000000000948e-04, 3.300000000003875e-03, 1.190029051719916e-04, 3.769377582384729e-06, 4.005235332899508e+01, 3.654680904399711e+03, 5.102409503447191e+02, 3.755918379284926e+03
817, -5.000000000013977e-05, 3.300000000002137e-03, 1.188610204478155e-04, 5.773804829490798e-07, 3.747050337212386e+01, 1.833651858425538e+03, 4.333054104201544e+02, 1.994312356437434e+03
818, -2.179652942510546e-16, 3.300000000000398e-03, 1.187450391428607e-04, -2.614982167000158e-06, 3.283483567578969e+01, 1.462854030773639e+01, 3.299831456186214e+02, 6.602173693265499e+02
819, 4.999999999979350e-05, 3.299999999998659e-03, 1.186549271969298e-04, -5.809006082827413e-06, 2.594485336608273e+01, -1.801994422406483e+03, 2.002020932568714e+02, 1.871279110258452e+03
820, 9.999999999983644e-05, 3.299999999996922e-03, 1.185906416270668e-04, -9.005989331758905e-06, 1.659721684135116e+01, -3.615818075355024e+03, 4.389014844551701e+01, 3.633475778852029e+03
821, 1.499999999999061e-04, 3.299999999995182e-03, 1.185521304697956e-04, -1.220723234209807e-05, 4.585742632144047e+00, -5.426439117023541e+03, -1.390247736532145e+02, 5.438137785764109e+03
822, 1.999999999999538e-04, 3.299999999993444e-03, 1.185393327234438e-04, -1.541403791067299e-05, -1.029873602290604e+01, -7.233449999393715e+03, -3.486146700182341e+02, 7.256723980291864e+03
823, -2.000000000000206e-04, 3.200000000007042e-03, 1.129892658386509e-04, 1.010146529844317e-05, 3.921414278940563e+01, 7.515530370254311e+03, 5.910377255107232e+02, 7.569187981875113e+03
824, -1.500000000000580e-04, 3.200000000005365e-03, 1.127969121435322e-04, 6.970390906373603e-06, 3.992934703218305e+01, 5.638375746422613e+03, 5.670066636834578e+02, 5.712143933191237e+03
825, -1.000000000001024e-04, 3.200000000003689e-03, 1.126312530779460e-04, 3.841577654950216e-06, 3.907013582008199e+01, 3.762372357965619e+03, 5.163503055353964e+02, 3.863864644308840e+03
826, -5.000000000014997e-05, 3.200000000002012e-03, 1.124922753649372e-04, 7.137157022546715e-07, 3.644191222628729e+01, 1.887906089922885e+03, 4.389912434795040e+02, 2.049090737058870e+03
827, -2.307656561499616e-16, 3.200000000000335e-03, 1.123799569299323e-04, -2.414507265058816e-06, 3.184709639642801e+01, 1.536719427069602e+01, 3.348519144254897e+02, 6.699065647922370e+02
828, 4.999999999978330e-05, 3.199999999998658e-03, 1.122942668412862e-04, -5.544406042852454e-06, 2.508517342977086e+01, -1.854849647051896e+03, 2.038546327833974e+02, 1.923637641160219e+03
829, 9.999999999982882e-05, 3.199999999996980e-03, 1.122351652507817e-04, -8.677297920207906e-06, 1.595269139899767e+01, -3.722345298484731e+03, 4.592164459768000e+01, 3.739426032286097e+03
830, 1.499999999999017e-04, 3.199999999995303e-03, 1.122026033340595e-04, -1.181450268918829e-05, 4.243236244996410e+00, -5.586716166159786e+03, -1.390248171517315e+02, 5.597869115875676e+03
831, 1.999999999999519e-04, 3.199999999993626e-03, 1.121965232307657e-04, -1.495734265415441e-05, -1.025261009758026e+01, -7.447554193271879e+03, -3.510624860234468e+02, 7.470370426923874e+03
832, -2.000000000000225e-04, 3.100000000006703e-03, 1.067435296794358e-04, 1.002980885301246e-05, 3.849050055349358e+01, 7.733051437702665e+03, 5.961918636658216e+02, 7.786401413278615e+03
833, -1.500000000000624e-04, 3.100000000005093e-03, 1.065525740950965e-04, 6.964664967001038e-06, 3.897767018896025e+01, 5.801845495322739e+03, 5.726686662900916e+02, 5.875580241590104e+03
834, -1.000000000001100e-04, 3.100000000003483e-03, 1.063890732609376e-04, 3.901826773941419e-06, 3.798450796884367e+01, 3.871706259100402e+03, 5.221380546327799e+02, 3.973403460194048e+03
835, -5.000000000016015e-05, 3.100000000001875e-03, 1.062530172241851e-04, 8.399656410297304e-07, 3.531641400543685e+01, 1.943019223386129e+03, 4.445168982437435e+02, 2.104687886651116e+03
836, -2.436134518939148e-16, 3.100000000000265e-03, 1.061443872450580e-04, -2.222249679985368e-06, 3.077591342385824e+01, 1.617452651453112e+01, 3.397218668057690e+02, 6.796006089194318e+02
837, 4.999999999977311e-05, 3.099999999998656e-03, 1.060631557356749e-04, -5.286153065109517e-06, 2.416252098217649e+01, -1.908433117102413e+03, 2.076694745589622e+02, 1.976722626722819e+03
838, 9.999999999982122e-05, 3.099999999997047e-03, 1.060092861986473e-04, -8.353081029472030e-06, 1.527271192110641e+01, -3.830404413043164e+03, 4.827613758271062e+01, 3.846888988691131e+03
839, 1.499999999998973e-04, 3.099999999995438e-03, 1.059827331655485e-04, -1.142437273793986e-05, 3.899927348261940e+00, -5.749335452531063e+03, -1.385417685367336e+02, 5.759903872705893e+03
840, 1.999999999999499e-04, 3.099999999993829e-03, 1.059834421354360e-04, -1.450137001480866e-05, -1.016535749381387e+01, -7.664817633257357e+03, -3.528678649416769e+02, 7.687116779605080e+03
841, -2.000000000000244e-04, 3.000000000006373e-03, 1.006310570774630e-04, 9.942305952674236e-06, 3.767119650675636e+01, 7.953764137954265e+03, 6.006608568864636e+02, 8.006728502804213e+03
842, -1.500000000000668e-04, 3.000000000004845e-03, 1.004414872977931e-04, 6.944980400739631e-06, 3.792228381524274e+01, 5.967737131283198e+03, 5.778167595397271e+02, 6.041373432893500e+03
843, -1.000000000001176e-04, 3.000000000003318e-03, 1.002801428597953e-04, 3.950007515247711e-06, 3.679397490684767e+01, 3.982685286776920e+03, 5.275834096461789e+02, 4.084536113394919e+03
844, -5.000000000017031e-05, 3.000000000001789e-03, 1.001470173557425e-04, 9.560398820017077e-07, 3.409205670822462e+01, 1.998993933733869e+03, 4.498718141757527e+02, 2.161105731586965e+03
845, -2.564273663199779e-16, 3.000000000000262e-03, 1.000420956025952e-04, -2.038272677213861e-06, 2.961922623239900e+01, 1.705309634725086e+01, 3.445926995417681e+02, 6.892999506239815e+02
846, 4.999999999976296e-05, 2.999999999998735e-03, 9.996535357887696e-05, -5.034283117995337e-06, 2.317505291285056e+01, -1.962742520748351e+03, 2.116566028506677e+02, 2.030532609808947e+03
847, 9.999999999981362e-05, 2.999999999997206e-03, 9.991675836151955e-05, -8.033347185521010e-06, 1.455597818531112e+01, -3.939993499356219e+03, 5.097392947797331e+01, 3.955863361678420e+03
848, 1.499999999998930e-04, 2.999999999995678e-03, 9.989626806254911e-05, -1.103682342598765e-05, 3.555299641902025e+00, -5.914295686267744e+03, -1.375449890581335e+02, 5.924241283699692e+03
849, 1.999999999999481e-04, 2.999999999994151e-03, 9.990383176556237e-05, -1.404607319701642e-05, -1.003680999779692e+01, -7.885240146483690e+03, -3.539898109801042e+02, 7.906962927452581e+03
850, -2.000000000000263e-04, 2.900000000006043e-03, 9.465569267235302e-05, 9.838797418785564e-06, 3.675576098585293e+01, 8.177670088062210e+03, 6.044020709908386e+02, 8.230169714803525e+03
851, -1.500000000000711e-04, 2.900000000004594e-03, 9.446749024773205e-05, 6.911204728223884e-06, 3.676149166134940e+01, 6.136052432456901e+03, 5.824187780740896e+02, 6.209524660767840e+03
852, -1.000000000001252e-04, 2.900000000003146e-03, 9.430829420791949e-05, 3.986014248974254e-06, 3.549626637188771e+01, 4.095311506664454e+03, 5.326647985479063e+02, 4.197264220389289e+03
853, -5.000000000018052e-05, 2.900000000001698e-03, 9.417810191816045e-05, 1.061859795206435e-06, 3.276631046234797e+01, 2.055832499580895e+03, 4.550450164101942e+02, 2.218346382644887e+03
854, -2.692480570096190e-16, 2.900000000000249e-03, 9.407690198024968e-05, -1.862627736487991e-06, 2.837447681036906e+01, 1.800523843605947e+01, 3.494640538614611e+02, 6.990050220632239e+02
855, 4.999999999975274e-05, 2.899999999998802e-03, 9.400467416806872e-05, -4.788820380516928e-06, 2.212042943199174e+01, -2.017775628009030e+03, 2.158263112632645e+02, 2.085065925024304e+03
856, 9.999999999980604e-05, 2.899999999997354e-03, 9.396138936295342e-05, -7.718093115485508e-06, 1.380063405515443e+01, -4.051110594606337e+03, 5.403601639672544e+01, 4.066347607026529e+03
857, 1.499999999998886e-04, 2.899999999995905e-03, 9.394700948874901e-05, -1.065182387676657e-05, 3.208343193447945e+00, -6.081595265474602e+03, -1.360027206398311e+02, 6.090880225069729e+03
858, 1.999999999999462e-04, 2.899999999994458e-03, 9.396148744654442e-05, -1.359139356834030e-05, -9.866538445599531e+00, -8.108820414560006e+03, -3.543858503513422e+02, 8.129908438054240e+03
859, -2.000000000000283e-04, 2.800000000005697e-03, 8.882133709145762e-05, 9.719136594318387e-06, 3.574051211067194e+01, 8.404768005523731e+03, 6.073720270393970e+02, 8.456726571340914e+03
860, -1.500000000000755e-04, 2.800000000004316e-03, 8.863447704050815e-05, 6.863217984305527e-06, 3.549146795253068e+01, 6.306791082355119e+03, 5.864420488475834e+02, 6.380035733460453e+03
861, -1.000000000001328e-04, 2.800000000002934e-03, 8.847741485781387e-05, 4.009753855220650e-06, 3.408775686742524e+01, 4.209585622191827e+03, 5.373602521881280e+02, 4.311589797957987e+03
862, -5.000000000019071e-05, 2.800000000001552e-03, 8.835015191200612e-05, 1.157359257509311e-06, 3.133557926902506e+01, 2.113536211939838e+03, 4.600252817416649e+02, 2.276412202141943e+03
863, -2.820416426449479e-16, 2.800000000000171e-03, 8.825268082153714e-05, -1.695353831978007e-06, 2.703801508190247e+01, 1.903243796541926e+01, 3.543355078932915e+02, 7.087162322685683e+02
864, 4.999999999974258e-05, 2.799999999998790e-03, 8.818498538896397e-05, -4.549776524810832e-06, 2.099488703283987e+01, -2.073531153623404e+03, 2.201890291671610e+02, 2.140320576280440e+03
865, 9.999999999979847e-05, 2.799999999997408e-03, 8.814704053465141e-05, -7.407303035453769e-06, 1.300272419492148e+01, -4.163755034567787e+03, 5.748372204081281e+01, 4.178339728717993e+03
866, 1.499999999998843e-04, 2.799999999996027e-03, 8.813881223005438e-05, -1.026933069536093e-05, 2.854720777927923e+00, -6.251234677876069e+03, -1.338827053543064e+02, 6.259818888875961e+03
867, 1.999999999999443e-04, 2.799999999994645e-03, 8.816025743044917e-05, -1.313725996630800e-05, -9.659208983326721e+00, -8.335560446844709e+03, -3.540126813358510e+02, 8.355951851034572e+03
868, -2.000000000000301e-04, 2.700000000005420e-03, 8.313194685370737e-05, 9.583190120018202e-06, 3.462633676026326e+01, 8.635058760238517e+03, 6.095262918027552e+02, 8.686398970368064e+03
869, -1.500000000000799e-04, 2.700000000004097e-03, 8.294639732285539e-05, 6.800913492239130e-06, 3.411262174363753e+01, 6.479955082169091e+03, 5.898530356590152e+02, 6.552907098328824e+03
870, -1.000000000001404e-04, 2.700000000002773e-03, 8.279144756043388e-05, 4.021146491760163e-06, 3.256783998981234e+01, 4.325510037816470e+03, 5.416471461697162e+02, 4.427513889046082e+03
871, -5.000000000020087e-05, 2.700000000001450e-03, 8.266710317583861e-05, 1.242485415424006e-06, 2.979859934135516e+01, 2.172107788305074e+03, 4.648009973537162e+02, 2.335304804448966e+03
872, -2.948962146524792e-16, 2.700000000000125e-03, 8.257336104374304e-05, -1.536476672807695e-06, 2.560832687963511e+01, 2.013766209150435e+01, 3.592065347051043e+02, 7.184338984712659e+02
873, 4.999999999973239e-05, 2.699999999998801e-03, 8.251020923662582e-05, -4.317149958784940e-06, 1.979709974926175e+01, -2.130005923763989e+03, 2.247553741682337e+02, 2.196295279049866e+03
874, 9.999999999979085e-05, 2.699999999997478e-03, 8.247762695675930e-05, -7.100947894222737e-06, 1.216161925154586e+01, -4.277923429992809e+03, 6.133885917032245e+01, 4.291838714621882e+03
875, 1.499999999998800e-04, 2.699999999996155e-03, 8.247558446785202e-05, -9.889287212096616e-06, 2.495198571318838e+00, -6.423210156642065e+03, -1.311518906051999e+02, 6.431056879367125e+03
876, 1.999999999999424e-04, 2.699999999994831e-03, 8.250404302652755e-05, -1.268358794213395e-05, -9.412290938604428e+00, -8.565456253155971e+03, -3.528259044586285e+02, 8.585093637161126e+03
877, -2.000000000000321e-04, 2.600000000005380e-03, 7.759153450691113e-05, 9.430838755600774e-06, 3.341631848524526e+01, 8.868544361680984e+03, 6.108184769865866e+02, 8.919186307448490e+03
878, -1.500000000000841e-04, 2.600000000004088e-03, 7.740725638535103e-05, 6.724198667182521e-06, 3.262601838555963e+01, 6.655546610632967e+03, 5.926165201609703e+02, 6.728139009494791e+03
879, -1.000000000001480e-04, 2.600000000002797e-03, 7.725439032131779e-05, 4.020126387251401e-06, 3.093607469810354e+01, 4.443087078093300e+03, 5.455017329473735e+02, 4.545037407915977e+03
880, -5.000000000021105e-05, 2.600000000001504e-03, 7.713294641112824e-05, 1.317199471931222e-06, 2.815388054395157e+01, 2.231549677217526e+03, 4.693599221498079e+02, 2.395025674785277e+03
881, -3.077169053421203e-16, 2.600000000000212e-03, 7.704292603318156e-05, -1.386007919517976e-06, 2.408321082104180e+01, 2.132335768032931e+01, 3.640764321966579e+02, 7.281580945876719e+02
882, 4.999999999972220e-05, 2.599999999998920e-03, 7.698432177852458e-05, -4.090925043442954e-06, 1.852440317337880e+01, -2.187197694482363e+03, 2.295362217426061e+02, 2.252988566427785e+03
883, 9.999999999978321e-05, 2.599999999997628e-03, 7.695711738102138e-05, -6.798984589307358e-06, 1.127433272971450e+01, -4.393614028824752e+03, 6.562392583472013e+01, 4.406843255248118e+03
884, 1.499999999998756e-04, 2.599999999996335e-03, 7.696128764728488e-05, -9.511622696363751e-06, 2.126407667303511e+00, -6.597520889829011e+03, -1.277760808238884e+02, 6.604593201603961e+03
885, 1.999999999999405e-04, 2.599999999995043e-03, 7.699679838661670e-05, -1.223027896894574e-05, -9.129446713011589e+00, -8.798508192154415e+03, -3.507796593854581e+02, 8.817333168740501e+03
886, -2.000000000000340e-04, 2.500000000005436e-03, 7.220416879860899e-05, 9.261978130812829e-06, 3.210733822044483e+01, 9.105221821949590e+03, 6.112009606051646e+02, 9.155089999111658e+03
887, -1.500000000000885e-04, 2.500000000004174e-03, 7.202111527387402e-05, 6.632995778867460e-06, 3.102813317609912e+01, 6.833564140518858e+03, 5.946965742304324e+02, 6.905733284221193e+03
888, -1.000000000001556e-04, 2.500000000002911e-03, 7.187029647151673e-05, 4.006642613000015e-06, 2.918918228732446e+01, 4.562316835878201e+03, 5.488997733595530e+02, 4.664162322274709e+03
889, -5.000000000022121e-05, 2.500000000001650e-03, 7.175172722488456e-05, 1.381477464102156e-06, 2.639823524091764e+01, 2.291863094899258e+03, 4.736895724555180e+02, 2.455576973861571e+03
890, -3.205375960317614e-16, 2.500000000000388e-03, 7.166541366847186e-05, -1.243944403456434e-06, 2.245956988881346e+01, 2.259149549505435e+01, 3.689445268905998e+02, 7.378890655745481e+02
891, 4.999999999971200e-05, 2.499999999999127e-03, 7.161135316610189e-05, -3.871071311703021e-06, 1.717388957501180e+01, -2.245104040023946e+03, 2.345427545557862e+02, 2.310398806615216e+03
892, 9.999999999977564e-05, 2.499999999997865e-03, 7.158953423914317e-05, -6.501355187717215e-06, 1.033832567865545e+01, -4.510824194982008e+03, 7.036199847698623e+01, 4.523352051470833e+03
893, 1.499999999998713e-04, 2.499999999996604e-03, 7.159993649447920e-05, -9.136251581383598e-06, 1.746414181950172e+00, -6.774164227045812e+03, -1.237203128000588e+02, 6.780427116421281e+03
894, 1.999999999999386e-04, 2.499999999995341e-03, 7.164253055217724e-05, -1.177721968231491e-05, -8.811812750967533e+00, -9.034713846569994e+03, -3.478269723218292e+02, 9.052670431137803e+03
895, -2.000000000000358e-04, 2.400000000005491e-03, 6.697397451100077e-05, 9.076519563036706e-06, 3.070113803029415e+01, 9.345091029690631e+03, 6.106252626089329e+02, 9.394110490046898e+03
896, -1.500000000000929e-04, 2.400000000004260e-03, 6.679209068697847e-05, 6.527242764792549e-06, 2.931949147343141e+01, 7.014008728287055e+03, 5.960566822356312e+02, 7.085691074878377e+03
897, -1.000000000001632e-04, 2.400000000003029e-03, 6.664327459934351e-05, 3.980659894433307e-06, 2.732624981371418e+01, 4.683200910947075e+03, 5.518166624029615e+02, 4.784890320143802e+03
898, -5.000000000023145e-05, 2.400000000001797e-03, 6.652754607780175e-05, 1.435311074109544e-06, 2.452981287557282e+01, 2.353050197743280e+03, 4.777773476738303e+02, 2.516960857571174e+03
899, -3.333650629849805e-16, 2.400000000000566e-03, 6.644491627286905e-05, -1.110267315917986e-06, 2.073496749725132e+01, 2.394468485222342e+01, 3.738103126345011e+02, 7.476275152862638e+02
900, 4.999999999970184e-05, 2.399999999999334e-03, 6.639538758266550e-05, -3.657542657150388e-06, 1.574286613005734e+01, -2.303722024439720e+03, 2.397866501516342e+02, 2.368524420171691e+03
901, 9.999999999976805e-05, 2.399999999998102e-03, 6.637895357933337e-05, -6.207986112828096e-06, 9.350997494353123e+00, -4.629550788872746e+03, 7.557702081668393e+01, 4.641363735785203e+03
902, 1.499999999998670e-04, 2.399999999996872e-03, 6.639559893514697e-05, -8.763072647237874e-06, 1.353161345855597e+00, -6.953136891110435e+03, -1.189482864348475e+02, 6.958557800945297e+03
903, 1.999999999999366e-04, 2.399999999995640e-03, 6.644529934821548e-05, -1.132428104387420e-05, -8.460683401923802e+00, -9.274070096079668e+03, -3.439192864566774e+02, 9.291105407360843e+03
904, -2.000000000000378e-04, 2.300000000005451e-03, 6.190513255357396e-05, 8.874390927592523e-06, 2.919947284428065e+01, 9.588150932467972e+03, 6.090414361066051e+02, 9.636248175043080e+03
905, -1.500000000000972e-04, 2.300000000004251e-03, 6.172435502636743e-05, 6.406894088611108e-06, 2.750022874913645e+01, 7.196880345362780e+03, 5.966590336584438e+02, 7.268013433275972e+03
906, -1.000000000001708e-04, 2.300000000003051e-03, 6.157748857385353e-05, 3.942159460827358e-06, 2.534617985385364e+01, 4.805740257173662e+03, 5.542269341611185e+02, 4.907222993982730e+03
907, -5.000000000024163e-05, 2.300000000001851e-03, 6.146455828718995e-05, 1.478708470944825e-06, 2.254641834519396e+01, 2.415112651121572e+03, 4.816101503623685e+02, 2.579179428800951e+03
908, -3.461857536746216e-16, 2.300000000000652e-03, 6.138558059953545e-05, -9.849413733261766e-07, 1.890629859002252e+01, 2.538506746115536e+01, 3.786731218270705e+02, 7.573739546770295e+02
909, 4.999999999969163e-05, 2.299999999999453e-03, 6.134056321124741e-05, -3.450276505881711e-06, 1.422746217198176e+01, -2.363049302206315e+03, 2.452797366928066e+02, 2.427363469153582e+03
910, 9.999999999976044e-05, 2.299999999998253e-03, 6.132950501463163e-05, -5.918787323576518e-06, 8.307805867978573e+00, -4.749791578054816e+03, 8.129339083510470e+01, 4.760876411844813e+03
911, 1.499999999998626e-04, 2.299999999997052e-03, 6.135239601827822e-05, -8.391968207106150e-06, 9.414483521341026e-01, -7.134437155440068e+03, -1.134229605698613e+02, 7.138983603524613e+03
912, 1.999999999999347e-04, 2.299999999995853e-03, 6.140921727094961e-05, -1.087131754169082e-05, -8.081316973381035e+00, -9.516575670959566e+03, -3.390067705881111e+02, 9.532636951117223e+03
913, -2.000000000000396e-04, 2.200000000005174e-03, 5.700188001592113e-05, 8.655537502741759e-06, 2.760317417599833e+01, 9.834398911630720e+03, 6.063980944614535e+02, 9.881503794060196e+03
914, -1.500000000001016e-04, 2.200000000004032e-03, 5.682213643549622e-05, 6.271921599526051e-06, 2.557007488008264e+01, 7.382177955547754e+03, 5.964648790406510e+02, 7.452701585171488e+03
915, -1.000000000001784e-04, 2.200000000002889e-03, 5.667715756978161e-05, 3.891139905445504e-06, 2.324776708814818e+01, 4.929935261850580e+03, 5.561043912676405e+02, 5.031161948020223e+03
916, -5.000000000025179e-05, 2.200000000001748e-03, 5.656697404198232e-05, 1.511695169894091e-06, 2.044600172307992e+01, 2.478051969657166e+03, 4.851744321905097e+02, 2.642234662597319e+03
917, -3.590132206278407e-16, 2.200000000000606e-03, 5.649160784062979e-05, -8.679139598258324e-07, 1.697081872060710e+01, 2.691501538111174e+01, 3.835321158879249e+02, 7.671286871947219e+02
918, 4.999999999968146e-05, 2.199999999999464e-03, 5.645107224299039e-05, -3.249192961904868e-06, 1.262444207421038e+01, -2.423082884602070e+03, 2.510339419641195e+02, 2.486914220735547e+03
919, 9.999999999975283e-05, 2.199999999998322e-03, 5.644537173797263e-05, -5.633651463291939e-06, 7.205252486210270e+00, -4.871543187040087e+03, 8.753584814807027e+01, 4.881888613541309e+03
920, 1.499999999998582e-04, 2.199999999997180e-03, 5.647450194863739e-05, -8.022803262288980e-06, 5.077636878482963e-01, -7.318061477375970e+03, -1.071067321343868e+02, 7.321703568468166e+03
921, 1.999999999999328e-04, 2.199999999996038e-03, 5.653844955444623e-05, -1.041816635039764e-05, -7.677283983004713e+00, -9.762227335386240e+03, -3.330388192652579e+02, 9.777264756867396e+03
922, -2.000000000000416e-04, 2.100000000004828e-03, 5.226851015040321e-05, 8.419922876628896e-06, 2.591581887122163e+01, 1.008383344452061e+04, 6.026426641269370e+02, 1.012987757511673e+04
923, -1.500000000001059e-04, 2.100000000003754e-03, 5.208971879008616e-05, 6.122315424631029e-06, 2.353083961909817e+01, 7.569901451819458e+03, 5.954343594860603e+02, 7.639756391568225e+03
924, -1.000000000001860e-04, 2.100000000002678e-03, 5.194655605770677e-05, 3.827618076696722e-06, 2.103114094641558e+01, 5.055786893343596e+03, 5.574221056148986e+02, 5.156708553099456e+03
925, -5.000000000026199e-05, 2.100000000001603e-03, 5.183905838706949e-05, 1.534314922147875e-06, 1.822742001432493e+01, 2.541870137814581e+03, 4.884562675992202e+02, 2.706128354039051e+03
926, -3.718339113174818e-16, 2.100000000000528e-03, 5.176725360272688e-05, -7.591142377176953e-07, 1.492648523973901e+01, 2.853742051723987e+01, 3.883864598983838e+02, 7.768921588539324e+02
927, 4.999999999967128e-05, 2.099999999999452e-03, 5.173116084155323e-05, -3.054193915933498e-06, 1.093124206358948e+01, -2.483819093629259e+03, 2.570616022352033e+02, 2.547175279955131e+03
928, 9.999999999974523e-05, 2.099999999998377e-03, 5.173079047385011e-05, -5.352452964739655e-06, 6.040664102906817e+00, -4.994801263092918e+03, 9.432998299947201e+01, 5.004399320954552e+03
929, 1.499999999998539e-04, 2.099999999997302e-03, 5.176614402406149e-05, -7.655424599731028e-06, 4.977851564967750e-02, -7.504004913327960e+03, -9.996068272719981e+01, 7.506717349850415e+03
930, 1.999999999999309e-04, 2.099999999996226e-03, 5.183721409128626e-05, -9.964646423358709e-06, -7.250423702975468e+00, -1.001101985864976e+04, -3.259631653074340e+02, 1.002498931910276e+04
931, -2.000000000000435e-04, 2.000000000004496e-03, 4.770937245471817e-05, 8.167529852180877e-06, 2.413962381721331e+01, 1.033645098480372e+04, 5.977210365920565e+02, 1.038137020610816e+04
932, -1.500000000001103e-04, 2.000000000003499e-03, 4.753144174362070e-05, 5.958084878901239e-06, 2.138306463817730e+01, 7.760049030626382e+03, 5.935265505756012e+02, 7.829179139481791e+03
933, -1.000000000001936e-04, 2.000000000002501e-03, 4.739001382069787e-05, 3.751629983915883e-06, 1.869549393011482e+01, 5.183294974648334e+03, 5.581524007116481e+02, 5.283864514341335e+03
934, -5.000000000027220e-05, 2.000000000001505e-03, 4.728513121515055e-05, 1.546630618579915e-06, 1.588862700714719e+01, 2.606568298441211e+03, 4.914413389672126e+02, 2.770862594674311e+03
935, -3.846512138753339e-16, 2.000000000000507e-03, 4.721682787459300e-05, -6.584522461204042e-07, 1.277015384231720e+01, 3.025445971195506e+01, 3.932352854999071e+02, 7.866648968909931e+02
936, 4.999999999966107e-05, 1.999999999999510e-03, 4.718512908475392e-05, -2.865162146780771e-06, 9.143758145088668e+00, -2.545255019494341e+03, 2.633753949480733e+02, 2.608144840660124e+03
937, 9.999999999973761e-05, 1.999999999998513e-03, 4.719005138871007e-05, -5.075047154491859e-06, 4.809091951903042e+00, -5.119562494398018e+03, 1.017021124258910e+02, 5.128406909916369e+03
938, 1.499999999998495e-04, 1.999999999997515e-03, 4.723160250561888e-05, -7.289659900911383e-06, -4.382591431133278e-01, -7.692264148680622e+03, -9.194475935978414e+01, 7.694023711300506e+03
939, 1.999999999999290e-04, 1.999999999996517e-03, 4.730978124896998e-05, -9.510557602789912e-06, -6.806800108492666e+00, -1.026294992961788e+04, -3.177260200450614e+02, 1.027581000156373e+04
940, -2.000000000000454e-04, 1.900000000004165e-03, 4.332887265070911e-05, 7.898361384293358e-06, 2.227858902429523e+01, 1.059224838363950e+04, 5.915778007063099e+02, 1.063598226005628e+04
941, -1.500000000001146e-04, 1.900000000003247e-03, 4.315170071194040e-05, 5.779259392359521e-06, 1.912849458964672e+01, 7.952619111897665e+03, 5.906994965175944e+02, 8.020971073109471e+03
942, -1.000000000002012e-04, 1.900000000002328e-03, 4.301191593895780e-05, 3.663231723594987e-06, 1.624073257255282e+01, 5.312459443617441e+03, 5.582668829526697e+02, 5.412631549036822e+03
943, -5.000000000028235e-05, 1.900000000001409e-03, 4.290956724830490e-05, 1.548725212516029e-06, 1.342796825358482e+01, 2.672147751326104e+03, 4.941148953856822e+02, 2.836439494202053e+03
944, -3.974685164331859e-16, 1.900000000000491e-03, 4.284469500468997e-05, -5.658179822080919e-07, 1.049884781096159e+01, 3.206859117146882e+01, 3.980775834988844e+02, 7.964473013111935e+02
945, 4.999999999965091e-05, 1.899999999999572e-03, 4.281733093899196e-05, -2.681960407740022e-06, 7.257926891357215e+00, -2.607387262901501e+03, 2.699881427424815e+02, 2.669820941073217e+03
946, 9.999999999973007e-05, 1.899999999998654e-03, 4.282749806560193e-05, -4.801269346007675e-06, 3.505624618704587e+00, -5.245822771248259e+03, 1.096789748929638e+02, 5.253909641190026e+03
947, 1.499999999998452e-04, 1.899999999997735e-03, 4.287521059914875e-05, -6.925316841924176e-06, -9.618242015392298e-01, -7.882834578259618e+03, -8.301825518232604e+01, 7.883621390829037e+03
948, 1.999999999999271e-04, 1.899999999996817e-03, 4.296047387047007e-05, -9.055679731174002e-06, -6.352369769215443e+00, -1.051801291938668e+04, -3.082725314674224e+02, 1.052972627018449e+04
949, -2.000000000000473e-04, 1.800000000003828e-03, 3.913147271259741e-05, 7.612441536761210e-06, 2.033618667509973e+01, 1.085122080145099e+04, 5.841561268279657e+02, 1.089371447489935e+04
950, -1.500000000001189e-04, 1.800000000002982e-03, 3.895494688389395e-05, 5.585889471280733e-06, 1.676898966883221e+01, 8.147609248539430e+03, 5.869101980601533e+02, 8.215133452209946e+03
951, -1.000000000002088e-04, 1.800000000002135e-03, 3.881670278651712e-05, 3.562500435919114e-06, 1.366696987467606e+01, 5.443279781974684e+03, 5.577364077193911e+02, 5.543011355869972e+03
952, -5.000000000029254e-05, 1.800000000001289e-03, 3.871679602274537e-05, 1.540702673444098e-06, 1.084397887675232e+01, 2.738609643933133e+03, 4.964617649339416e+02, 2.902861116144859e+03
953, -4.102858189910380e-16, 1.800000000000442e-03, 3.865527367544865e-05, -4.810804501651850e-07, 8.109769534696625e+00, 3.398242263328086e+01, 4.029122574014215e+02, 8.062397551817927e+02
954, 4.999999999964072e-05, 1.799999999999596e-03, 3.863217422425832e-05, -2.504430477515241e-06, 5.269904720786712e+00, -2.670211939776575e+03, 2.769129318776462e+02, 2.732201710635454e+03
955, 9.999999999972246e-05, 1.799999999998750e-03, 3.864752746114558e-05, -4.530933891159595e-06, 2.125717621413173e+00, -5.373577088825716e+03, 1.182879479175972e+02, 5.380905947675890e+03
956, 1.499999999998409e-04, 1.799999999997903e-03, 3.870135440534130e-05, -6.562182144355652e-06, -1.525720132302126e+00, -8.075710188199456e+03, -7.313936458542972e+01, 8.075509413714080e+03
957, 1.999999999999252e-04, 1.799999999997057e-03, 3.879366721766785e-05, -8.599771690941673e-06, -5.891727387420360e+00, -1.077620192678989e+04, -2.975464625150366e+02, 1.078673803245327e+04
958, -2.000000000000492e-04, 1.700000000003484e-03, 3.512169085791632e-05, 7.309816476678214e-06, 1.831788631460461e+01, 1.111336365316870e+04, 5.753979310637012e+02, 1.115456730155305e+04
959, -1.500000000001233e-04, 1.700000000002704e-03, 3.494568720731665e-05, 5.378047683004474e-06, 1.430748292892122e+01, 8.345016889433569e+03, 5.821145318577371e+02, 8.411667404767311e+03
960, -1.000000000002164e-04, 1.700000000001925e-03, 3.480887000838002e-05, 3.449535287053405e-06, 1.097486923958297e+01, 5.575755252914420e+03, 5.565310575440114e+02, 5.675005549827813e+03
961, -5.000000000030273e-05, 1.700000000001145e-03, 3.471130185513676e-05, 1.522688965751773e-06, 8.135324457745583e+00, 2.805954872757496e+03, 4.984663301524863e+02, 2.970129450719441e+03
962, -4.231031215488901e-16, 1.700000000000365e-03, 3.465303685683855e-05, -4.040866857713080e-07, 5.599804356464688e+00, 3.599825704529553e+01, 4.077380924613698e+02, 8.160425688050968e+02
963, 4.999999999963053e-05, 1.699999999999585e-03, 3.463412055237876e-05, -2.332392188478859e-06, 3.174982234889285e+00, -2.733725594498165e+03, 2.841630550519154e+02, 2.795285197318420e+03
964, 9.999999999971485e-05, 1.699999999998805e-03, 3.465458982422821e-05, -4.263833212993174e-06, 6.632031385142909e-01, -5.502821142453322e+03, 1.275569477565989e+02, 5.509394072115219e+03
965, 1.499999999998365e-04, 1.699999999998025e-03, 3.471447281180734e-05, -6.200020612860711e-06, -2.137570001381732e+00, -8.270886256044530e+03, -6.226543229786108e+01, 8.269686376712074e+03
966, 1.999999999999232e-04, 1.699999999997246e-03, 3.481378882404497e-05, -8.142570457451511e-06, -5.433715497372305e+00, -1.103751206802915e+04, -2.854901763894332e+02, 1.104684440642031e+04
967, -2.000000000000511e-04, 1.600000000003144e-03, 3.130410157406204e-05, 6.990555481016190e-06, 1.622914828136595e+01, 1.137867102119394e+04, 5.652435540896383e+02, 1.141854134366893e+04
968, -1.500000000001277e-04, 1.600000000002436e-03, 3.112848439402432e-05, 5.155829663588092e-06, 1.174685285996941e+01, 8.544838414059170e+03, 5.762673476998060e+02, 8.610574186191587e+03
969, -1.000000000002240e-04, 1.600000000001727e-03, 3.099296850933220e-05, 3.324458474223673e-06, 8.165275516127963e+00, 5.709884557843126e+03, 5.546202131416800e+02, 5.808615764341862e+03
970, -5.000000000031292e-05, 1.600000000001018e-03, 3.089762381905593e-05, 1.494833052485568e-06, 5.301001803853637e+00, 2.874184185516725e+03, 5.001126052732794e+02, 3.038246401068124e+03
971, -4.359339766338982e-16, 1.600000000000309e-03, 3.084251177429518e-05, -3.346607544516343e-07, 2.966334218539600e+00, 3.811867140120614e+01, 4.125538286717396e+02, 8.258561212561473e+02
972, 4.999999999962034e-05, 1.599999999999600e-03, 3.082768529084035e-05, -2.165642427226918e-06, 9.692201678603851e-01, -2.797923968733029e+03, 2.917520789690296e+02, 2.859069811181041e+03
973, 9.999999999970728e-05, 1.599999999998891e-03, 3.085318866181799e-05, -3.999736809812183e-06, -8.868079838449603e-01, -5.633549067590278e+03, 1.375144828603703e+02, 5.639372754374379e+03
974, 1.499999999998322e-04, 1.599999999998182e-03, 3.091905747000816e-05, -5.838574145146829e-06, -2.802695839509738e+00, -8.468355280340131e+03, -5.035286956634241e+01, 8.466151558225223e+03
975, 1.999999999999214e-04, 1.599999999997473e-03, 3.102531849967911e-05, -7.683790110996011e-06, -4.983947172844751e+00, -1.130193454296445e+04, -2.720448768866841e+02, 1.131004537673998e+04
976, -2.000000000000531e-04, 1.500000000002802e-03, 2.768333557921622e-05, 6.654751975420148e-06, 1.407654960182731e+01, 1.164713640895958e+04, 5.536320086085206e+02, 1.168563713689692e+04
977, -1.500000000001320e-04, 1.500000000002160e-03, 2.750795687850323e-05, 4.919355150202516e-06, 9.091203849004273e+00, 8.747070122050711e+03, 5.693224720144758e+02, 8.811854962690895e+03
978, -1.000000000002316e-04, 1.500000000001518e-03, 2.737360440500595e-05, 3.187416256685285e-06, 5.239768899532351e+00, 5.845666280799157e+03, 5.519726065720142e+02, 5.943843611210143e+03
979, -5.000000000032311e-05, 1.500000000000877e-03, 2.728035568465951e-05, 1.457307925146540e-06, 2.340299055357718e+00, 2.943298162918569e+03, 5.013843152344440e+02, 3.107213877941349e+03
980, -4.487512791917503e-16, 1.500000000000236e-03, 2.722827983380233e-05, -2.726027219622470e-07, 2.065579359873482e-01, 4.034596997430469e+01, 4.173582646344165e+02, 8.356810735163197e+02
981, 4.999999999961016e-05, 1.499999999999595e-03, 2.721743746975147e-05, -2.003954106360475e-06, -1.352065792003941e+00, -2.862803227571118e+03, 2.996939627891902e+02, 2.923554110423851e+03
982, 9.999999999969963e-05, 1.499999999998952e-03, 2.724788062206290e-05, -3.738390229629954e-06, -2.530668034837277e+00, -5.765755619389647e+03, 1.481897958092962e+02, 5.770840727506405e+03
983, 1.499999999998278e-04, 1.499999999998311e-03, 2.731965264510803e-05, -5.477560709924406e-06, -3.528950725872392e+00, -8.668110764491188e+03, -3.735697161273447e+01, 8.664903933728574e+03
984, 1.999999999999195e-04, 1.499999999997670e-03, 2.743278813049826e-05, -7.223120820571154e-06, -4.551340942491038e+00, -1.156946158769402e+04, -2.571502325291266e+02, 1.157634026727695e+04
985, -2.000000000000549e-04, 1.400000000002461e-03, 2.426407982790282e-05, 6.302524594207936e-06, 1.186758457898759e+01, 1.191875262667211e+04, 5.405008004442784e+02, 1.195585529632843e+04
986, -1.500000000001364e-04, 1.400000000001890e-03, 2.408877880438396e-05, 4.668769038286294e-06, 6.345132059517937e+00, 8.951707714158034e+03, 5.612325431128806e+02, 9.015511055675326e+03
987, -1.000000000002392e-04, 1.400000000001320e-03, 2.395543899103047e-05, 3.038580007567288e-06, 2.200272600331459e+00, 5.983098700172175e+03, 5.485561929934534e+02, 6.080690880847113e+03
988, -5.000000000033329e-05, 1.400000000000748e-03, 2.386414587167489e-05, 1.410311653607631e-06, -7.472789870847691e-01, 3.013297316905047e+03, 5.022648222705174e+02, 3.177033936360816e+03
989, -4.615719698813914e-16, 1.400000000000178e-03, 2.381497656097915e-05, -2.176876049150580e-07, -2.682182423659242e+00, 4.268261638242518e+01, 4.221502059484507e+02, 8.455182733093317e+02
990, 4.999999999959998e-05, 1.399999999999606e-03, 2.380799970973980e-05, -1.847075116630474e-06, -3.793487040947298e+00, -2.928359140763004e+03, 3.080029780739541e+02, 2.988736790174140e+03
991, 9.999999999969204e-05, 1.399999999999035e-03, 2.384327541493112e-05, -3.479514028165621e-06, -4.274751579379540e+00, -5.899434861535623e+03, 1.596126968489775e+02, 5.903796877772890e+03
992, 1.499999999998235e-04, 1.399999999998463e-03, 2.392085513372383e-05, -5.116673316911058e-06, -4.324209202944076e+00, -8.870144998044090e+03, -2.323223353689698e+01, 8.865942544735346e+03
993, 1.999999999999176e-04, 1.399999999997893e-03, 2.404078160101616e-05, -6.760227831542015e-06, -4.144871811948065e+00, -1.184008362429299e+04, -2.407447057200804e+02, 1.184572826827508e+04
994, -2.000000000000568e-04, 1.300000000002126e-03, 2.105107751002224e-05, 5.934018260326717e-06, 9.610030559030179e+00, 1.219351111890888e+04, 5.257859561070014e+02, 1.222919658919792e+04
995, -1.500000000001407e-04, 1.300000000001629e-03, 2.087568000879240e-05, 4.404242454197708e-06, 3.512841993049165e+00, 9.158745305485001e+03, 5.519490366671636e+02, 9.221543928046331e+03
996, -1.000000000002468e-04, 1.300000000001133e-03, 2.074318871232521e-05, 2.878147282662327e-06, -9.520037541830106e-01, 6.122178664351040e+03, 5.443380707378266e+02, 6.219159502674702e+03
997, -5.000000000034346e-05, 1.300000000000637e-03, 2.065369740311897e-05, 1.354068452675941e-06, -3.962822268418677e+00, 3.084181461164444e+03, 5.027369871624915e+02, 3.247708889100737e+03
998, -4.743892724392434e-16, 1.300000000000140e-03, 2.060729153521701e-05, -1.696643040321410e-07, -5.702671005239722e+00, 4.513151775157644e+01, 4.269283716500435e+02, 8.553686064063810e+02
999, 4.999999999958981e-05, 1.299999999999644e-03, 2.060404813399830e-05, -1.694727258832787e-06, -6.359371847919533e+00, -2.994586075198426e+03, 3.166937772959963e+02, 3.054615953754098e+03
1000, 9.999999999968445e-05, 1.299999999999148e-03, 2.064403570082607e-05, -3.222802700490960e-06, -6.125211284646298e+00, -6.034579193629587e+03, 1.718138166999565e+02, 6.038239591775620e+03
1001, 1.499999999998191e-04, 1.299999999998652e-03, 2.072731413238860e-05, -4.755578952382211e-06, -5.196699068454791e+00, -9.074448976658152e+03, -7.931942221340421e+00, 9.069266152087253e+03
1002, 1.999999999999157e-04, 1.299999999998155e-03, 2.085393464448065e-05, -6.294750408701542e-06, -3.774825344459828e+00, -1.211379030449263e+04, -2.227653246458568e+02, 1.211820830257784e+04
1003, -2.000000000000587e-04, 1.200000000001781e-03, 1.804912799842752e-05, 5.549405302390792e-06, 7.313518753528797e+00, 1.247140268360488e+04, 5.094223711196831e+02, 1.250566125073575e+04
1004, -1.500000000001450e-04, 1.200000000001350e-03, 1.787344597914405e-05, 4.125973877195444e-06, 5.978272309512249e-01, 9.368173062624202e+03, 5.414223412847912e+02, 9.429953255309494e+03
1005, -1.000000000002543e-04, 1.200000000000919e-03, 1.774162513924398e-05, 2.706342937729644e-06, -4.218333097929076e+00, 6.262897582858819e+03, 5.392838835012780e+02, 6.359249195624846e+03
1006, -5.000000000035367e-05, 1.200000000000488e-03, 1.765376788925332e-05, 1.288829778012691e-06, -7.309575498843287e+00, 3.155947296217896e+03, 5.027819351396219e+02, 3.319239782491489e+03
1007, -4.872353741173022e-16, 1.200000000000057e-03, 1.760996835717166e-05, -1.282545404135621e-07, -8.858142262653928e+00, 4.769721301029278e+01, 4.316901367246992e+02, 8.652306078679875e+02
1008, 4.999999999957962e-05, 1.199999999999626e-03, 1.761031228504968e-05, -1.546605203666100e-06, -9.052800641546582e+00, -3.061472556539703e+03, 3.257807837473761e+02, 3.121185486707507e+03
1009, 9.999999999967686e-05, 1.199999999999196e-03, 1.765487694288304e-05, -2.967923641189944e-06, -8.086701409945363e+00, -6.171174294133045e+03, 1.848250085103061e+02, 6.174163085849024e+03
1010, 1.499999999998148e-04, 1.199999999998765e-03, 1.774373103086732e-05, -4.393917520812625e-06, -6.155257632516964e+00, -9.281010363876427e+03, 8.592837987061671e+00, 9.274871028174861e+03
1011, 1.999999999999137e-04, 1.199999999998334e-03, 1.787693460324217e-05, -5.826300766116618e-06, -3.455088279836218e+00, -1.239057264365500e+04, -2.031466794910612e+02, 1.239377890815536e+04
1012, -2.000000000000607e-04, 1.100000000001707e-03, 1.526308675851452e-05, 5.148886618702851e-06, 4.992816085470622e+00, 1.275242001104124e+04, 4.913455195940412e+02, 1.278524860021105e+04
1013, -1.500000000001494e-04, 1.100000000001301e-03, 1.508691781113548e-05, 3.834190404367783e-06, -2.399198846925401e+00, 9.579968444706803e+03, 5.296026222936534e+02, 9.640730543189487e+03
1014, -1.000000000002619e-04, 1.100000000000895e-03, 1.495557502668701e-05, 2.523420424346491e-06, -7.606391275195392e+00, 6.405228914017924e+03, 5.333559006882372e+02, 6.500948447727434e+03
1015, -5.000000000036384e-05, 1.100000000000489e-03, 1.486916968122187e-05, 1.214875523738287e-06, -1.079661960156386e+01, 3.228580213337773e+03, 5.023745719895458e+02, 3.391619540589835e+03
1016, -5.000628410705213e-16, 1.100000000000083e-03, 1.482780479264574e-05, -9.315183629973972e-08, -1.215327028659271e+01, 5.038839550388468e+01, 4.364264046517596e+02, 8.750905591245362e+02
1017, 4.999999999956943e-05, 1.099999999999677e-03, 1.483157515416272e-05, -1.402375624103799e-06, -1.187361671961594e+01, -3.128988710636344e+03, 3.352752690185319e+02, 3.188423518415532e+03
1018, 9.999999999966927e-05, 1.099999999999272e-03, 1.488056724335521e-05, -2.714516303109543e-06, -1.015957841037402e+01, -6.309184226024454e+03, 1.986799895322946e+02, 6.311545489356145e+03
1019, 1.499999999998105e-04, 1.099999999998866e-03, 1.497485909295669e-05, -4.031300885208132e-06, -7.207928798322314e+00, -9.489805232037275e+03, 2.639674596414511e+01, 9.482744263565513e+03
1020, 1.999999999999118e-04, 1.099999999998460e-03, 1.511452005362398e-05, -5.354462940042856e-06, -3.207832553527282e+00, -1.267042951765440e+04, -1.818177478975537e+02, 1.267244001734836e+04
1021, -2.000000000000626e-04, 1.000000000002109e-03, 1.269786521983916e-05, 4.732692840067309e-06, 2.672774403863286e+00, 1.303656382539602e+04, 4.714967277521533e+02, 1.306795900614389e+04
1022, -1.500000000001537e-04, 1.000000000001674e-03, 1.252099219044041e-05, 3.529149403870204e-06, -5.477510395621721e+00, 9.794083758103245e+03, 5.164428239865484e+02, 9.853844621103577e+03
1023, -1.000000000002696e-04, 1.000000000001239e-03, 1.238992061306723e-05, 2.329663605125822e-06, -1.113093831852598e+01, 6.549106638921767e+03, 5.265090438602128e+02, 6.644212832450656e+03
1024, -5.000000000037402e-05, 1.000000000000804e-03, 1.230477041754727e-05, 1.132515541510144e-06, -1.443965184882632e+01, 3.302041735776316e+03, 5.014723426807118e+02, 3.464815555893086e+03
1025, -5.128852258260569e-16, 1.000000000000369e-03, 1.226565338119058e-05, -6.402061528171260e-08, -1.559665472270854e+01, 5.322191889353235e+01, 4.411087099969662e+02, 8.848974924901328e+02
1026, 4.999999999955924e-05, 9.999999999999337e-04, 1.227267350802977e-05, -1.261676851942915e-06, -1.482222525112434e+01, -3.197066919845631e+03, 3.451769314533735e+02, 3.256266228720427e+03
1027, 9.999999999966167e-05, 9.999999999994987e-04, 1.232592725277838e-05, -2.462191982012954e-06, -1.234258267484995e+01, -6.448526574355915e+03, 2.134151365520010e+02, 6.450321577782743e+03
1028, 1.499999999998061e-04, 9.999999999990637e-04, 1.242550296417653e-05, -3.667312261860073e-06, -8.367228606538220e+00, -9.700787705150846e+03, 4.554816809758069e+01, 9.692848561522229e+03
1029, 1.999999999999099e-04, 9.999999999986283e-04, 1.257148021931122e-05, -4.878791492948756e-06, -3.071070625712537e+00, -1.295338222305398e+04, -1.586934404206866e+02, 1.295419983545252e+04
1030, -2.000000000000644e-04, 9.000000000025380e-04, 1.035843110052757e-05, 4.301085354914868e-06, 3.893822807779088e-01, 1.332385465527428e+04, 4.498298350072555e+02, 1.335380524054902e+04
1031, -1.500000000001581e-04, 9.000000000020734e-04, 1.018062185781346e-05, 3.211140822877721e-06, -8.619090035771251e+00, 1.001045241375262e+04, 5.019021798232901e+02, 1.006923120156003e+04
1032, -1.000000000002772e-04, 9.000000000016087e-04, 1.004960036329534e-05, 2.125389560252502e-06, -1.477127168265224e+01, 6.694453091270832e+03, 5.186845192402344e+02, 6.788948819548316e+03
1033, -5.000000000038420e-05, 9.000000000011442e-04, 9.965494153149164e-06, 1.042091753316434e-06, -1.823225817910861e+01, 3.376291911364898e+03, 5.000022161475815e+02, 3.538757296315812e+03
1034, -5.256991402521199e-16, 9.000000000006796e-04, 9.928422492063682e-06, -4.049550153859040e-08, -1.920392095421437e+01, 5.622765939922124e+01, 4.456729321914753e+02, 8.945319297080491e+02
1035, 4.999999999954906e-05, 9.000000000002148e-04, 9.938498721150574e-06, -1.124119484348740e-06, -1.793414073272879e+01, -3.265616163773335e+03, 3.554638950193757e+02, 3.324583710095222e+03
1036, 9.999999999965402e-05, 8.999999999997502e-04, 9.995830391751309e-06, -2.210534805018006e-06, -1.468092328842590e+01, -6.589097251367732e+03, 2.290686366750514e+02, 6.590359612050656e+03
1037, 1.499999999998018e-04, 8.999999999992857e-04, 1.010051852746011e-05, -3.301506266715226e-06, -9.671184138845092e+00, -9.913900222415736e+03, 6.613937932862021e+01, 9.905112342252312e+03
1038, 1.999999999999080e-04, 8.999999999988212e-04, 1.025265476338616e-05, -4.398809804722090e-06, -3.102373835334674e+00, -1.323949974583323e+04, -1.336631552207165e+02, 1.323909659854807e+04
1039, -2.000000000000664e-04, 8.000000000027327e-04, 8.249811983017372e-06, 3.854356662834494e-06, -1.918864726038464e+00, 1.361425284419351e+04, 4.262867710888089e+02, 1.364283744869821e+04
1040, -1.500000000001624e-04, 8.000000000022627e-04, 8.070818251476521e-06, 2.880489375961942e-06, -1.168389689115747e+01, 1.022919186298110e+04, 4.859185355702646e+02, 1.028688503007505e+04
1041, -1.000000000002848e-04, 8.000000000017928e-04, 7.939610486160259e-06, 1.910950939908968e-06, -1.827745160985455e+01, 6.841520212684464e+03, 5.098128952432145e+02, 6.935161191182428e+03
1042, -5.000000000039436e-05, 8.000000000013229e-04, 7.856320988999006e-06, 9.439798631237920e-07, -2.197445891019720e+01, 3.451572483158668e+03, 4.978951879448115e+02, 3.613464657564864e+03
1043, -5.385198309417610e-16, 8.000000000008525e-04, 7.821075605369393e-06, -2.218079653861420e-08, -2.299391531103697e+01, 5.945163325151236e+01, 4.500739334991055e+02, 9.039156215815768e+02
1044, 4.999999999953886e-05, 8.000000000003829e-04, 7.833996241815452e-06, -9.892868965100853e-07, -2.144934346654304e+01, -3.334803055100337e+03, 3.661249949633655e+02, 3.393302648769357e+03
1045, 9.999999999964645e-05, 7.999999999999128e-04, 7.895204099610574e-06, -1.959102483216941e-06, -1.746403779799505e+01, -6.731115263993777e+03, 2.456817871781840e+02, 6.731608347876782e+03
1046, 1.499999999997974e-04, 7.999999999994429e-04, 8.004815268250502e-06, -2.933408823434324e-06, -1.129405615164148e+01, -1.012928416719689e+04, 8.826053947282264e+01, 1.011952981015035e+04
1047, 1.999999999999061e-04, 7.999999999989728e-04, 8.162937271375425e-06, -3.914007310711609e-06, -3.268742275660543e+00, -1.352883128873793e+04, -1.066101613835876e+02, 1.352724307108820e+04
1048, -2.000000000000683e-04, 7.000000000024487e-04, 6.377110745061298e-06, 3.392830740954834e-06, -4.768644842970843e+00, 1.390732815744334e+04, 4.005949078207038e+02, 1.393514774076229e+04
1049, -1.500000000001667e-04, 7.000000000020254e-04, 6.196663192991177e-06, 2.537548723443629e-06, -1.429492421178475e+01, 1.045131208074421e+04, 4.682331846286323e+02, 1.050742115092632e+04
1050, -1.000000000002923e-04, 7.000000000016023e-04, 6.065004386364809e-06, 1.686726128681324e-06, -2.053166186008525e+01, 6.992463110206327e+03, 4.998492080219230e+02, 7.083889651601824e+03
1051, -5.000000000040459e-05, 7.000000000011791e-04, 5.982276172243609e-06, 8.385815903144829e-07, -2.472362474395800e+01, 3.529648739743042e+03, 4.954135342121244e+02, 3.689891757890887e+03
1052, -5.513337453678241e-16, 7.000000000007558e-04, 5.948614113814276e-06, -8.649737454657908e-09, -2.696033577354410e+01, 6.294839920253264e+01, 4.547091400988488e+02, 9.138518419211817e+02
1053, 4.999999999952868e-05, 7.000000000003326e-04, 5.964155355964762e-06, -8.567259326270624e-07, -2.631811334177610e+01, -3.406313994726875e+03, 3.774654779513922e+02, 3.463277769160383e+03
1054, 9.999999999963887e-05, 6.999999999999092e-04, 6.029030476090712e-06, -1.707414581713654e-06, -2.186259582133550e+01, -6.876728762090554e+03, 2.633028581036472e+02, 6.875063907906941e+03
1055, 1.499999999997930e-04, 6.999999999994860e-04, 6.143369478242847e-06, -2.562508899914036e-06, -1.367363443724400e+01, -1.034800813843391e+04, 1.118012264370074e+02, 1.033675324738998e+04
1056, 1.999999999999042e-04, 6.999999999990628e-04, 6.307292336028768e-06, -3.423836306020899e-06, -3.083264821437979e+00, -1.382107325151843e+04, -7.761719262429193e+01, 1.381886192806129e+04
1057, -2.000000000000702e-04, 6.000000000020976e-04, 4.745551710146617e-06, 2.916866433803461e-06, -1.066535458896806e+01, 1.420049856193474e+04, 3.714732311598648e+02, 1.423057094104727e+04
1058, -1.500000000001711e-04, 6.000000000017323e-04, 4.563336484437491e-06, 2.182661430338265e-06, -1.531986317123983e+01, 1.068131049106351e+04, 4.476492262759721e+02, 1.073403280478861e+04
1059, -1.000000000003000e-04, 6.000000000013669e-04, 4.430883352502217e-06, 1.453048630875510e-06, -1.844916067553118e+01, 7.155769255172027e+03, 4.889805821019376e+02, 7.240567513460339e+03
1060, -5.000000000041474e-05, 6.000000000010013e-04, 4.348369773492340e-06, 7.262709045856145e-07, -2.388856251669654e+01, 3.617155924110146e+03, 4.943486912014429e+02, 3.772893778993260e+03
1061, -5.641662945187267e-16, 6.000000000006360e-04, 4.316003844471675e-06, 5.574565192432129e-10, -3.098516525866307e+01, 6.674264468030765e+01, 4.621401423605146e+02, 9.294324986568172e+02
1062, 4.999999999951849e-05, 6.000000000002706e-04, 4.333951954480126e-06, -7.258890653352754e-07, -3.498555078074264e+01, -3.486790540600655e+03, 3.912466885693398e+02, 3.539386044642707e+03
1063, 9.999999999963128e-05, 5.999999999999052e-04, 4.402342457945601e-06, -1.454878068086500e-06, -3.096811906646008e+01, -7.034517925258426e+03, 2.821004948332727e+02, 7.026238869021764e+03
1064, 1.499999999997888e-04, 5.999999999995398e-04, 4.521258417308199e-06, -2.188214725754105e-06, -1.805841563467220e+01, -1.057471860181693e+04, 1.356209184616023e+02, 1.056014424241558e+04
1065, 1.999999999999023e-04, 5.999999999991742e-04, 4.690808228447127e-06, -2.927711274937481e-06, -7.151564061086901e-02, -1.411377801719862e+04, -4.779501592363857e+01, 1.411403020636945e+04
1066, -2.000000000000721e-04, 5.000000000017480e-04, 3.360555870475885e-06, 2.426895442437046e-06, -2.377941226454641e+01, 1.448868058053413e+04, 3.345003557724314e+02, 1.452787172970045e+04
1067, -1.500000000001754e-04, 5.000000000014432e-04, 3.176169884886968e-06, 1.816004226428683e-06, -1.284209458840519e+01, 1.093246739457928e+04, 4.205944065491174e+02, 1.097758618426409e+04
1068, -1.000000000003076e-04, 5.000000000011384e-04, 3.042321056423997e-06, 1.209952273953359e-06, -9.135321094560140e+00, 7.351308851624881e+03, 4.782176931482243e+02, 7.422324909883669e+03
1069, -5.000000000042491e-05, 5.000000000008338e-04, 2.959432193407440e-06, 6.072033477961487e-07, -1.720216736288057e+01, 3.728565373828456e+03, 5.012804278401235e+02, 3.877615600080145e+03
1070, -5.769852911424733e-16, 5.000000000005289e-04, 2.927946742030807e-06, 5.938861701937253e-09, -3.480280222223837e+01, 7.060710102153166e+01, 4.810533903926820e+02, 9.678639911346208e+02
1071, 4.999999999950832e-05, 5.000000000002242e-04, 2.948192232213189e-06, -5.959335405766902e-07, -4.914875846507721e+01, -3.590991058669853e+03, 4.138704493260811e+02, 3.637279460643813e+03
1072, 9.999999999962365e-05, 4.999999999999196e-04, 3.020162697610515e-06, -1.200522342930827e-06, -4.736713080147592e+01, -7.224574988023044e+03, 3.028139826081105e+02, 7.202714617282498e+03
1073, 1.499999999997844e-04, 4.999999999996149e-04, 3.143731852138478e-06, -1.809691004396785e-06, -2.640850769945041e+01, -1.082296758439310e+04, 1.559206987351991e+02, 1.080106165863858e+04
1074, 1.999999999999003e-04, 4.999999999993100e-04, 3.318788908684406e-06, -2.425040341738816e-06, 9.873282118994894e+00, -1.440200258525951e+04, -2.155794086750547e+01, 1.441194036193547e+04
1075, -2.000000000000740e-04, 4.000000000013997e-04, 2.227721615232945e-06, 1.923474592163811e-06, -5.052774647540286e+01, 1.476227508853163e+04, 2.787995790732663e+02, 1.482329398784084e+04
1076, -1.500000000001797e-04, 4.000000000011572e-04, 2.040458387459383e-06, 1.437186643529256e-06, 8.308489060423199e-01, 1.124010856367812e+04, 3.800634378703388e+02, 1.126495257056130e+04
1077, -1.000000000003152e-04, 4.000000000009148e-04, 1.904138213613395e-06, 9.566273693798542e-07, -6.105337676099225e-01, 7.603174410179879e+03, 4.732165205991955e+02, 7.662459198930494e+03
1078, -5.000000000043512e-05, 4.000000000006724e-04, 1.819754353465822e-06, 4.809397871927816e-07, -3.629337004074819e+01, 3.847603589358584e+03, 5.303423090714299e+02, 4.026128096620405e+03
1079, -5.898025937003254e-16, 4.000000000004300e-04, 1.788591455711973e-06, 8.043418445199791e-09, -3.821653021086740e+01, 7.348954612494629e+01, 5.290176223794884e+02, 1.063915798661967e+03
1080, 4.999999999949812e-05, 4.000000000001875e-04, 1.811169227483705e-06, -4.653218624058443e-07, -3.647864423237411e+01, -3.704129173161878e+03, 4.592472318226605e+02, 3.780911594060879e+03
1081, 9.999999999961606e-05, 3.999999999999452e-04, 1.887304892145401e-06, -9.424353504358904e-07, -6.150666346268326e+01, -7.471016811186922e+03, 3.305378810695063e+02, 7.438942249575282e+03
1082, 1.499999999997800e-04, 3.999999999997027e-04, 2.016057085489971e-06, -1.425435531769809e-06, -4.563503638071575e+01, -1.112811488400122e+04, 1.649380801708261e+02, 1.108738823411882e+04
1083, 1.999999999998984e-04, 3.999999999994603e-04, 2.196771376651807e-06, -1.915262546461935e-06, 3.305451492505222e+01, -1.467644889381777e+04, -1.032751598518507e+01, 1.470951791059661e+04
1084, -2.000000000000760e-04, 3.000000000010516e-04, 1.351610301455836e-06, 1.407443746274140e-06, -1.699668321045783e+01, 1.509842529268225e+04, 1.935478766789369e+02, 1.512037779394311e+04
1085, -1.500000000001842e-04, 3.000000000008717e-04, 1.160594011356399e-06, 1.044459557958616e-06, 4.668935033764683e-01, 1.160614877350784e+04, 3.380132171337156e+02, 1.162535434469385e+04
1086, -1.000000000003227e-04, 3.000000000006917e-04, 1.019901291950034e-06, 6.910520809502739e-07, -1.727068223417768e+02, 7.704710613507733e+03, 4.922058088787740e+02, 7.938688285340462e+03
1087, -5.000000000044532e-05, 3.000000000005118e-04, 9.333173591402084e-07, 3.470248341934247e-07, -1.355413745213466e+02, 3.883924521997323e+03, 5.905624198414515e+02, 4.189410696051724e+03
1088, -6.026207432911247e-16, 3.000000000003319e-04, 9.021611493824054e-07, 7.501471961030599e-09, -4.151581663007710e+01, 7.300708504569297e+01, 6.042867239485964e+02, 1.213987345061861e+03
1089, 4.999999999948792e-05, 3.000000000001520e-04, 9.269072366817046e-07, -3.323462817269264e-07, 5.695563662198697e+01, -3.740787213401566e+03, 5.363418575026881e+02, 3.946327546889988e+03
1090, 9.999999999960845e-05, 2.999999999999720e-04, 1.007418511025863e-06, -6.773597059900138e-07, 1.074021229392899e+02, -7.570185188403082e+03, 3.831344352024069e+02, 7.715731650662617e+03
1091, 1.499999999997756e-04, 2.999999999997920e-04, 1.142712148945936e-06, -1.032462271333986e-06, -4.554348684855518e+01, -1.148954566291231e+04, 1.731725406692947e+02, 1.144924192779239e+04
1092, 1.999999999998966e-04, 2.999999999996122e-04, 1.329370867865231e-06, -1.397962341119971e-06, -3.133378566180568e+00, -1.501376824594428e+04, -2.712532706911253e+01, 1.501073290200120e+04
1093, -2.000000000000778e-04, 2.000000000007014e-04, 7.298612347094908e-07, 8.783205425129765e-07, 1.860478570286563e+02, 1.556144706709621e+04, 1.535174510795744e+02, 1.537846452998770e+04
1094, -1.500000000001885e-04, 2.000000000005817e-04, 5.331627555519301e-07, 6.359549828451748e-07, -7.646211343793286e+02, 1.093198893143840e+04, 3.754318473568488e+02, 1.172068612837268e+04
1095, -1.000000000003304e-04, 2.000000000004620e-04, 3.923374903107901e-07, 4.166110732007954e-07, -5.547595516973120e+02, 7.243700325208602e+03, 5.311411221333692e+02, 7.870477750314511e+03
1096, -5.000000000045550e-05, 2.000000000003424e-04, 3.073618380249593e-07, 2.082706546251353e-07, -2.947975436221159e+02, 3.643949157027541e+03, 5.707066980730031e+02, 4.100798716442947e+03
1097, -6.154388928819240e-16, 2.000000000002227e-04, 2.775696453090841e-07, 5.099700242479889e-09, -4.515881480542043e+01, 6.441943728727983e+01, 5.680799106804011e+02, 1.141431790781342e+03
1098, 4.999999999947777e-05, 2.000000000001030e-04, 3.027677363242289e-07, -1.982607365780193e-07, 2.094625003965425e+02, -3.517316827437413e+03, 5.332443045129612e+02, 3.876374867263557e+03
1099, 9.999999999960084e-05, 1.999999999999833e-04, 3.834522818341078e-07, -4.071805789613114e-07, 4.847200061161839e+02, -7.123349720041211e+03, 4.554428099881992e+02, 7.662404163886975e+03
1100, 1.499999999997714e-04, 1.999999999998636e-04, 5.206046558005701e-07, -6.275077631186132e-07, 7.218808585668786e+02, -1.081894553822148e+04, 2.599668463043843e+02, 1.155253240486764e+04
1101, 1.999999999998946e-04, 1.999999999997439e-04, 7.145494333775055e-07, -8.712599398094620e-07, -1.986134420005113e+02, -1.546992529186691e+04, -3.172612629493301e+00, 1.527131316808589e+04
1102, -2.000000000000798e-04, 1.000000000003506e-04, 3.208993923445830e-07, 3.388032101900458e-07, -4.865638820561818e+03, 8.669813145342639e+03, 8.575271404535561e+02, 1.364367513200767e+04
1103, -1.500000000001928e-04, 1.000000000002906e-04, 1.496035525227090e-07, 2.436109237630925e-07, -2.253373651340636e+03, 7.317157535418790e+03, 6.934320735087292e+02, 9.670494266531428e+03
1104, -1.000000000003380e-04, 1.000000000002307e-04, 3.508881336332464e-08, 1.583194013759113e-07, -9.197355380384938e+02, 5.251323471817194e+03, 2.556786587206999e+02, 6.192209267234266e+03
1105, -5.000000000046567e-05, 1.000000000001708e-04, -3.141786488240398e-08, 7.898266466284517e-08, -3.316317861019174e+02, 2.731534884051663e+03, -1.879872908868651e+01, 3.063397397988248e+03
1106, -6.282434899455673e-16, 1.000000000001108e-04, -5.409527644796403e-08, 1.969034653775543e-09, -4.152712612088885e+01, 4.026577758969859e+01, -1.215148426138384e+02, 2.564244664599560e+02
1107, 4.999999999946757e-05, 1.000000000000509e-04, -3.420698678650247e-08, -7.513074348390110e-08, 2.502420442221558e+02, -2.654456846094959e+03, -4.445580427124997e+01, 2.906059345151626e+03
1108, 9.999999999959325e-05, 9.999999999999091e-05, 2.969464298653726e-08, -1.547372455766191e-07, 8.451981583819445e+02, -5.183499415903882e+03, 2.035190004582238e+02, 6.042422889569204e+03
1109, 1.499999999997670e-04, 9.999999999993101e-05, 1.420008807162908e-07, -2.405204568739285e-07, 2.198787855855017e+03, -7.259010706067238e+03, 6.133461771639137e+02, 9.537018809358879e+03
1110, 1.999999999998927e-04, 9.999999999987105e-05, 3.117806752009263e-07, -3.363996912941658e-07, 4.852033213067471e+03, -8.608076998024591e+03, 7.447394455004440e+02, 1.354227138487049e+04
