"PointID","x","y","Displacement_x","Displacement_y","Sxx","Syy","Sxy","Von_Mises_Stress"
0, -2.500000000000000e-04, 0.000000000000000e+00, 0.000000000000000e+00, 0.000000000000000e+00, 5.349416275378395e+04, 6.536961405678463e+04, 6.747364451758231e+03, 1.797592979039868e+04
1, 2.500000000000000e-04, 0.000000000000000e+00, 0.000000000000000e+00, 0.000000000000000e+00, -5.425026698956833e+04, -6.631526703124988e+04, 6.600472868017299e+03, 1.788376901918342e+04
2, 2.500000000000000e-04, 1.000000000000000e-02, 1.025351318181486e-03, -9.467028514684778e-05, 2.469627641251295e+01, 2.176079361691356e+01, 3.177247997672720e+00, 6.999762752988235e+00
3, -2.500000000000000e-04, 1.000000000000000e-02, 1.030088195287770e-03, -2.603565068481339e-05, 1.604417341092177e+01, 4.966807646501356e+01, 4.185526393910733e+00, 3.465027245733368e+01
4, -2.000000000000817e-04, 0.000000000000000e+00, 0.000000000000000e+00, 0.000000000000000e+00, 3.616001203194728e+04, 4.418985134073769e+04, 3.848975658636165e+03, 1.112370324164081e+04
5, -1.500000000001972e-04, 0.000000000000000e+00, 0.000000000000000e+00, 0.000000000000000e+00, 2.604671284241304e+04, 3.183965083868715e+04, 1.807286656293535e+03, 6.828123524127495e+03
6, -1.000000000003456e-04, 0.000000000000000e+00, 0.000000000000000e+00, 0.000000000000000e+00, 1.697387739083397e+04, 2.074920509750112e+04, 4.397177599283725e+02, 3.876403762034378e+03
7, -5.000000000047588e-05, 0.000000000000000e+00, 0.000000000000000e+00, 0.000000000000000e+00, 8.512322085676897e+03, 1.040374482648367e+04, -3.574465775842343e+02, 2.022016866336116e+03
8, -6.410887445906788e-16, 0.000000000000000e+00, 0.000000000000000e+00, 0.000000000000000e+00, 2.728153874858332e+02, 3.315501687106430e+02, -6.333667261557932e+02, 1.268094402531119e+03
9, 4.999999999945738e-05, 0.000000000000000e+00, 0.000000000000000e+00, 0.000000000000000e+00, -8.004011673282577e+03, -9.783063008555124e+03, -4.024867771265944e+02, 1.952692007609506e+03
10, 9.999999999958566e-05, 0.000000000000000e+00, 0.000000000000000e+00, 0.000000000000000e+00, -1.657938783672488e+04, -2.026044365767432e+04, 3.531286191621800e+02, 3.748195731766334e+03
11, 1.499999999997626e-04, 0.000000000000000e+00, 0.000000000000000e+00, 0.000000000000000e+00, -2.585066664420395e+04, -3.159006253187409e+04, 1.686682491666626e+03, 6.657346052758837e+03
12, 1.999999999998909e-04, 0.000000000000000e+00, 0.000000000000000e+00, 0.000000000000000e+00, -3.623711945977873e+04, -4.429419815784215e+04, 3.707587932256953e+03, 1.094994749980366e+04
13, 2.500000000000000e-04, 9.999999999981111e-05, 8.322443987006417e-07, -7.537849134752871e-07, 2.884747458960190e+03, -2.221863804808095e+04, 1.646870869181281e+03, 2.531854455836976e+04
14, 2.500000000000000e-04, 1.999999999996242e-04, 1.428464700395584e-06, -1.700768165543697e-06, -5.825836547754884e+03, -3.228071340654628e+04, -3.156009006361167e+02, 2.646240588698892e+04
15, 2.500000000000000e-04, 2.999999999994322e-04, 2.349489235638049e-06, -2.659602847753663e-06, -6.206328116099283e+03, -3.277550695505655e+04, -2.607005086186546e+02, 2.657429440638586e+04
16, 2.500000000000000e-04, 3.999999999992179e-04, 3.642138184103786e-06, -3.625596486752396e-06, -6.765912908213709e+03, -3.307648337915388e+04, -3.127066901040048e+02, 2.631800259142878e+04
17, 2.500000000000000e-04, 4.999999999990053e-04, 5.313953544041479e-06, -4.583531025884840e-06, -6.783076719055927e+03, -3.262239783776899e+04, -3.824390847727958e+02, 2.585063934393535e+04
18, 2.500000000000000e-04, 5.999999999988090e-04, 7.358705190862921e-06, -5.530243328342570e-06, -6.685821251016110e+03, -3.198986144447609e+04, -4.631094114160952e+02, 2.532098598830636e+04
19, 2.500000000000000e-04, 6.999999999986395e-04, 9.768512392723435e-06, -6.465723709417689e-06, -6.549271924580587e+03, -3.130654306896413e+04, -5.416311966782558e+02, 2.478095905991910e+04
20, 2.500000000000000e-04, 7.999999999985029e-04, 1.253544320710995e-05, -7.391100081012184e-06, -6.408435573026922e+03, -3.062258575732588e+04, -6.153147483225669e+02, 2.424540199926160e+04
21, 2.500000000000000e-04, 8.999999999983563e-04, 1.565180581089308e-05, -8.307649309819743e-06, -6.269464032719631e+03, -2.994673552902003e+04, -6.834978519374515e+02, 2.371670008167097e+04
22, 2.500000000000000e-04, 9.999999999981935e-04, 1.911007375278711e-05, -9.216586376618203e-06, -6.133234994643938e+03, -2.927971274033485e+04, -7.463400221459256e+02, 2.319455810629709e+04
23, 2.500000000000000e-04, 1.099999999998054e-03, 2.290282963668798e-05, -1.011903030329971e-05, -5.999280335733520e+03, -2.862072900924060e+04, -8.040828971080016e+02, 2.267853913526623e+04
24, 2.500000000000000e-04, 1.199999999997903e-03, 2.702273965247842e-05, -1.101601567210735e-05, -5.867265456833258e+03, -2.796935116413038e+04, -8.569542513570123e+02, 2.216843871291759e+04
25, 2.500000000000000e-04, 1.299999999997659e-03, 3.146254697591372e-05, -1.190850326810784e-05, -5.737022872022148e+03, -2.732544811556753e+04, -9.051567382059404e+02, 2.166419487031600e+04
26, 2.500000000000000e-04, 1.399999999997322e-03, 3.621507128911931e-05, -1.279738634287827e-05, -5.608475497754721e+03, -2.668902376415645e+04, -9.488802755739266e+02, 2.116579812625987e+04
27, 2.500000000000000e-04, 1.499999999997028e-03, 4.127320960622586e-05, -1.368349425366017e-05, -5.481575617388202e+03, -2.606011594539256e+04, -9.883079438931798e+02, 2.067325161650076e+04
28, 2.500000000000000e-04, 1.599999999996764e-03, 4.662993705313540e-05, -1.456759517793080e-05, -5.356284857925668e+03, -2.543876487175316e+04, -1.023618135141803e+03, 2.018655938618925e+04
29, 2.500000000000000e-04, 1.699999999996466e-03, 5.227830747106838e-05, -1.545039859081539e-05, -5.232568701914121e+03, -2.482500576260674e+04, -1.054985292716799e+03, 1.970572418990474e+04
30, 2.500000000000000e-04, 1.799999999996210e-03, 5.821145391172227e-05, -1.633255764578847e-05, -5.110393455284113e+03, -2.421886662619850e+04, -1.082579998651493e+03, 1.923074789854716e+04
31, 2.500000000000000e-04, 1.899999999995898e-03, 6.442258895273048e-05, -1.721467152422648e-05, -4.989732717392011e+03, -2.362037499602719e+04, -1.106568609178904e+03, 1.876163127400571e+04
32, 2.500000000000000e-04, 1.999999999995521e-03, 7.090500520792117e-05, -1.809728777895528e-05, -4.870557249222181e+03, -2.302954961309651e+04, -1.127113890216558e+03, 1.829837551689555e+04
33, 2.500000000000000e-04, 2.099999999995151e-03, 7.765207549881127e-05, -1.898090455295808e-05, -4.752844966895273e+03, -2.244640933531138e+04, -1.144374394564695e+03, 1.784098066472315e+04
34, 2.500000000000000e-04, 2.199999999994897e-03, 8.465725324828951e-05, -1.986597282684177e-05, -4.636574306504539e+03, -2.187096834376373e+04, -1.158504779548860e+03, 1.738944711968916e+04
35, 2.500000000000000e-04, 2.299999999994653e-03, 9.191407272618590e-05, -2.075289856321236e-05, -4.521724635675288e+03, -2.130323629650133e+04, -1.169656059762877e+03, 1.694377510518245e+04
36, 2.500000000000000e-04, 2.399999999994409e-03, 9.941614917574550e-05, -2.164204480177746e-05, -4.408283650531326e+03, -2.074322526911426e+04, -1.177975051487347e+03, 1.650396372300361e+04
37, 2.500000000000000e-04, 2.499999999994080e-03, 1.071571792218157e-04, -2.253373374177165e-05, -4.296238076021054e+03, -2.019094282201744e+04, -1.183604381397577e+03, 1.607001295236112e+04
38, 2.500000000000000e-04, 2.599999999993751e-03, 1.151309410881765e-04, -2.342824876781237e-05, -4.185573080927667e+03, -1.964639081051229e+04, -1.186683562061963e+03, 1.564192303948944e+04
39, 2.500000000000000e-04, 2.699999999993507e-03, 1.233312946159630e-04, -2.432583635427113e-05, -4.076280295179602e+03, -1.910957256793236e+04, -1.187348128431634e+03, 1.521969312668190e+04
40, 2.500000000000000e-04, 2.799999999993264e-03, 1.317521815058706e-04, -2.522670799964620e-05, -3.968354154529099e+03, -1.858049058863895e+04, -1.185729552906759e+03, 1.480332224399599e+04
41, 2.500000000000000e-04, 2.899999999993009e-03, 1.403876255940131e-04, -2.613104207837080e-05, -3.861785460102260e+03, -1.805914110292510e+04, -1.181955822578200e+03, 1.439281020214258e+04
42, 2.500000000000000e-04, 2.999999999992623e-03, 1.492317327862611e-04, -2.703898563535419e-05, -3.756575879557599e+03, -1.754552665409163e+04, -1.176150952499856e+03, 1.398815526489423e+04
43, 2.500000000000000e-04, 3.099999999992220e-03, 1.582786915034217e-04, -2.795065617823997e-05, -3.652716662741484e+03, -1.703963861024100e+04, -1.168435586473493e+03, 1.358935782542335e+04
44, 2.500000000000000e-04, 3.199999999991949e-03, 1.675227724947551e-04, -2.886614335577719e-05, -3.550207354201540e+03, -1.654147235894824e+04, -1.158927189174689e+03, 1.319641676148452e+04
45, 2.500000000000000e-04, 3.299999999991705e-03, 1.769583290192496e-04, -2.978551061457467e-05, -3.449048380543840e+03, -1.605102182570037e+04, -1.147739318241396e+03, 1.280933085227246e+04
46, 2.500000000000000e-04, 3.399999999991461e-03, 1.865797969800644e-04, -3.070879682033555e-05, -3.349241499974372e+03, -1.556828046615832e+04, -1.134981751878432e+03, 1.242809911311902e+04
47, 2.500000000000000e-04, 3.499999999991149e-03, 1.963816950782124e-04, -3.163601785134947e-05, -3.250783653332250e+03, -1.509323543235207e+04, -1.120761552128254e+03, 1.205272126805085e+04
48, 2.500000000000000e-04, 3.599999999990803e-03, 2.063586246418301e-04, -3.256716805555016e-05, -3.153679596406926e+03, -1.462587836556737e+04, -1.105182355182573e+03, 1.168319548548059e+04
49, 2.500000000000000e-04, 3.699999999990560e-03, 2.165052697641729e-04, -3.350222175470849e-05, -3.057940803295141e+03, -1.416620538759863e+04, -1.088343576175206e+03, 1.131951894004770e+04
50, 2.500000000000000e-04, 3.799999999990315e-03, 2.268163977539599e-04, -3.444113470287050e-05, -2.963563439072167e+03, -1.371419849694949e+04, -1.070341713700042e+03, 1.096169146090175e+04
51, 2.500000000000000e-04, 3.899999999990071e-03, 2.372868587591125e-04, -3.538384542967476e-05, -2.870552217804518e+03, -1.326984517014107e+04, -1.051270707419712e+03, 1.060971132074910e+04
52, 2.500000000000000e-04, 3.999999999989709e-03, 2.479115858436346e-04, -3.633027658105059e-05, -2.778913423295400e+03, -1.283313315515649e+04, -1.031220948186192e+03, 1.026357642308260e+04
53, 2.500000000000000e-04, 4.099999999989249e-03, 2.586855950846437e-04, -3.728033622231392e-05, -2.688652039377122e+03, -1.240404818652848e+04, -1.010279781055184e+03, 9.923284901690526e+03
54, 2.500000000000000e-04, 4.199999999988788e-03, 2.696039855184253e-04, -3.823391908781813e-05, -2.599774580753575e+03, -1.198257687575304e+04, -9.885316279426600e+02, 9.588835071311796e+03
55, 2.500000000000000e-04, 4.299999999988333e-03, 2.806619391604173e-04, -3.919090782607755e-05, -2.512289976515950e+03, -1.156870784682533e+04, -9.660577100683365e+02, 9.260225409696517e+03
56, 2.500000000000000e-04, 4.399999999988144e-03, 2.918547211627179e-04, -4.015117420256130e-05, -2.426199728153243e+03, -1.116242257004850e+04, -9.429370146026235e+02, 8.937455476660190e+03
57, 2.500000000000000e-04, 4.499999999988117e-03, 3.031776795239486e-04, -4.111458017051824e-05, -2.341517292414740e+03, -1.076371184282533e+04, -9.192450663330794e+02, 8.620522432711175e+03
58, 2.500000000000000e-04, 4.599999999988090e-03, 3.146262454413779e-04, -4.208097902072882e-05, -2.258249796874283e+03, -1.037256074838549e+04, -8.950540919889786e+02, 8.309424139382920e+03
59, 2.500000000000000e-04, 4.699999999988035e-03, 3.261959333070311e-04, -4.305021639420567e-05, -2.176398745351202e+03, -9.988949730286877e+03, -8.704342332612123e+02, 8.004159912817304e+03
60, 2.500000000000000e-04, 4.799999999987717e-03, 3.378823403007509e-04, -4.402213132975575e-05, -2.095980180805380e+03, -9.612871049349837e+03, -8.454533617226073e+02, 7.704726723057689e+03
61, 2.500000000000000e-04, 4.899999999987257e-03, 3.496811468365480e-04, -4.499655724366479e-05, -2.016995435245189e+03, -9.244304548494576e+03, -8.201760327503148e+02, 7.411123525974305e+03
62, 2.500000000000000e-04, 4.999999999986965e-03, 3.615881163054923e-04, -4.597332285583120e-05, -1.939453662001078e+03, -8.883236478729877e+03, -7.946642843932591e+02, 7.123347886033585e+03
63, 2.500000000000000e-04, 5.099999999987202e-03, 3.735990951532953e-04, -4.695225310328448e-05, -1.863362445721220e+03, -8.529651442131408e+03, -7.689777012333215e+02, 6.841397211362302e+03
64, 2.500000000000000e-04, 5.199999999987608e-03, 3.857100128133542e-04, -4.793316998557303e-05, -1.788730423610731e+03, -8.183534850023316e+03, -7.431732524053227e+02, 6.565268432016226e+03
65, 2.500000000000000e-04, 5.299999999988015e-03, 3.979168817577703e-04, -4.891589341708021e-05, -1.715562106243564e+03, -7.844868835834628e+03, -7.173057281008713e+02, 6.294959175060279e+03
66, 2.500000000000000e-04, 5.399999999988211e-03, 4.102157973322055e-04, -4.990024200860458e-05, -1.643864858493667e+03, -7.513637937572043e+03, -6.914277532807821e+02, 6.030466429050150e+03
67, 2.500000000000000e-04, 5.499999999988184e-03, 4.226029377292684e-04, -5.088603383849783e-05, -1.573648032280937e+03, -7.189828660897161e+03, -6.655892885313472e+02, 5.771786660755471e+03
68, 2.500000000000000e-04, 5.599999999988157e-03, 4.350745640931402e-04, -5.187308719997809e-05, -1.504917127146379e+03, -6.873424562915208e+03, -6.398377922666371e+02, 5.518916713409959e+03
69, 2.500000000000000e-04, 5.699999999988293e-03, 4.476270204512152e-04, -5.286122129232799e-05, -1.437677732840697e+03, -6.564408847258077e+03, -6.142187115772731e+02, 5.271852655579616e+03
70, 2.500000000000000e-04, 5.799999999988694e-03, 4.602567336193293e-04, -5.385025685004112e-05, -1.371936800460746e+03, -6.262765662710442e+03, -5.887754773604153e+02, 5.030589747810747e+03
71, 2.500000000000000e-04, 5.899999999989099e-03, 4.729602130951281e-04, -5.484001678139882e-05, -1.307699864075321e+03, -5.968478981250812e+03, -5.635498442247601e+02, 4.795124157600318e+03
72, 2.500000000000000e-04, 5.999999999989505e-03, 4.857340509405269e-04, -5.583032681849762e-05, -1.244974428713956e+03, -5.681536018785422e+03, -5.385813815901220e+02, 4.565452700541267e+03
73, 2.500000000000000e-04, 6.099999999989911e-03, 4.985749219086991e-04, -5.682101615239506e-05, -1.183763694341372e+03, -5.401920946317228e+03, -5.139074671440505e+02, 4.341572772802750e+03
74, 2.500000000000000e-04, 6.199999999990317e-03, 5.114795833774677e-04, -5.781191794880215e-05, -1.124076938947652e+03, -5.129622627829896e+03, -4.895626736097097e+02, 4.123479442326672e+03
75, 2.500000000000000e-04, 6.299999999990723e-03, 5.244448755332104e-04, -5.880286986453320e-05, -1.065907860007964e+03, -4.864616039063843e+03, -4.655811583411453e+02, 3.911169529646493e+03
76, 2.500000000000000e-04, 6.399999999990975e-03, 5.374677206067044e-04, -5.979371442645056e-05, -1.009274673523066e+03, -4.606895591417559e+03, -4.419945936372333e+02, 3.704634010545466e+03
77, 2.500000000000000e-04, 6.499999999990961e-03, 5.505451235919245e-04, -6.078429954391851e-05, -9.541771332221676e+02, -4.356440109719599e+03, -4.188312676898875e+02, 3.503865277721737e+03
78, 2.500000000000000e-04, 6.599999999990934e-03, 5.636741720220931e-04, -6.177447886906572e-05, -9.006072510188468e+02, -4.113222564671176e+03, -3.961190997952413e+02, 3.308857585089424e+03
79, 2.500000000000000e-04, 6.699999999991035e-03, 5.768520351631035e-04, -6.276411222350214e-05, -8.485832305076551e+02, -3.877236998737917e+03, -3.738852687920588e+02, 3.119600042424382e+03
80, 2.500000000000000e-04, 6.799999999991401e-03, 5.900759645873869e-04, -6.375306595651762e-05, -7.980998879656042e+02, -3.648459021056627e+03, -3.521539955675029e+02, 2.936085307679603e+03
81, 2.500000000000000e-04, 6.899999999991809e-03, 6.033432937716887e-04, -6.474121335549242e-05, -7.491640489730423e+02, -3.426876062793991e+03, -3.309473157691868e+02, 2.758304938222088e+03
82, 2.500000000000000e-04, 6.999999999992214e-03, 6.166514384017659e-04, -6.572843504723864e-05, -7.017603379126506e+02, -3.212457886163696e+03, -3.102874575292697e+02, 2.586255092598896e+03
83, 2.500000000000000e-04, 7.099999999992620e-03, 6.299978952573515e-04, -6.671461923096593e-05, -6.559033111380180e+02, -3.005198206214877e+03, -2.901962347400230e+02, 2.419926015948285e+03
84, 2.500000000000000e-04, 7.199999999993026e-03, 6.433802427331530e-04, -6.769966199400634e-05, -6.116113214718046e+02, -2.805093668020108e+03, -2.706900568948849e+02, 2.259304590405215e+03
85, 2.500000000000000e-04, 7.299999999993359e-03, 6.567961417240515e-04, -6.868346761770617e-05, -5.688488640929991e+02, -2.612097011983928e+03, -2.517857746215889e+02, 2.104387630420519e+03
86, 2.500000000000000e-04, 7.399999999993427e-03, 6.702433336392677e-04, -6.966594870992060e-05, -5.276427363713176e+02, -2.426210143218475e+03, -2.334999821173654e+02, 1.955159114992328e+03
87, 2.500000000000000e-04, 7.499999999993399e-03, 6.837196416301392e-04, -7.064702640664139e-05, -4.879831373263304e+02, -2.247400872898310e+03, -2.158459697185264e+02, 1.811603902297673e+03
88, 2.500000000000000e-04, 7.599999999993372e-03, 6.972229699573455e-04, -7.162663034790429e-05, -4.498767382660485e+02, -2.075648492357921e+03, -1.988332160675423e+02, 1.673700208415477e+03
89, 2.500000000000000e-04, 7.699999999993440e-03, 7.107513044555520e-04, -7.260469888856788e-05, -4.132969395766766e+02, -1.910905557222101e+03, -1.824713993988956e+02, 1.541432716027594e+03
90, 2.500000000000000e-04, 7.799999999993771e-03, 7.243027108377649e-04, -7.358117917705503e-05, -3.782357158504973e+02, -1.753143040836456e+03, -1.667734829814198e+02, 1.414787521433187e+03
91, 2.500000000000000e-04, 7.899999999994177e-03, 7.378753340385959e-04, -7.455602748963680e-05, -3.447230649052638e+02, -1.602363021382509e+03, -1.517503494249105e+02, 1.293742993925153e+03
92, 2.500000000000000e-04, 7.999999999994584e-03, 7.514673996954303e-04, -7.552920931786193e-05, -3.127388693885843e+02, -1.458526412395840e+03, -1.374087943052201e+02, 1.178284261424322e+03
93, 2.500000000000000e-04, 8.099999999994990e-03, 7.650772130599754e-04, -7.650069949727025e-05, -2.822765322906928e+02, -1.321606368046479e+03, -1.237555548104457e+02, 1.068395178235991e+03
94, 2.500000000000000e-04, 8.199999999995398e-03, 7.787031589790299e-04, -7.747048231450736e-05, -2.533356775636541e+02, -1.191577808050819e+03, -1.107958374112034e+02, 9.640545450189496e+02
95, 2.500000000000000e-04, 8.299999999995804e-03, 7.923437016756342e-04, -7.843855136919367e-05, -2.259137240774257e+02, -1.068408658235497e+03, -9.853292353287297e+01, 8.652356107799499e+02
96, 2.500000000000000e-04, 8.399999999996209e-03, 8.059973845723816e-04, -7.940490948951687e-05, -2.000015913972714e+02, -9.520570051814719e+02, -8.696745228284924e+01, 7.719071812260873e+02
97, 2.500000000000000e-04, 8.499999999996616e-03, 8.196628300848022e-04, -8.036956858911960e-05, -1.755716005068787e+02, -8.424625307375831e+02, -7.609925260458783e+01, 6.840379359449896e+02
98, 2.500000000000000e-04, 8.599999999997021e-03, 8.333387381981608e-04, -8.133254953484230e-05, -1.526111750166436e+02, -7.395766586182583e+02, -6.592949148302827e+01, 6.015939413994461e+02
99, 2.500000000000000e-04, 8.699999999997429e-03, 8.470238857023395e-04, -8.229388216608419e-05, -1.311293711199004e+02, -6.433653286489721e+02, -5.645849190999759e+01, 5.245340040652560e+02
100, 2.500000000000000e-04, 8.799999999997834e-03, 8.607171264838924e-04, -8.325360513221773e-05, -1.111129591992157e+02, -5.537761412501866e+02, -4.768244245106762e+01, 4.528191184301835e+02
101, 2.500000000000000e-04, 8.899999999997930e-03, 8.744173909582754e-04, -8.421176599551285e-05, -9.253056607277000e+01, -4.707464489155901e+02, -3.959844050810999e+01, 3.864186848449116e+02
102, 2.500000000000000e-04, 8.999999999997496e-03, 8.881236847290886e-04, -8.516842131835692e-05, -7.536061124926546e+01, -3.942197587621541e+02, -3.220608392915443e+01, 3.252999897338656e+02
103, 2.500000000000000e-04, 9.099999999997034e-03, 9.018350879047762e-04, -8.612363636402433e-05, -5.960409521394850e+01, -3.241491137728875e+02, -2.549962926791528e+01, 2.694160188547702e+02
104, 2.500000000000000e-04, 9.199999999996832e-03, 9.155507557974307e-04, -8.707748470648786e-05, -4.522988070087965e+01, -2.604425092583664e+02, -1.946573855430805e+01, 2.187055906932455e+02
105, 2.500000000000000e-04, 9.299999999997156e-03, 9.292699184935814e-04, -8.803004718714653e-05, -3.215887369072618e+01, -2.029423323233981e+02, -1.408565655000674e+01, 1.730913418525507e+02
106, 2.500000000000000e-04, 9.399999999997563e-03, 9.429918778392659e-04, -8.898141055083028e-05, -2.034266521416153e+01, -1.514917648061245e+02, -9.335966919555078e+00, 1.324716099285984e+02
107, 2.500000000000000e-04, 9.499999999997968e-03, 9.567160051383823e-04, -8.993166633071533e-05, -9.661914962996157e+00, -1.058457434759887e+02, -5.198198521290195e+00, 9.674406410154437e+01
108, 2.500000000000000e-04, 9.599999999998375e-03, 9.704417350917804e-04, -9.088090894120005e-05, -1.673897402542508e-01, -6.590783763254436e+01, -1.649340267994149e+00, 6.582315536615833e+01
109, 2.500000000000000e-04, 9.699999999998783e-03, 9.841685629654235e-04, -9.182923693870744e-05, 8.104110810400487e+00, -3.185402137210755e+01, 1.274920075690793e+00, 4.003940574374677e+01
110, 2.500000000000000e-04, 9.799999999999188e-03, 9.978960243626457e-04, -9.277676980394694e-05, 1.396736949539198e+01, -5.422184946399451e+00, 3.319699859395292e+00, 2.049479080344736e+01
111, 2.500000000000000e-04, 9.899999999999593e-03, 1.011623712072375e-03, -9.372368087124804e-05, 1.606786429311846e+01, 9.982355832164544e+00, 3.966723643106465e+00, 9.998649862429478e+00
112, 2.000000000000817e-04, 1.000000000000000e-02, 1.025824556160238e-03, -8.780669320329988e-05, 2.367152501059598e+01, 2.144403030870408e+01, 4.747165608218543e+00, 9.752130941202958e+00
113, 1.500000000001972e-04, 1.000000000000000e-02, 1.026297822992402e-03, -8.094327638101921e-05, 2.041494326404622e+01, 2.151953231487051e+01, 7.736498527716251e+00, 1.551237424924450e+01
114, 1.000000000003456e-04, 1.000000000000000e-02, 1.026771180877900e-03, -7.408000190697063e-05, 1.387937909601888e+01, 2.133932108011992e+01, 1.038865889071574e+01, 2.207595226930748e+01
115, 5.000000000047588e-05, 1.000000000000000e-02, 1.027244678638344e-03, -6.721680856405230e-05, 5.415591105878555e+00, 2.134761699675625e+01, 1.234433884129468e+01, 2.938299260971188e+01
116, 6.410887445906788e-16, 1.000000000000000e-02, 1.027718345301496e-03, -6.035361652853951e-05, -2.996160230144951e+00, 2.255106123589242e+01, 1.324218068871735e+01, 3.679785214119590e+01
117, -4.999999999945738e-05, 1.000000000000000e-02, 1.028192188929901e-03, -5.349032983043918e-05, -8.665382515113322e+00, 2.672797812836614e+01, 1.278971469118529e+01, 4.366917889275094e+01
118, -9.999999999958566e-05, 1.000000000000000e-02, 1.028666192926772e-03, -4.662685715618701e-05, -8.270952601511137e+00, 3.605988049586535e+01, 1.100451155840325e+01, 4.949363455701727e+01
119, -1.499999999997626e-04, 1.000000000000000e-02, 1.029140306458888e-03, -3.976315153075067e-05, 2.716592215300169e+00, 5.281622875467404e+01, 8.702003689291077e+00, 5.303652566119983e+01
120, -1.999999999998909e-04, 1.000000000000000e-02, 1.029614410970742e-03, -3.289930367171495e-05, 3.380568005251251e+01, 7.997853878280355e+01, 7.760510626087321e+00, 4.871175406447475e+01
121, -2.500000000000000e-04, 9.899999999999590e-03, 1.016360657557905e-03, -2.509025420184723e-05, -2.096077560051702e+01, 4.048737663349476e+01, -3.869539324421305e-01, 6.145302552647524e+01
122, -2.500000000000000e-04, 9.799999999999181e-03, 1.002632642300431e-03, -2.414604347444637e-05, 7.150787173741517e+00, 9.129295938177751e+01, 5.483553477620749e+00, 8.485388959178294e+01
123, -2.500000000000000e-04, 9.699999999999055e-03, 9.889048121141612e-04, -2.320270195133133e-05, 1.681036511583351e+01, 1.228387558903516e+02, 1.094084924899630e+01, 1.082627746706640e+02
124, -2.500000000000000e-04, 9.599999999999458e-03, 9.751774609513654e-04, -2.226037496303570e-05, 2.406424156676369e+01, 1.567175022072309e+02, 1.670377002621470e+01, 1.367952897248381e+02
125, -2.500000000000000e-04, 9.499999999999916e-03, 9.614509264940289e-04, -2.131930507428146e-05, 3.254037655870210e+01, 1.969873912155680e+02, 2.299416747719487e+01, 1.707563983616210e+02
126, -2.500000000000000e-04, 9.400000000000373e-03, 9.477256372677448e-04, -2.037973920536124e-05, 4.226555096493580e+01, 2.434853005584627e+02, 2.983009937607495e+01, 2.098778857851100e+02
127, -2.500000000000000e-04, 9.300000000000832e-03, 9.340020878491136e-04, -1.944192976208036e-05, 5.390313429499707e+01, 2.966277511629100e+02, 3.722672055260205e+01, 2.538868931750538e+02
128, -2.500000000000000e-04, 9.200000000001289e-03, 9.202808689154464e-04, -1.850613836384427e-05, 6.664231793413805e+01, 3.556531900454753e+02, 4.522603817044026e+01, 3.028347112088246e+02
129, -2.500000000000000e-04, 9.100000000001746e-03, 9.065626227772011e-04, -1.757263226981168e-05, 8.102806452973863e+01, 4.210041841227726e+02, 5.384697083670395e+01, 3.566254996024434e+02
130, -2.500000000000000e-04, 9.000000000002204e-03, 8.928480734788097e-04, -1.664169212989424e-05, 9.697053378715725e+01, 4.926901015015143e+02, 6.307894980333788e+01, 4.153429810472372e+02
131, -2.500000000000000e-04, 8.900000000002661e-03, 8.791380215498444e-04, -1.571361215652376e-05, 1.143712679544849e+02, 5.707067708160226e+02, 7.294351108195433e+01, 4.790877940500521e+02
132, -2.500000000000000e-04, 8.800000000003118e-03, 8.654333394687934e-04, -1.478869920449422e-05, 1.332571815726400e+02, 6.551349027691114e+02, 8.346202462526480e+01, 5.479233469194528e+02
133, -2.500000000000000e-04, 8.700000000003576e-03, 8.517349749535949e-04, -1.386727229705423e-05, 1.535606108237178e+02, 7.459656708944633e+02, 9.464857016656497e+01, 6.219141118641095e+02
134, -2.500000000000000e-04, 8.600000000004033e-03, 8.380439487237114e-04, -1.294966204235494e-05, 1.752994501318765e+02, 8.432611912907054e+02, 1.065131615194962e+02, 7.011084808782786e+02
135, -2.500000000000000e-04, 8.500000000004490e-03, 8.243613561699281e-04, -1.203621099640750e-05, 1.984865470163226e+02, 9.470758407112517e+02, 1.190642141819381e+02, 7.855514490023696e+02
136, -2.500000000000000e-04, 8.400000000004949e-03, 8.106883680112089e-04, -1.112727320136281e-05, 2.232037217898371e+02, 1.057531698663103e+03, 1.322950509369254e+02, 8.752777244983741e+02
137, -2.500000000000000e-04, 8.300000000005149e-03, 7.970262344184205e-04, -1.022321544248342e-05, 2.493883710318075e+02, 1.174621452630542e+03, 1.462124330465463e+02, 9.703445561213055e+02
138, -2.500000000000000e-04, 8.200000000005172e-03, 7.833762814743390e-04, -9.324415556366965e-06, 2.771469619519539e+02, 1.298485854016289e+03, 1.608053154559825e+02, 1.070778469319773e+03
139, -2.500000000000000e-04, 8.100000000005195e-03, 7.697399170841402e-04, -8.431264391202394e-06, 3.063924035117424e+02, 1.429101158316727e+03, 1.760786862571668e+02, 1.176643430752052e+03
140, -2.500000000000000e-04, 8.000000000005220e-03, 7.561186263658533e-04, -7.544163879226778e-06, 3.371276822672443e+02, 1.566489323302685e+03, 1.920407052137639e+02, 1.287962955323386e+03
141, -2.500000000000000e-04, 7.900000000005243e-03, 7.425139719908882e-04, -6.663526407471890e-06, 3.695235460347739e+02, 1.710839705765622e+03, 2.086652251213617e+02, 1.404739742818898e+03
142, -2.500000000000000e-04, 7.800000000005240e-03, 7.289276037827778e-04, -5.789777499619549e-06, 4.033437129673466e+02, 1.861986684101036e+03, 2.259592233758352e+02, 1.527046037207838e+03
143, -2.500000000000000e-04, 7.700000000005121e-03, 7.153612465724234e-04, -4.923351983403153e-06, 4.386898408819799e+02, 2.020035092955606e+03, 2.439174475002293e+02, 1.654882379819155e+03
144, -2.500000000000000e-04, 7.600000000005145e-03, 7.018167065523769e-04, -4.064696045999342e-06, 4.755550489338301e+02, 2.185004370273409e+03, 2.625331297497954e+02, 1.788270549747224e+03
145, -2.500000000000000e-04, 7.500000000005337e-03, 6.882958714883149e-04, -3.214265879439930e-06, 5.138399788964692e+02, 2.356820367654354e+03, 2.818041994692056e+02, 1.927234064845285e+03
146, -2.500000000000000e-04, 7.400000000005796e-03, 6.748007055238713e-04, -2.372526900597099e-06, 5.537385985817951e+02, 2.535680371820130e+03, 3.017060211349393e+02, 2.071762362160154e+03
147, -2.500000000000000e-04, 7.300000000006254e-03, 6.613332594573698e-04, -1.539956320113990e-06, 5.951614116971056e+02, 2.721554065712554e+03, 3.222243422061791e+02, 2.221904549230610e+03
148, -2.500000000000000e-04, 7.200000000006711e-03, 6.478956656373675e-04, -7.170413762985679e-07, 6.380851987274539e+02, 2.914439518279807e+03, 3.433547034509835e+02, 2.377679288228820e+03
149, -2.500000000000000e-04, 7.100000000007169e-03, 6.344901372879909e-04, 9.572153523912830e-08, 6.825768007235827e+02, 3.114414699452062e+03, 3.650755134012131e+02, 2.539085679458804e+03
150, -2.500000000000000e-04, 7.000000000007627e-03, 6.211189728555127e-04, 8.978261113977876e-07, 7.285507805410716e+02, 3.321435101348869e+03, 3.873712919589151e+02, 2.706155053286229e+03
151, -2.500000000000000e-04, 6.900000000008085e-03, 6.077845518397548e-04, 1.688757117070756e-06, 7.760449771159850e+02, 3.535550684818516e+03, 4.102266778057684e+02, 2.878891359460630e+03
152, -2.500000000000000e-04, 6.800000000008542e-03, 5.944893375135848e-04, 2.467990554893716e-06, 8.250198670098316e+02, 3.756744294623308e+03, 4.336235400396549e+02, 3.057306922337312e+03
153, -2.500000000000000e-04, 6.700000000009001e-03, 5.812358752350240e-04, 3.234994354029406e-06, 8.755207058548557e+02, 3.985078741668491e+03, 4.575362356941299e+02, 3.241405375139890e+03
154, -2.500000000000000e-04, 6.600000000009459e-03, 5.680267952389095e-04, 3.989227684182913e-06, 9.275296405666545e+02, 4.220563972560347e+03, 4.819410507068604e+02, 3.431201512169589e+03
155, -2.500000000000000e-04, 6.500000000009916e-03, 5.548648124506018e-04, 4.730142036354473e-06, 9.809597035607455e+02, 4.463142334035771e+03, 5.068195550287171e+02, 3.626714783026092e+03
156, -2.500000000000000e-04, 6.400000000010177e-03, 5.417527225113841e-04, 5.457182040571858e-06, 1.035889507340751e+03, 4.712897381274344e+03, 5.321466169939358e+02, 3.827937694487986e+03
157, -2.500000000000000e-04, 6.300000000010201e-03, 5.286934063729128e-04, 6.169785114674568e-06, 1.092317701821695e+03, 4.969853832191817e+03, 5.578893973035448e+02, 4.034879026788852e+03
158, -2.500000000000000e-04, 6.200000000010225e-03, 5.156898304729610e-04, 6.867381858577662e-06, 1.150221668399037e+03, 5.234016602007009e+03, 5.840168555181619e+02, 4.247550330470426e+03
159, -2.500000000000000e-04, 6.100000000010248e-03, 5.027450462363232e-04, 7.549396698373159e-06, 1.209556759881822e+03, 5.505366456339714e+03, 6.105019001714024e+02, 4.465963639421309e+03
160, -2.500000000000000e-04, 6.000000000010509e-03, 4.898621883873044e-04, 8.215248756202901e-06, 1.270358087528778e+03, 5.783951783328715e+03, 6.373112314015046e+02, 4.690116253724094e+03
161, -2.500000000000000e-04, 5.900000000010967e-03, 4.770444773570005e-04, 8.864351877188496e-06, 1.332634395220273e+03, 6.069804454858628e+03, 6.644050038183007e+02, 4.920011809978634e+03
162, -2.500000000000000e-04, 5.800000000011424e-03, 4.642952203677020e-04, 9.496115063637516e-06, 1.396340116349488e+03, 6.362910110109133e+03, 6.917447403775204e+02, 5.155662968646568e+03
163, -2.500000000000000e-04, 5.700000000011876e-03, 4.516178099713979e-04, 1.010994327944876e-05, 1.461437386425131e+03, 6.663256248888682e+03, 7.192957460792042e+02, 5.397079298953477e+03
164, -2.500000000000000e-04, 5.600000000012062e-03, 4.390157230161192e-04, 1.070523828668211e-05, 1.527928779115019e+03, 6.970861958027877e+03, 7.470208001879337e+02, 5.644260969672125e+03
165, -2.500000000000000e-04, 5.500000000012085e-03, 4.264925214080823e-04, 1.128139920702686e-05, 1.595846584890929e+03, 7.285775063312313e+03, 7.748737727494513e+02, 5.897203027226598e+03
166, -2.500000000000000e-04, 5.400000000012110e-03, 4.140518543491853e-04, 1.183782280448796e-05, 1.665167377319985e+03, 7.608000113956567e+03, 8.028059236685820e+02, 6.155911820351954e+03
167, -2.500000000000000e-04, 5.300000000012160e-03, 4.016974577710848e-04, 1.237390425446364e-05, 1.735862855056125e+03, 7.937535655280269e+03, 8.307701411404016e+02, 6.420394195894964e+03
168, -2.500000000000000e-04, 5.200000000012475e-03, 3.894331537374226e-04, 1.288903798461818e-05, 1.807922378997535e+03, 8.274394210094450e+03, 8.587176162434889e+02, 6.690653310414273e+03
169, -2.500000000000000e-04, 5.100000000012934e-03, 3.772628507629211e-04, 1.338261838285313e-05, 1.881341619716690e+03, 8.618594266834092e+03, 8.865959781362765e+02, 6.966690960913950e+03
170, -2.500000000000000e-04, 5.000000000013221e-03, 3.651905444119584e-04, 1.385404052685015e-05, 1.956107409795990e+03, 8.970147978221214e+03, 9.143498345581813e+02, 7.248510714301326e+03
171, -2.500000000000000e-04, 4.900000000012981e-03, 3.532203174453640e-04, 1.430270096023321e-05, 2.032193526382302e+03, 9.329054815434101e+03, 9.419243006298809e+02, 7.536117715649819e+03
172, -2.500000000000000e-04, 4.800000000012570e-03, 3.413563391887740e-04, 1.472799872776417e-05, 2.109610290978385e+03, 9.695343882106994e+03, 9.692599873834768e+02, 7.829509167766993e+03
173, -2.500000000000000e-04, 4.700000000012160e-03, 3.296028668653700e-04, 1.512933608910027e-05, 2.188358600888288e+03, 1.006903967954547e+04, 9.962907090489537e+02, 8.128684701183479e+03
174, -2.500000000000000e-04, 4.600000000011960e-03, 3.179642466121650e-04, 1.550611928068071e-05, 2.268379899532858e+03, 1.045011640659390e+04, 1.022952759005502e+03, 8.433655296465657e+03
175, -2.500000000000000e-04, 4.500000000011985e-03, 3.064449113427277e-04, 1.585775977778487e-05, 2.349670346859779e+03, 1.083859070764558e+04, 1.049182567301590e+03, 8.744421371930905e+03
176, -2.500000000000000e-04, 4.400000000012010e-03, 2.950493814136381e-04, 1.618367523731094e-05, 2.432245475172863e+03, 1.123449617038548e+04, 1.074909303367796e+03, 9.060978829201484e+03
177, -2.500000000000000e-04, 4.300000000011870e-03, 2.837822662334678e-04, 1.648329038859484e-05, 2.516081966564749e+03, 1.163783474169332e+04, 1.100058468235100e+03, 9.383330337609817e+03
178, -2.500000000000000e-04, 4.200000000011467e-03, 2.726482638262771e-04, 1.675603815940706e-05, 2.601160120350177e+03, 1.204860991749563e+04, 1.124555019965343e+03, 9.711477932904991e+03
179, -2.500000000000000e-04, 4.100000000011056e-03, 2.616521606939805e-04, 1.700136084143350e-05, 2.687474366521174e+03, 1.246683700481398e+04, 1.148319954647648e+03, 1.004542126962354e+04
180, -2.500000000000000e-04, 4.000000000010646e-03, 2.507988324804302e-04, 1.721871114433062e-05, 2.775001782898179e+03, 1.289251714016611e+04, 1.171272023691084e+03, 1.038516391871010e+04
181, -2.500000000000000e-04, 3.900000000010236e-03, 2.400932436161067e-04, 1.740755343756188e-05, 2.863728633184674e+03, 1.332565761033509e+04, 1.193328700367342e+03, 1.073070787373420e+04
182, -2.500000000000000e-04, 3.800000000009824e-03, 2.295404473576235e-04, 1.756736500837883e-05, 2.953660767750413e+03, 1.376628091076275e+04, 1.214402567710184e+03, 1.108205074627077e+04
183, -2.500000000000000e-04, 3.700000000009415e-03, 2.191455868809335e-04, 1.769763728160102e-05, 3.044779249230486e+03, 1.421438877387603e+04, 1.234402182979916e+03, 1.143919454902463e+04
184, -2.500000000000000e-04, 3.600000000009160e-03, 2.089138950549290e-04, 1.779787715377321e-05, 3.137069520107760e+03, 1.466998533415957e+04, 1.253234291036075e+03, 1.180214098911384e+04
185, -2.500000000000000e-04, 3.500000000009170e-03, 1.988506944786422e-04, 1.786760838362209e-05, 3.230520790202816e+03, 1.513307693567771e+04, 1.270802618685416e+03, 1.217089150304171e+04
186, -2.500000000000000e-04, 3.400000000009196e-03, 1.889613976238542e-04, 1.790637297718312e-05, 3.325129154985609e+03, 1.560367383862807e+04, 1.287007669909236e+03, 1.254544596727535e+04
187, -2.500000000000000e-04, 3.300000000009092e-03, 1.792515072568339e-04, 1.791373268289641e-05, 3.420887639971845e+03, 1.608178149086856e+04, 1.301745739571382e+03, 1.292580368819066e+04
188, -2.500000000000000e-04, 3.200000000008720e-03, 1.697266167169675e-04, 1.788927051471070e-05, 3.517782867630447e+03, 1.656739877782547e+04, 1.314909763526100e+03, 1.331196552536402e+04
189, -2.500000000000000e-04, 3.100000000008311e-03, 1.603924098412289e-04, 1.783259229192741e-05, 3.615805749340210e+03, 1.706052656655036e+04, 1.326390174213985e+03, 1.370393233454287e+04
190, -2.500000000000000e-04, 3.000000000007901e-03, 1.512546610289389e-04, 1.774332825604269e-05, 3.714954137752043e+03, 1.756116910887163e+04, 1.336073705490372e+03, 1.410170347200887e+04
191, -2.500000000000000e-04, 2.900000000007490e-03, 1.423192356127507e-04, 1.762113473368658e-05, 3.815223639759642e+03, 1.806932666006108e+04, 1.343842753955998e+03, 1.450527856688063e+04
192, -2.500000000000000e-04, 2.800000000007079e-03, 1.335920900728089e-04, 1.746569583422567e-05, 3.916603163376602e+03, 1.858499209537013e+04, 1.349576900224979e+03, 1.491465940270557e+04
193, -2.500000000000000e-04, 2.700000000006744e-03, 1.250792717768821e-04, 1.727672520463355e-05, 4.019094585549858e+03, 1.910816585361366e+04, 1.353153029520542e+03, 1.532984553796648e+04
194, -2.500000000000000e-04, 2.600000000006672e-03, 1.167869192924229e-04, 1.705396787684984e-05, 4.122704352314366e+03, 1.963884836511676e+04, 1.354442878518953e+03, 1.575083448807416e+04
195, -2.500000000000000e-04, 2.500000000006697e-03, 1.087212629159639e-04, 1.679720214813720e-05, 4.227423204482758e+03, 2.017702432302454e+04, 1.353314392764283e+03, 1.617762699604738e+04
196, -2.500000000000000e-04, 2.400000000006722e-03, 1.008886242567521e-04, 1.650624149616019e-05, 4.333256337400446e+03, 2.072268760957813e+04, 1.349632637421512e+03, 1.661022246839003e+04
197, -2.500000000000000e-04, 2.300000000006651e-03, 9.329541649007413e-05, 1.618093652717322e-05, 4.440208830991081e+03, 2.127582772374395e+04, 1.343258786591792e+03, 1.704861989056714e+04
198, -2.500000000000000e-04, 2.200000000006315e-03, 8.594814449384225e-05, 1.582117707567335e-05, 4.548284757980022e+03, 2.183642968488285e+04, 1.334049741548835e+03, 1.749281880845114e+04
199, -2.500000000000000e-04, 2.100000000005904e-03, 7.885340477820069e-05, 1.542689423304294e-05, 4.657495783880520e+03, 2.240448044829860e+04, 1.321859149409794e+03, 1.794281781445166e+04
200, -2.500000000000000e-04, 2.000000000005494e-03, 7.201788569370975e-05, 1.499806255549980e-05, 4.767850838038341e+03, 2.297995979628830e+04, 1.306536209412708e+03, 1.839861571350395e+04
201, -2.500000000000000e-04, 1.900000000005083e-03, 6.544836736470654e-05, 1.453470225550079e-05, 4.879364181870245e+03, 2.356284726488674e+04, 1.287926341650950e+03, 1.886021095214572e+04
202, -2.500000000000000e-04, 1.800000000004675e-03, 5.915172176316581e-05, 1.403688147593525e-05, 4.992049972189983e+03, 2.415311743768113e+04, 1.265871057576469e+03, 1.932760265927315e+04
203, -2.500000000000000e-04, 1.700000000004264e-03, 5.313491258622437e-05, 1.350471859998899e-05, 5.105928506578419e+03, 2.475074372545140e+04, 1.240208389501546e+03, 1.980078868078803e+04
204, -2.500000000000000e-04, 1.600000000003854e-03, 4.740499530817120e-05, 1.293838470558054e-05, 5.221021199392038e+03, 2.535569451042656e+04, 1.210771646809909e+03, 2.027976679513256e+04
205, -2.500000000000000e-04, 1.500000000003443e-03, 4.196911709583861e-05, 1.233810597044465e-05, 5.337353081954921e+03, 2.596793548821108e+04, 1.177390532011384e+03, 2.076453525318606e+04
206, -2.500000000000000e-04, 1.400000000003032e-03, 3.683451671238367e-05, 1.170416619221179e-05, 5.454953350616892e+03, 2.658742898433208e+04, 1.139890695964054e+03, 2.125509185123762e+04
207, -2.500000000000000e-04, 1.300000000002622e-03, 3.200852445337038e-05, 1.103690937345411e-05, 5.573853339147129e+03, 2.721413181451247e+04, 1.098093676418731e+03, 2.175143423731234e+04
208, -2.500000000000000e-04, 1.200000000002211e-03, 2.749856197235784e-05, 1.033674237666069e-05, 5.694092100903641e+03, 2.784800031902954e+04, 1.051817189340767e+03, 2.225355987109292e+04
209, -2.500000000000000e-04, 1.100000000002113e-03, 2.331214208456891e-05, 9.604137575055343e-06, 5.815730229262812e+03, 2.848900831254892e+04, 1.000876579770326e+03, 2.276147083898036e+04
210, -2.500000000000000e-04, 1.000000000002544e-03, 1.945686864425317e-05, 8.839635122980851e-06, 5.938893924085522e+03, 2.913721211471317e+04, 9.450891970183803e+02, 2.327519583666031e+04
211, -2.500000000000000e-04, 9.000000000030026e-04, 1.594043744097366e-05, 8.043843604140229e-06, 6.063820156334708e+03, 2.979284768041953e+04, 8.842839810486697e+02, 2.379484355643743e+04
212, -2.500000000000000e-04, 8.000000000032027e-04, 1.277064179574077e-05, 7.217437965480274e-06, 6.190782786000158e+03, 3.045629021966615e+04, 8.182816333030048e+02, 2.432063301682141e+04
213, -2.500000000000000e-04, 7.000000000028719e-04, 9.955393264311178e-06, 6.361158604341079e-06, 6.318618759072050e+03, 3.112615644364269e+04, 7.467750989733679e+02, 2.485245698447499e+04
214, -2.500000000000000e-04, 6.000000000024631e-04, 7.502765880331991e-06, 5.475858092923898e-06, 6.440967773423241e+03, 3.179308875772720e+04, 6.685605006791434e+02, 2.538735769975006e+04
215, -2.500000000000000e-04, 5.000000000020526e-04, 5.421043706528048e-06, 4.562724539679084e-06, 6.523770658690490e+03, 3.240778650894057e+04, 5.803961246461776e+02, 2.591003116906683e+04
216, -2.500000000000000e-04, 4.000000000016421e-04, 3.718388201716156e-06, 3.624288762221466e-06, 6.495514644724565e+03, 3.284779101233363e+04, 4.694415486559974e+02, 2.636899640155584e+04
217, -2.500000000000000e-04, 3.000000000012316e-04, 2.401133355531587e-06, 2.666454616888112e-06, 5.941244277594429e+03, 3.255095776539434e+04, 3.327970981272390e+02, 2.661803650791861e+04
218, -2.500000000000000e-04, 2.000000000008210e-04, 1.461589173250727e-06, 1.707654143461440e-06, 5.578915218459019e+03, 3.208538528688308e+04, 9.932738137225033e+01, 2.650721447461090e+04
219, -2.500000000000000e-04, 1.000000000004105e-04, 8.507656166335239e-07, 7.555848594874366e-07, -2.876902779360467e+03, 2.221630506809834e+04, 1.960981351855772e+03, 2.539785171082532e+04
220, -1.999999999998928e-04, 9.899999999999593e-03, 1.015886340487719e-03, -3.195443251858920e-05, -1.937607301185693e+00, 5.918966413821818e+01, 5.895158857704114e+00, 6.225395493827544e+01
221, -1.499999999997670e-04, 9.899999999999591e-03, 1.015412099740151e-03, -3.881821266841700e-05, 1.254231295045289e+00, 5.407594827147010e+01, 1.184515604395200e+01, 5.789097227685691e+01
222, -9.999999999959327e-05, 9.899999999999591e-03, 1.014938023893461e-03, -4.568169841554026e-05, 5.533396114309107e+00, 4.686915544485399e+01, 1.561978971649749e+01, 5.181270425854196e+01
223, -4.999999999946756e-05, 9.899999999999593e-03, 1.014464138509282e-03, -5.254491377360179e-05, 9.706362552023561e+00, 3.928092120821558e+01, 1.811175512961997e+01, 4.676320364570635e+01
224, 6.282680539010377e-16, 9.899999999999593e-03, 1.013990433794821e-03, -5.940793077527455e-05, 1.286493529223038e+01, 3.165910335274118e+01, 1.901302072166096e+01, 4.241698458089591e+01
225, 5.000000000046569e-05, 9.899999999999590e-03, 1.013516889408807e-03, -6.627085270012361e-05, 1.507321521838439e+01, 2.452672382699216e+01, 1.818713972017230e+01, 3.758266927477742e+01
226, 1.000000000003380e-04, 9.899999999999590e-03, 1.013043480143421e-03, -7.313379191774102e-05, 1.642805449741929e+01, 1.832134129633570e+01, 1.572158564248794e+01, 3.150011992610953e+01
227, 1.500000000001929e-04, 9.899999999999593e-03, 1.012570175016707e-03, -7.999685454593358e-05, 1.700143842912567e+01, 1.358836824724384e+01, 1.184976973016465e+01, 2.394404349098448e+01
228, 2.000000000000797e-04, 9.899999999999593e-03, 1.012096935227074e-03, -8.686013145806475e-05, 1.656897375276903e+01, 1.068290980180010e+01, 6.977800327571184e+00, 1.514610638021224e+01
229, -1.999999999998947e-04, 9.799999999999184e-03, 1.002158079574474e-03, -3.101002651221299e-05, 2.397223757890778e+00, 7.681156747474590e+01, 1.070824824987004e+01, 7.743488150138560e+01
230, -1.499999999997712e-04, 9.799999999999181e-03, 1.001683730187672e-03, -3.787352548289522e-05, 6.977373890235278e+00, 6.642466413077125e+01, 1.783836102950193e+01, 6.933115327050268e+01
231, -9.999999999960086e-05, 9.799999999999184e-03, 1.001209604559513e-03, -4.473663797455165e-05, 9.875580446839045e+00, 5.361325763994903e+01, 2.275453201106123e+01, 6.311940521280547e+01
232, -4.999999999947776e-05, 9.799999999999184e-03, 1.000735712012209e-03, -5.159947027009755e-05, 1.316372421777314e+01, 4.152712850010911e+01, 2.560199884383393e+01, 5.853487918909486e+01
233, 6.154473632113966e-16, 9.799999999999184e-03, 1.000262043530745e-03, -5.846212375389409e-05, 1.627284162045821e+01, 3.056662060469129e+01, 2.639302777997178e+01, 5.468710798010397e+01
234, 5.000000000045551e-05, 9.799999999999184e-03, 9.997885770608621e-04, -6.532471150688919e-05, 1.864742472026359e+01, 2.077317491467845e+01, 2.502048374353627e+01, 5.008609828017457e+01
235, 1.000000000003303e-04, 9.799999999999184e-03, 9.993152829065267e-04, -7.218735379893037e-05, 1.999535941096380e+01, 1.226770544669000e+01, 2.148222708819420e+01, 4.365387678622066e+01
236, 1.500000000001885e-04, 9.799999999999188e-03, 9.988421249198468e-04, -7.905017047184272e-05, 2.009402504093107e+01, 5.270313769121588e+00, 1.591047849190020e+01, 3.510435470472071e+01
237, 2.000000000000778e-04, 9.799999999999188e-03, 9.983690586687012e-04, -8.591327373166039e-05, 1.843599511078807e+01, -4.154942619231816e-02, 8.507894698652201e+00, 2.511885230120021e+01
238, -1.999999999998966e-04, 9.699999999999027e-03, 9.884299897266586e-04, -3.006627286188037e-05, 4.712646280954790e+00, 9.679828065360462e+01, 1.658438584562446e+01, 9.787712436171969e+01
239, -1.499999999997756e-04, 9.699999999998999e-03, 9.879554499679145e-04, -3.692930473561253e-05, 8.643483452609360e+00, 8.033318914068418e+01, 2.457156398608550e+01, 8.691640195344009e+01
240, -9.999999999960846e-05, 9.699999999998973e-03, 9.874812075477898e-04, -4.379191229956740e-05, 1.243939954574969e+01, 6.355505325733750e+01, 3.000416577508751e+01, 7.882772297738082e+01
241, -4.999999999948794e-05, 9.699999999998947e-03, 9.870072628100407e-04, -5.065422035817584e-05, 1.572218869012754e+01, 4.683402012043774e+01, 3.283718876103487e+01, 7.267097025538723e+01
242, 6.026266725217555e-16, 9.699999999998920e-03, 9.865336060738878e-04, -5.751635968176730e-05, 1.855269770932200e+01, 3.098578017952612e+01, 3.306688885616354e+01, 6.729233310128568e+01
243, 5.000000000044535e-05, 9.699999999998892e-03, 9.860602163151465e-04, -6.437846303796469e-05, 2.061919792348757e+01, 1.637585918636222e+01, 3.070008397709285e+01, 6.154662093437950e+01
244, 1.000000000003228e-04, 9.699999999998864e-03, 9.855870624824905e-04, -7.124066611997692e-05, 2.158683095625013e+01, 3.258371585636453e+00, 2.575906018259082e+01, 5.468134187144258e+01
245, 1.500000000001842e-04, 9.699999999998836e-03, 9.851141043532442e-04, -7.810310544025743e-05, 2.114651550251942e+01, -8.087408667951470e+00, 1.830819573095759e+01, 4.685490845255231e+01
246, 2.000000000000759e-04, 9.699999999998809e-03, 9.846412915893155e-04, -8.496591713268506e-05, 1.911864218494211e+01, -1.716819171272508e+01, 8.434354972242518e+00, 4.001609288159024e+01
247, -1.999999999998985e-04, 9.599999999999352e-03, 9.747023252759913e-04, -2.912337723309621e-05, 6.236729464603522e+00, 1.205686281299862e+02, 2.303511782593191e+01, 1.232649571672728e+02
248, -1.499999999997800e-04, 9.599999999999241e-03, 9.742275544324283e-04, -3.598576528117808e-05, 1.013060762141691e+01, 9.815081196248794e+01, 3.182200596763517e+01, 1.086191356412890e+02
249, -9.999999999961608e-05, 9.599999999999132e-03, 9.737531633280715e-04, -4.284768627477977e-05, 1.396624769241042e+01, 7.553078686083202e+01, 3.749777000948910e+01, 9.702846750185368e+01
250, -4.999999999949810e-05, 9.599999999999024e-03, 9.732791533864291e-04, -4.970928963310688e-05, 1.738577999983587e+01, 5.317466429580514e+01, 4.007298590218699e+01, 8.777369216124946e+01
251, 5.898059818321144e-16, 9.599999999998917e-03, 9.728055136579635e-04, -5.657072815759911e-05, 2.008636034015986e+01, 3.152148912209030e+01, 3.956081899456298e+01, 7.994370374420761e+01
252, 5.000000000043517e-05, 9.599999999998809e-03, 9.723322222531825e-04, -6.343215701211132e-05, 2.185088056633592e+01, 1.105513665116725e+01, 3.599165796561942e+01, 7.278836348715670e+01
253, 1.000000000003152e-04, 9.599999999998698e-03, 9.718592466058326e-04, -7.029373239899148e-05, 2.241692668321556e+01, -7.818370081502645e+00, 2.941056407449374e+01, 6.613696611706789e+01
254, 1.500000000001798e-04, 9.599999999998591e-03, 9.713865437826495e-04, -7.715561129152386e-05, 2.155133370055701e+01, -2.468406227059487e+01, 1.987342621597482e+01, 6.097150251434180e+01
255, 2.000000000000740e-04, 9.599999999998483e-03, 9.709140608383423e-04, -8.401795092848150e-05, 1.907034266946923e+01, -3.908892710221083e+01, 7.438984817083380e+00, 6.003211341282469e+01
256, -1.999999999999004e-04, 9.499999999999719e-03, 9.609754339497291e-04, -2.818153653739622e-05, 7.330741699196773e+00, 1.481257165095973e+02, 2.989903270112668e+01, 1.529674264597319e+02
257, -1.499999999997843e-04, 9.499999999999528e-03, 9.605004064586120e-04, -3.504307549872595e-05, 1.148343338889923e+01, 1.189620515453738e+02, 3.940034691329737e+01, 1.332711623284573e+02
258, -9.999999999962368e-05, 9.499999999999330e-03, 9.600258577998478e-04, -4.190409713827425e-05, 1.539384319072028e+01, 8.951816774664670e+01, 4.522251756381885e+01, 1.169389578802203e+02
259, -4.999999999950831e-05, 9.499999999999136e-03, 9.595517886575840e-04, -4.876477783655238e-05, 1.878702392191399e+01, 6.033868022306746e+01, 4.741613765240176e+01, 1.035359868879185e+02
260, 5.769988436696294e-16, 9.499999999998942e-03, 9.590781874009069e-04, -5.562529485966787e-05, 2.137984886606254e+01, 3.190895858482234e+01, 4.602995013328884e+01, 9.266006361190303e+01
261, 5.000000000042495e-05, 9.499999999998747e-03, 9.586050307324641e-04, -6.248582634537157e-05, 2.290744938368959e+01, 4.691351234695020e+00, 4.111615013686149e+01, 8.422575283178860e+01
262, 1.000000000003075e-04, 9.499999999998551e-03, 9.581322842831712e-04, -6.934655094020514e-05, 2.313615004075823e+01, -2.084978614023096e+01, 3.273490409809619e+01, 7.887368615047907e+01
263, 1.500000000001755e-04, 9.499999999998359e-03, 9.576599030043063e-04, -7.620764727265862e-05, 2.184439090431914e+01, -4.426499991134205e+01, 2.095477840047776e+01, 7.827427741774655e+01
264, 2.000000000000721e-04, 9.499999999998164e-03, 9.571878315825406e-04, -8.306929352882269e-05, 1.884091493307534e+01, -6.510822785301215e+01, 5.857084151294749e+00, 8.476249355428554e+01
265, -1.999999999999023e-04, 9.400000000000087e-03, 9.472497525096450e-04, -2.724095649757524e-05, 8.153263571495472e+00, 1.794588927738292e+02, 3.718939735418999e+01, 1.867560539813335e+02
266, -1.499999999997887e-04, 9.399999999999811e-03, 9.467744513744596e-04, -3.410140009363719e-05, 1.264922802959299e+01, 1.424572009654143e+02, 4.729801316731994e+01, 1.606191708234444e+02
267, -9.999999999963125e-05, 9.399999999999530e-03, 9.462997452630357e-04, -4.096127348440645e-05, 1.674349953361110e+01, 1.052089222578933e+02, 5.317263558203985e+01, 1.383309355015992e+02
268, -4.999999999951849e-05, 9.399999999999249e-03, 9.458256329555605e-04, -4.782077939611547e-05, 2.016292464720259e+01, 6.823446927540894e+01, 5.489255249589438e+01, 1.198484154296573e+02
269, 5.641646004528322e-16, 9.399999999998968e-03, 9.453521010935868e-04, -5.468012034529405e-05, 2.265299798375916e+01, 3.204774299219068e+01, 5.252982571876486e+01, 1.054788679970955e+02
270, 5.000000000041476e-05, 9.399999999998687e-03, 9.448791245555433e-04, -6.153949865413370e-05, 2.396337510281805e+01, -2.858731237788042e+00, 4.615681942423420e+01, 9.613133363265192e+01
271, 1.000000000003000e-04, 9.399999999998406e-03, 9.444066668271993e-04, -6.839911628016469e-05, 2.385299863546985e+01, -3.600801209963107e+01, 3.585052844613693e+01, 9.340440121159688e+01
272, 1.500000000001711e-04, 9.399999999998125e-03, 9.439346803661615e-04, -7.525917447496631e-05, 2.209343671945135e+01, -6.693416386721798e+01, 2.169655279708535e+01, 9.903976615141200e+01
273, 2.000000000000702e-04, 9.399999999997844e-03, 9.434631069471329e-04, -8.211987320801653e-05, 1.845309620430320e+01, -9.519558227371243e+01, 3.792407616064165e+00, 1.139014992961238e+02
274, -1.999999999999042e-04, 9.300000000000464e-03, 9.335257867869645e-04, -2.630184693432083e-05, 9.307191384243637e+00, 2.149762417513409e+02, 4.492030955237476e+01, 2.244350576893643e+02
275, -1.499999999997930e-04, 9.300000000000100e-03, 9.330502039450453e-04, -3.316091010401611e-05, 1.406767660610383e+01, 1.689638201908537e+02, 5.551833864895365e+01, 1.905832075571902e+02
276, -9.999999999963886e-05, 9.299999999999729e-03, 9.325753478676350e-04, -4.001934916601600e-05, 1.827519168848050e+01, 1.227751322571991e+02, 6.135054716676677e+01, 1.611700844744843e+02
277, -4.999999999952863e-05, 9.299999999999361e-03, 9.321012150893116e-04, -4.687739286025580e-05, 2.168972840727227e+01, 7.694578090486718e+01, 6.250639612889826e+01, 1.366800262134448e+02
278, 5.513303572360351e-16, 9.299999999998993e-03, 9.316277900570111e-04, -5.373526912535608e-05, 2.405588592626707e+01, 3.198814651035535e+01, 5.907179962114392e+01, 1.184095891382797e+02
279, 5.000000000040461e-05, 9.299999999998625e-03, 9.311550453436877e-04, -6.059320507498056e-05, 2.512246926899282e+01, -1.159642576726053e+01, 5.113377358464317e+01, 1.086596910390675e+02
280, 1.000000000002923e-04, 9.299999999998258e-03, 9.306829418881094e-04, -6.745142684585170e-05, 2.464325861515439e+01, -5.331797048872869e+01, 3.878341682180492e+01, 1.099753014312013e+02
281, 1.500000000001668e-04, 9.299999999997890e-03, 9.302114292286422e-04, -7.431015931302379e-05, 2.237560986528913e+01, -9.269817283577041e+01, 2.211877506441473e+01, 1.232839661372531e+02
282, 2.000000000000683e-04, 9.299999999997520e-03, 9.297404456848091e-04, -8.116962571332124e-05, 1.808224892505020e+01, -1.292653847384474e+02, 1.247470328415372e+00, 1.473687547450728e+02
283, -1.999999999999061e-04, 9.200000000000841e-03, 9.198041292764241e-04, -2.536443008192052e-05, 1.028419921583040e+01, 2.542741629390745e+02, 5.314696878657069e+01, 2.661381287273074e+02
284, -1.499999999997973e-04, 9.200000000000397e-03, 9.193282585783866e-04, -3.222178895356392e-05, 1.537809149695463e+01, 1.982230721522373e+02, 6.411125049757240e+01, 2.233233008718091e+02
285, -9.999999999964642e-05, 9.199999999999951e-03, 9.188532627112463e-04, -3.907846993601031e-05, 1.977697076652287e+01, 1.420887616000974e+02, 6.979306314168136e+01, 1.855921895654851e+02
286, -4.999999999953884e-05, 9.199999999999505e-03, 9.183791354054750e-04, -4.593472755335416e-05, 2.323415014836739e+01, 8.640105168982814e+01, 7.028055968057335e+01, 1.541021924776124e+02
287, 5.385367716007061e-16, 9.199999999999058e-03, 9.179058583418669e-04, -5.279081527842133e-05, 2.550102566103171e+01, 3.168006058591497e+01, 6.566756090814347e+01, 1.314803966190468e+02
288, 5.000000000039439e-05, 9.199999999998614e-03, 9.174334012505104e-04, -5.964698541901924e-05, 2.632824403360495e+01, -2.156336510277366e+01, 5.605034368757393e+01, 1.219022983198114e+02
289, 1.000000000002848e-04, 9.199999999998171e-03, 9.169617220411368e-04, -6.650348895196775e-05, 2.546762660080585e+01, -7.282641067847548e+01, 4.152908658377874e+01, 1.286871318143066e+02
290, 1.500000000001625e-04, 9.199999999997726e-03, 9.164907669225133e-04, -7.336057530557706e-05, 2.267277184687754e+01, -1.216126520860451e+02, 2.220957024122774e+01, 1.509680217817777e+02
291, 2.000000000000664e-04, 9.199999999997280e-03, 9.160204704947641e-04, -8.021849207812178e-05, 1.769905081268766e+01, -1.674299376388169e+02, -1.795153029267139e+00, 1.851637995469721e+02
292, -1.999999999999080e-04, 9.100000000001274e-03, 9.060854300856417e-04, -2.442893818235972e-05, 1.153767226500367e+01, 2.977224724530705e+02, 6.190261467656738e+01, 3.118164118096833e+02
293, -1.499999999998017e-04, 9.100000000000802e-03, 9.056092721889876e-04, -3.128423129643014e-05, 1.688620397531075e+01, 2.305057562341425e+02, 7.312186276128838e+01, 2.588832562410835e+02
294, -9.999999999965405e-05, 9.100000000000334e-03, 9.051341523299374e-04, -3.813879323600084e-05, 2.142871520440076e+01, 1.633358185083936e+02, 7.853348926155263e+01, 2.116782032012453e+02
295, -4.999999999954905e-05, 9.099999999999862e-03, 9.046600613769952e-04, -4.499290438737386e-05, 2.489850527762577e+01, 9.672935636060764e+01, 7.823439149162873e+01, 1.721689612432137e+02
296, 5.257025283839090e-16, 9.099999999999390e-03, 9.041869780224972e-04, -5.184684396146993e-05, 2.704126296238035e+01, 3.120737331409322e+01, 7.232282837620947e+01, 1.447056408465173e+02
297, 5.000000000038422e-05, 9.099999999998916e-03, 9.037148688835914e-04, -5.870088980831408e-05, 2.760480228164780e+01, -3.271317688808044e+01, 6.090033052505630e+01, 1.359178415196629e+02
298, 1.000000000002772e-04, 9.099999999998446e-03, 9.032436885784429e-04, -6.555531827068198e-05, 2.633796371355815e+01, -9.451950152212730e+01, 4.407199469156576e+01, 1.495857271519195e+02
299, 1.500000000001581e-04, 9.099999999997978e-03, 9.027733797861696e-04, -7.241040401208753e-05, 2.299002801080253e+01, -1.537023263429453e+02, 2.194733424931054e+01, 1.820629836338904e+02
300, 2.000000000000645e-04, 9.099999999997506e-03, 9.023038732777940e-04, -7.926641982079968e-05, 1.730958905183523e+01, -2.097549895892150e+02, -5.358638757084586e+00, 2.273173616571189e+02
301, -1.999999999999099e-04, 9.000000000001736e-03, 8.923704169989234e-04, -2.349561335645403e-05, 1.295429103841357e+01, 3.452743962986497e+02, 7.117731052290932e+01, 3.615266110444334e+02
302, -1.499999999998060e-04, 9.000000000001264e-03, 8.918939767827834e-04, -3.034844256734293e-05, 1.855845152914848e+01, 2.658355447141069e+02, 8.253865823494978e+01, 2.973154574301612e+02
303, -9.999999999966160e-05, 9.000000000000792e-03, 8.914187530061348e-04, -3.720048780458035e-05, 2.321626756267514e+01, 1.865589388154310e+02, 8.756572635422670e+01, 2.394824711325636e+02
304, -4.999999999955923e-05, 9.000000000000320e-03, 8.909447335069629e-04, -4.405205572493240e-05, 2.666987197270925e+01, 1.079736475756838e+02, 8.636034678268155e+01, 1.908998216683266e+02
305, 5.128818376942679e-16, 8.999999999999852e-03, 8.904718938383025e-04, -5.090345155093111e-05, 2.866028696352470e+01, 3.060276672989158e+01, 7.902545156294264e+01, 1.580628394232835e+02
306, 5.000000000037403e-05, 8.999999999999380e-03, 8.900001973426788e-04, -5.775497901800655e-05, 2.893154742251462e+01, -4.503161491312666e+01, 6.566599926760892e+01, 1.507270487402407e+02
307, 1.000000000002695e-04, 8.999999999998908e-03, 8.895295952010264e-04, -6.460694026021512e-05, 2.722887691038470e+01, -1.184092133379318e+02, 4.638985294804611e+01, 1.726804191486173e+02
308, 1.500000000001538e-04, 8.999999999998436e-03, 8.890600264621553e-04, -7.145963568536281e-05, 2.329787364631203e+01, -1.890112007096936e+02, 2.130820404095596e+01, 2.165439938943308e+02
309, 2.000000000000626e-04, 8.999999999997964e-03, 8.885914180498109e-04, -7.831336384242554e-05, 1.688308842810649e+01, -2.563198134652286e+02, -9.464353737826555e+00, 2.738578492021693e+02
310, -1.999999999999118e-04, 8.900000000002187e-03, 8.786598939763011e-04, -2.256471169468192e-05, 1.445501712798522e+01, 3.969509882031874e+02, 8.098771075083164e+01, 4.153783878097214e+02
311, -1.499999999998104e-04, 8.900000000001712e-03, 8.781831797475331e-04, -2.941464111503499e-05, 2.031337960887432e+01, 3.042211227988923e+02, 9.236970286116596e+01, 3.387215001588909e+02
312, -9.999999999966923e-05, 8.900000000001240e-03, 8.777078758211211e-04, -3.626373490343693e-05, 2.508372105348692e+01, 2.117804791057342e+02, 9.689015455600556e+01, 2.690845362832393e+02
313, -4.999999999956943e-05, 8.900000000000770e-03, 8.772339667920162e-04, -4.311232605287218e-05, 2.850718361477561e+01, 1.201588100885314e+02, 9.465342891281540e+01, 2.103261920329906e+02
314, 5.000475944774707e-16, 8.900000000000293e-03, 8.767614249221137e-04, -4.996074604394908e-05, 3.032611810021386e+01, 2.988565839456507e+01, 8.576488033886721e+01, 1.715303261901905e+02
315, 5.000000000036387e-05, 8.899999999999823e-03, 8.762902101574532e-04, -5.680932478920900e-05, 3.028268474055482e+01, -5.851124702613139e+01, 7.033162639365904e+01, 1.663445610872080e+02
316, 1.000000000002620e-04, 8.899999999999349e-03, 8.758202701491375e-04, -6.365839055560629e-05, 2.811962621376649e+01, -1.445050186576613e+02, 4.846307680897467e+01, 1.979746126960648e+02
317, 1.500000000001494e-04, 8.899999999998874e-03, 8.753515402663488e-04, -7.050826986894796e-05, 2.358009197352709e+01, -2.275692587680815e+02, 2.027119718090570e+01, 2.544006330937880e+02
318, 2.000000000000606e-04, 8.899999999998404e-03, 8.748839435992276e-04, -7.735928742137942e-05, 1.640815101359331e+01, -3.071769631629725e+02, -1.412959524040205e+01, 3.248167298081975e+02
319, -1.999999999999137e-04, 8.800000000002590e-03, 8.649547378457352e-04, -2.163650206226663e-05, 1.606452073181287e+01, 4.528370788863415e+02, 9.135137396712098e+01, 4.734454157129143e+02
320, -1.499999999998147e-04, 8.800000000002060e-03, 8.644777621002760e-04, -2.848305809472214e-05, 2.215779362241459e+01, 3.457346775686372e+02, 1.026267721168168e+02, 3.831853562504905e+02
321, -9.999999999967683e-05, 8.800000000001532e-03, 8.640024059133061e-04, -3.532872821312536e-05, 2.702111615057121e+01, 2.390519639445980e+02, 1.065127972730606e+02, 3.005611158283490e+02
322, -4.999999999957961e-05, 8.800000000001001e-03, 8.635286505907892e-04, -4.217387183805348e-05, 3.039683937600474e+01, 1.333230328675469e+02, 1.031141396330133e+02, 2.304862348941571e+02
323, 4.872540088421418e-16, 8.800000000000474e-03, 8.630564650304198e-04, -4.901884688028299e-05, 3.202569482600565e+01, 2.908115849854230e+01, 9.253690860405062e+01, 1.850972396070817e+02
324, 5.000000000035368e-05, 8.799999999999947e-03, 8.625858057183946e-04, -5.586400967204106e-05, 3.164823721862282e+01, -7.314077069561982e+01, 7.488917337318529e+01, 1.827957585222568e+02
325, 1.000000000002544e-04, 8.799999999999419e-03, 8.621166167318195e-04, -6.270971488789239e-05, 2.900505931912716e+01, -1.728103442132874e+02, 5.028117699871628e+01, 2.254822479585838e+02
326, 1.500000000001451e-04, 8.799999999998892e-03, 8.616488297439073e-04, -6.955631545908057e-05, 2.383731283389327e+01, -2.693951699498964e+02, 1.882547522461617e+01, 2.956397859376780e+02
327, 2.000000000000587e-04, 8.799999999998365e-03, 8.611823640305272e-04, -7.640416248344743e-05, 1.588732304391693e+01, -3.623624227621654e+02, -1.936300488361377e+01, 3.802270032952122e+02
328, -1.999999999999156e-04, 8.700000000002964e-03, 8.512559003181039e-04, -2.071126569107947e-05, 1.773514453297768e+01, 5.129478218764400e+02, 1.022823228400129e+02, 5.358006066288789e+02
329, -1.499999999998191e-04, 8.700000000002345e-03, 8.507786795606961e-04, -2.755393698222505e-05, 2.405116532666650e+01, 3.903952473138123e+02, 1.133221717270303e+02, 4.307849171300300e+02
330, -9.999999999968445e-05, 8.700000000001731e-03, 8.503033031489665e-04, -3.439567349460493e-05, 2.899682086983940e+01, 2.683937027427550e+02, 1.164429633812181e+02, 3.339861103915453e+02
331, -4.999999999958977e-05, 8.700000000001117e-03, 8.498297490776479e-04, -4.123686121931184e-05, 3.231260619800301e+01, 1.474815746921394e+02, 1.117481032988028e+02, 2.514248310480152e+02
332, 4.743926605710325e-16, 8.700000000000502e-03, 8.493579828419385e-04, -4.807788468023770e-05, 3.373770933840093e+01, 2.819682679894553e+01, 9.934370910576568e+01, 1.987646636977509e+02
333, 5.000000000034347e-05, 8.699999999999888e-03, 8.488879574251732e-04, -5.491912684300684e-05, 3.301079123580396e+01, -8.892292506223042e+01, 7.933820869857868e+01, 2.001150584245135e+02
334, 1.000000000002468e-04, 8.699999999999274e-03, 8.484196132974209e-04, -6.176096902367766e-05, 2.987057748203993e+01, -2.033402008701378e+02, 5.184232103714572e+01, 2.552210260572246e+02
335, 1.500000000001407e-04, 8.699999999998657e-03, 8.479528784174812e-04, -6.860379079899945e-05, 2.405597550626991e+01, -3.145176960250533e+02, 1.696908594173500e+01, 3.402703786182281e+02
336, 2.000000000000568e-04, 8.699999999998044e-03, 8.474876682363433e-04, -7.544796991297532e-05, 1.530620305759865e+01, -4.219182527803227e+02, -2.516594092250811e+01, 4.401119438425037e+02
337, -1.999999999999175e-04, 8.600000000003331e-03, 8.375644065442976e-04, -1.978929571375364e-05, 1.947726184157837e+01, 5.773349239716588e+02, 1.137918525754256e+02, 6.024944099719337e+02
338, -1.499999999998235e-04, 8.600000000002632e-03, 8.370869617775486e-04, -2.662753303277120e-05, 2.599673607745996e+01, 4.382427405934170e+02, 1.244682493839303e+02, 4.815767318488005e+02
339, -9.999999999969208e-05, 8.600000000001931e-03, 8.366116017366487e-04, -3.346478806717254e-05, 3.100868571467061e+01, 2.998348229104008e+02, 1.266907961104054e+02, 3.694180874238981e+02
340, -4.999999999959999e-05, 8.600000000001230e-03, 8.361383011178866e-04, -4.030147358774042e-05, 3.424920291283163e+01, 1.626534311238352e+02, 1.205626479953732e+02, 2.731831879693341e+02
341, 4.615584173542353e-16, 8.600000000000526e-03, 8.356670219961406e-04, -4.713800094632503e-05, 3.545433812298352e+01, 2.724064774699901e+01, 1.061898319378683e+02, 2.125384349654514e+02
342, 5.000000000033329e-05, 8.599999999999825e-03, 8.351977138273016e-04, -5.397477995610052e-05, 3.436043255709047e+01, -1.058613651153972e+02, 8.368098380064892e+01, 2.183395995734212e+02
343, 1.000000000002392e-04, 8.599999999999124e-03, 8.347303134491590e-04, -6.081221879334722e-05, 3.070397368674482e+01, -2.361105303289038e+02, 5.314712314513515e+01, 2.872080192953066e+02
344, 1.500000000001364e-04, 8.599999999998423e-03, 8.342647450837815e-04, -6.765072390338342e-05, 2.422158327431526e+01, -3.629648880955352e+02, 1.470158465975260e+01, 3.883013133867404e+02
345, 2.000000000000548e-04, 8.599999999997722e-03, 8.338009203388285e-04, -7.449069991156158e-05, 1.464921421436983e+01, -4.858831733635242e+02, -3.153999627409971e+01, 5.044915821639723e+02
346, -1.999999999999195e-04, 8.500000000003703e-03, 8.238813564221794e-04, -1.887089669872342e-05, 2.128893252708390e+01, 6.460292400333655e+02, 1.258869073406365e+02, 6.735655169188838e+02
347, -1.499999999998278e-04, 8.500000000002915e-03, 8.234037133379399e-04, -2.570411275860066e-05, 2.799855806189061e+01, 4.893056421254495e+02, 1.360712450091297e+02, 5.355985069812664e+02
348, -9.999999999969967e-05, 8.500000000002127e-03, 8.229284110729256e-04, -3.253630029319012e-05, 3.306182050005458e+01, 3.333985560589070e+02, 1.372616349219421e+02, 4.068970145035794e+02
349, -4.999999999961013e-05, 8.500000000001340e-03, 8.224554210074852e-04, -3.936789914432422e-05, 3.621027866405209e+01, 1.788542361317780e+02, 1.295615830023292e+02, 2.957906586799728e+02
350, 4.487512791917503e-16, 8.500000000000552e-03, 8.219847017848792e-04, -4.619934772434720e-05, 3.717756038116735e+01, 2.621970570346757e+01, 1.130774668841986e+02, 2.264202478731214e+02
351, 5.000000000032310e-05, 8.499999999999765e-03, 8.215161993192380e-04, -5.303108291772903e-05, 3.569757359797770e+01, -1.239582799059795e+02, 8.791810559692038e+01, 2.375044520110771e+02
352, 1.000000000002316e-04, 8.499999999998977e-03, 8.210498468019135e-04, -5.986353997973985e-05, 3.150450727723554e+01, -2.711330668756156e+02, 5.419470881006121e+01, 3.214619217592525e+02
353, 1.500000000001320e-04, 8.499999999998190e-03, 8.205855647050659e-04, -6.669715244319149e-05, 2.433279526756336e+01, -4.147580331460134e+02, 1.202078505909574e+01, 4.397485107316102e+02
354, 2.000000000000531e-04, 8.499999999997402e-03, 8.201232607847691e-04, -7.353235202956098e-05, 1.391739677387088e+01, -5.542862518020153e+02, -3.848811885579299e+01, 5.733940420227435e+02
355, -1.999999999999213e-04, 8.400000000004074e-03, 8.102079255487847e-04, -1.795638442231853e-05, 2.321890958179940e+01, 7.191081644120916e+02, 1.385624006929447e+02, 7.490393918422635e+02
356, -1.499999999998322e-04, 8.400000000003200e-03, 8.097301148116841e-04, -2.478395358431942e-05, 3.009285838577418e+01, 5.436405995457930e+02, 1.481277392845305e+02, 5.928731660589311e+02
357, -9.999999999970726e-05, 8.400000000002326e-03, 8.092549167330038e-04, -3.161044925958503e-05, 3.518088677110273e+01, 3.691235938886560e+02, 1.481528951249945e+02, 4.464469206665787e+02
358, -4.999999999962035e-05, 8.400000000001451e-03, 8.087822993845333e-04, -3.843633860608088e-05, 3.821338752717910e+01, 1.961090124403919e+02, 1.387430321154034e+02, 3.192640665797475e+02
359, 4.359305885021092e-16, 8.400000000000581e-03, 8.083122179809845e-04, -4.526208734627582e-05, 3.892049067111096e+01, 2.514752010188500e+01, 1.200050499183194e+02, 2.404049557348892e+02
360, 5.000000000031294e-05, 8.399999999999703e-03, 8.078446149007829e-04, -5.208815966299038e-05, 3.703328022685999e+01, -1.432101244997569e+02, 9.204812614078467e+01, 2.576414466881488e+02
361, 1.000000000002240e-04, 8.399999999998832e-03, 8.073794196957300e-04, -5.891501811179003e-05, 3.228333782036817e+01, -3.084131043677509e+02, 5.498364117902538e+01, 3.580040068335236e+02
362, 1.500000000001277e-04, 8.399999999997958e-03, 8.069165490966725e-04, -6.574312353093187e-05, 2.440267169268424e+01, -4.699104523770878e+02, 8.925223881021473e+00, 4.946353233574441e+02
363, 2.000000000000511e-04, 8.399999999997083e-03, 8.064559070178270e-04, -7.257293495137105e-05, 1.312446873027625e+01, -6.271504938378964e+02, -4.601109486557975e+01, 6.468540106504654e+02
364, -1.999999999999233e-04, 8.300000000004210e-03, 7.965453682820781e-04, -1.704608646185492e-05, 2.520885556182687e+01, 7.965620283588673e+02, 1.518209516220254e+02, 8.289656944589025e+02
365, -1.499999999998365e-04, 8.300000000003279e-03, 7.960674249672694e-04, -2.386734430597814e-05, 3.224135186410891e+01, 6.012456009242187e+02, 1.606361409654370e+02, 6.534383785679645e+02
366, -9.999999999971485e-05, 8.300000000002344e-03, 7.955923821486290e-04, -3.068748502127938e-05, 3.734456034121833e+01, 4.070132079275028e+02, 1.593622178201067e+02, 4.880985298917064e+02
367, -4.999999999963053e-05, 8.300000000001409e-03, 7.951202045208282e-04, -3.750700333621018e-05, 4.024637780868446e+01, 2.144204504795671e+02, 1.481044180234098e+02, 3.436222957594189e+02
368, 4.231098978124681e-16, 8.300000000000474e-03, 7.946508438417032e-04, -4.432639249097230e-05, 4.067615869040211e+01, 2.402296848179484e+01, 1.269703808765976e+02, 2.544862260003811e+02
369, 5.000000000030276e-05, 8.299999999999542e-03, 7.941842389427925e-04, -5.114614417869072e-05, 3.836347090897183e+01, -1.636238836419171e+02, 9.606955800315208e+01, 2.787764898590814e+02
370, 1.000000000002164e-04, 8.299999999998609e-03, 7.937203157371540e-04, -5.796674846429618e-05, 3.303799265641432e+01, -3.479649302129004e+02, 5.551343036482991e+01, 3.968503383373186e+02
371, 1.500000000001233e-04, 8.299999999997672e-03, 7.932589872228906e-04, -6.478869370297521e-05, 2.442950111128870e+01, -5.284449218991493e+02, 5.415608891220387e+00, 5.529805086056609e+02
372, 2.000000000000492e-04, 8.299999999996739e-03, 7.928001534828275e-04, -7.161246645273923e-05, 1.226728369348434e+01, -7.045088559141993e+02, -5.410789658517992e+01, 7.248990910481153e+02
373, -1.999999999999252e-04, 8.200000000004194e-03, 7.828950157706714e-04, -1.614034185184458e-05, 2.733220211988620e+01, 8.784917830830184e+02, 1.656546172002995e+02, 9.133665425580498e+02
374, -1.499999999998408e-04, 8.200000000003217e-03, 7.824169799848213e-04, -2.295458485557406e-05, 3.448981545237021e+01, 6.621903237297055e+02, 1.735908796927120e+02, 7.173165982615928e+02
375, -9.999999999972244e-05, 8.200000000002240e-03, 7.819421484710784e-04, -2.976766854552189e-05, 3.957742788292445e+01, 4.471118521676273e+02, 1.708838008243796e+02, 5.318734816794395e+02
376, -4.999999999964069e-05, 8.200000000001265e-03, 7.814704825574456e-04, -3.658011535825202e-05, 4.232148936327058e+01, 2.338147856079245e+02, 1.576405133913201e+02, 3.688791243154844e+02
377, 4.102892071228270e-16, 8.200000000000287e-03, 7.810019305477571e-04, -4.339244624986683e-05, 4.244911654854840e+01, 2.285812794097993e+01, 1.339689523529915e+02, 2.686531734650725e+02
378, 5.000000000029257e-05, 8.199999999999309e-03, 7.805364277317987e-04, -5.020518061624214e-05, 3.968732270685656e+01, -1.851996832342249e+02, 9.997883637144388e+01, 3.009272940926027e+02
379, 1.000000000002088e-04, 8.199999999998328e-03, 7.800738963938173e-04, -5.701883622554064e-05, 3.376334994126709e+01, -3.898000907379931e+02, 5.578163707187089e+01, 4.380095346196528e+02
380, 1.500000000001190e-04, 8.199999999997352e-03, 7.796142458141548e-04, -6.383392914879181e-05, 2.440429687148809e+01, -5.903843647303132e+02, 1.490676336632429e+00, 6.147958904367340e+02
381, 2.000000000000473e-04, 8.199999999996377e-03, 7.791573722626156e-04, -7.065097368851493e-05, 1.133665454130150e+01, -7.863934625367958e+02, -6.277882211918513e+01, 8.075506558229793e+02
382, -1.999999999999271e-04, 8.100000000004175e-03, 7.692582799516153e-04, -1.523950141177709e-05, 2.951025633181118e+01, 9.648751457531355e+02, 1.800643378923487e+02, 1.002297430648511e+03
383, -1.499999999998452e-04, 8.100000000003150e-03, 7.687801960557900e-04, -2.204598670174038e-05, 3.678549990064491e+01, 7.264665324278378e+02, 1.869882822302590e+02, 7.845498055531381e+02
384, -9.999999999973005e-05, 8.100000000002133e-03, 7.683056363997070e-04, -2.885127196425816e-05, 4.184471572931545e+01, 4.894168611113063e+02, 1.827135917796936e+02, 5.778043369567106e+02
385, -4.999999999965090e-05, 8.100000000001112e-03, 7.678345588973236e-04, -3.565590754477403e-05, 4.441606776173178e+01, 2.542912498172707e+02, 1.673466833354985e+02, 3.950534669337963e+02
386, 3.974685164331859e-16, 8.100000000000092e-03, 7.673669083616086e-04, -4.246044227811844e-05, 4.422417136198447e+01, 2.165060561446820e+01, 1.409960521475242e+02, 2.828941723601016e+02
387, 5.000000000028236e-05, 8.099999999999071e-03, 7.669026165244750e-04, -4.926542342882039e-05, 4.099452842392824e+01, -2.079435836686566e+02, 1.037715649134839e+02, 3.241054371506192e+02
388, 1.000000000002012e-04, 8.099999999998051e-03, 7.664416020418814e-04, -5.607139663663996e-05, 3.445269068488842e+01, -4.339295572215458e+02, 5.578451121725766e+01, 4.814868398210670e+02
389, 1.500000000001146e-04, 8.099999999997031e-03, 7.659837704923699e-04, -6.287890586177645e-05, 2.432408229858960e+01, -6.557450413924720e+02, -2.852337954037708e+00, 6.800930497550646e+02
390, 2.000000000000454e-04, 8.099999999996011e-03, 7.655290143682440e-04, -6.968849333314948e-05, 1.033376760155812e+01, -8.728270552068485e+02, -7.202469954320027e+01, 8.948314189392185e+02
391, -1.999999999999291e-04, 8.000000000004158e-03, 7.556366506971988e-04, -1.434392769799106e-05, 3.174676885640480e+01, 1.055737143343718e+03, 1.950563495514583e+02, 1.095784743936523e+03
392, -1.499999999998495e-04, 8.000000000003093e-03, 7.551585678427530e-04, -2.114187259697518e-05, 3.912486682279672e+01, 7.940889194485303e+02, 2.008324049584545e+02, 8.551639259713064e+02
393, -9.999999999973761e-05, 8.000000000002028e-03, 7.546843454611149e-04, -2.793857840202861e-05, 4.414598778585907e+01, 5.339435143095016e+02, 1.948513569640090e+02, 6.259151877303673e+02
394, -4.999999999966106e-05, 8.000000000000966e-03, 7.542139379820676e-04, -3.473462349388757e-05, 4.652931567426587e+01, 2.758610026433299e+02, 1.772204887074443e+02, 4.221627993072084e+02
395, 3.846478257435448e-16, 7.999999999999901e-03, 7.537472867060137e-04, -4.153058470598260e-05, 4.600052886874877e+01, 2.040642106598816e+01, 1.480483409596092e+02, 2.972007796049501e+02
396, 5.000000000027218e-05, 7.999999999998840e-03, 7.532843198047005e-04, -4.832703729949361e-05, 4.228470320880305e+01, -2.318554572814284e+02, 1.074444336824347e+02, 3.483246372437159e+02
397, 1.000000000001936e-04, 7.999999999997775e-03, 7.528249523205938e-04, -5.512455492140291e-05, 3.510660882371204e+01, -4.803595321269410e+02, 5.551948678685395e+01, 5.272902389755201e+02
398, 1.500000000001103e-04, 7.999999999996709e-03, 7.523690861600582e-04, -6.192370956195438e-05, 2.419066767588910e+01, -7.245401391769300e+02, -7.614495331076725e+00, 7.488856677003917e+02
399, 2.000000000000435e-04, 7.999999999995648e-03, 7.519166100837679e-04, -6.872507151000078e-05, 9.261099075828113e+00, -9.638307304017166e+02, -8.184424270880230e+01, 9.867632080971930e+02
400, -1.999999999999309e-04, 7.900000000004136e-03, 7.420316962546369e-04, -1.345399334961807e-05, 3.415691510579330e+01, 1.151199377887149e+03, 2.106086818957594e+02, 1.193820728257017e+03
401, -1.499999999998538e-04, 7.900000000003030e-03, 7.415536690595426e-04, -2.024257558565331e-05, 4.159466624972207e+01, 8.651541155827351e+02, 2.151056524806371e+02, 9.291565710375071e+02
402, -9.999999999974523e-05, 7.900000000001926e-03, 7.410798545671171e-04, -2.702988135673893e-05, 4.653046756550147e+01, 5.807533490139976e+02, 2.072836291549765e+02, 6.762100995443394e+02
403, -4.999999999967128e-05, 7.900000000000816e-03, 7.406102038091872e-04, -3.381651714580647e-05, 4.868950196581174e+01, 2.985631010395607e+02, 1.872518658626845e+02, 4.502109067873587e+02
404, 3.718271350539037e-16, 7.899999999999709e-03, 7.401446546311143e-04, -4.060308789824692e-05, 4.779403697715283e+01, 1.914825494173542e+01, 1.551185043050009e+02, 3.115567080640424e+02
405, 5.000000000026201e-05, 7.899999999998603e-03, 7.396831316978402e-04, -4.739019698682423e-05, 4.356691110924008e+01, -2.569250568797339e+02, 1.109925783406333e+02, 3.735944761538814e+02
406, 1.000000000001860e-04, 7.899999999997496e-03, 7.392255464887176e-04, -5.417844618696676e-05, 3.573087487791172e+01, -5.290898257387117e+02, 5.498410269295950e+01, 5.754263028754012e+02
407, 1.500000000001060e-04, 7.899999999996389e-03, 7.387717972899020e-04, -6.096843564241529e-05, 2.400833599375534e+01, -7.967782953065987e+02, -1.279576574610092e+01, 8.211854970745037e+02
408, 2.000000000000416e-04, 7.899999999995286e-03, 7.383217691833261e-04, -6.776076382636422e-05, 8.121653930022731e+00, -1.059421596754853e+03, -9.223455605025816e+01, 1.083363948727289e+03
409, -1.999999999999328e-04, 7.800000000004094e-03, 7.284450698304062e-04, -1.257008290381872e-05, 3.655914738998185e+01, 1.251154355172182e+03, 2.267230534984119e+02, 1.296477878992951e+03
410, -1.499999999998583e-04, 7.800000000002947e-03, 7.279671565065237e-04, -1.934844021930973e-05, 4.406204380939678e+01, 9.395894512512326e+02, 2.298033538332119e+02, 1.006582169130501e+03
411, -9.999999999975283e-05, 7.800000000001799e-03, 7.274938245581252e-04, -2.612548543919733e-05, 4.891465423505385e+01, 6.298066004169359e+02, 2.200063010707040e+02, 7.287294032644955e+02
412, -4.999999999968147e-05, 7.800000000000654e-03, 7.270250215545574e-04, -3.290185323498529e-05, 5.084268800944034e+01, 3.223743653456597e+02, 1.974374536470469e+02, 4.792240021196141e+02
413, 3.590064443642627e-16, 7.799999999999507e-03, 7.265606818743981e-04, -3.967817672632865e-05, 4.956969624363283e+01, 1.786072443945440e+01, 1.622044000392288e+02, 3.259547951192356e+02
414, 5.000000000025183e-05, 7.799999999998360e-03, 7.261007266822263e-04, -4.645508749140104e-05, 4.481839467753018e+01, -2.831653741731315e+02, 1.144153462557918e+02, 3.999210402877238e+02
415, 1.000000000001784e-04, 7.799999999997211e-03, 7.256450639142517e-04, -5.323321553696832e-05, 3.631088372460050e+01, -5.801341913545039e+02, 5.417950648142902e+01, 6.258963223087089e+02
416, 1.500000000001016e-04, 7.799999999996065e-03, 7.251935882666080e-04, -6.001318926606294e-05, 2.376875879255813e+01, -8.724751964690250e+02, -1.839285772771738e+01, 8.969985597560873e+02
417, 2.000000000000397e-04, 7.799999999994919e-03, 7.247461811841514e-04, -6.679563544763841e-05, 6.912092429897754e+00, -1.159617931312951e+03, -1.031903570279304e+02, 1.184645641290128e+03
418, -1.999999999999347e-04, 7.700000000003952e-03, 7.148785014085597e-04, -1.169259209470568e-05, 3.903914529608845e+01, 1.355695330400904e+03, 2.433996004568730e+02, 1.403765283722684e+03
419, -1.499999999998626e-04, 7.700000000002785e-03, 7.144007651662152e-04, -1.845982199482105e-05, 4.657492161353159e+01, 1.017455481166445e+03, 2.449309961189790e+02, 1.087462106170656e+03
420, -9.999999999976044e-05, 7.700000000001617e-03, 7.139279952371146e-04, -2.522570605315129e-05, 5.132085538179716e+01, 6.811407938185148e+02, 2.330225723813979e+02, 7.834993502290899e+02
421, -4.999999999969162e-05, 7.700000000000449e-03, 7.134601358059539e-04, -3.199090707195138e-05, 5.299790772665088e+01, 3.473167571992565e+02, 2.077798884317798e+02, 5.092283508424974e+02
422, 3.461857536746216e-16, 7.699999999999279e-03, 7.129971178320729e-04, -3.875608641419564e-05, 5.132943283014077e+01, 1.655424071010832e+01, 1.693085875189244e+02, 3.403981568951253e+02
423, 5.000000000024164e-05, 7.699999999998113e-03, 7.125388590172693e-04, -4.552190394717045e-05, 4.603702782892623e+01, -3.105755442429686e+02, 1.177156482574748e+02, 4.273177060904948e+02
424, 1.000000000001708e-04, 7.699999999996944e-03, 7.120852637866857e-04, -5.228901800491320e-05, 3.684147660711361e+01, -6.335005674785984e+02, 5.310924207610730e+01, 6.787052544695708e+02
425, 1.500000000000973e-04, 7.699999999995776e-03, 7.116362232756376e-04, -5.905808534846162e-05, 2.346305249235834e+01, -9.516479826492593e+02, -2.440126348870010e+01, 9.763315100386429e+02
426, 2.000000000000377e-04, 7.699999999994609e-03, 7.111916153208979e-04, -6.582976112768027e-05, 5.622051393556717e+00, -1.264443755393293e+03, -1.147056862603935e+02, 1.290618739756634e+03
427, -1.999999999999367e-04, 7.600000000003967e-03, 7.013338018043058e-04, -1.082192653493404e-05, 4.158548635115341e+01, 1.464832878218539e+03, 2.606306485207590e+02, 1.515699996124142e+03
428, -1.499999999998669e-04, 7.600000000002791e-03, 7.008563104849138e-04, -1.757708668300675e-05, 4.913307632276846e+01, 1.098772644656506e+03, 2.604815806460068e+02, 1.171813056265889e+03
429, -9.999999999976803e-05, 7.600000000001615e-03, 7.003841867076978e-04, -2.433086885248029e-05, 5.374701731644252e+01, 7.347696855783101e+02, 2.463305988151686e+02, 8.405396661294884e+02
430, -4.999999999970180e-05, 7.600000000000435e-03, 6.999173713798157e-04, -3.108396412337492e-05, 5.515429951651599e+01, 3.733998079220986e+02, 2.182798950263169e+02, 5.402449943415742e+02
431, 3.333650629849805e-16, 7.599999999999259e-03, 6.994557921071591e-04, -3.783706219532501e-05, 5.307475808841754e+01, 1.523463483036154e+01, 1.764336559449907e+02, 3.548904263693885e+02
432, 5.000000000023146e-05, 7.599999999998081e-03, 6.989993631795260e-04, -4.459085132857682e-05, 4.722796963885496e+01, -3.391527400616818e+02, 1.208975666206950e+02, 4.558014252806940e+02
433, 1.000000000001632e-04, 7.599999999996904e-03, 6.985479855561687e-04, -5.134601828948285e-05, 3.733299398935134e+01, -6.891881907244575e+02, 5.177870778070704e+01, 7.338645448280737e+02
434, 1.500000000000929e-04, 7.599999999995727e-03, 6.981015468546655e-04, -5.810324830159157e-05, 2.310866042868851e+01, -1.034296478022660e+03, -3.081449730028555e+01, 1.059199584497083e+03
435, 2.000000000000358e-04, 7.599999999994550e-03, 6.976599213438651e-04, -6.486322499886084e-05, 4.274707894788946e+00, -1.373900733093985e+03, -1.267720560532447e+02, 1.401303736856671e+03
436, -1.999999999999386e-04, 7.500000000004145e-03, 6.878128628708754e-04, -9.958502757471258e-06, 4.413233789447099e+01, 1.578530988577412e+03, 2.784175974780379e+02, 1.632312670280851e+03
437, -1.499999999998712e-04, 7.500000000002950e-03, 6.873356885241210e-04, -1.670061050133075e-05, 5.168106898323629e+01, 1.183505826763883e+03, 2.764596506867037e+02, 1.259661476808938e+03
438, -9.999999999977570e-05, 7.500000000001755e-03, 6.868642994878256e-04, -2.344130970325786e-05, 5.616276464332279e+01, 7.906755519697585e+02, 2.599344889499181e+02, 8.998737627737961e+02
439, -4.999999999971198e-05, 7.500000000000564e-03, 6.863986333928298e-04, -3.018131985264067e-05, 5.729435130876969e+01, 4.006129873844011e+02, 2.289420407025718e+02, 5.722984517549073e+02
440, 3.205443722953394e-16, 7.499999999999370e-03, 6.859386145137823e-04, -3.692135910653357e-05, 5.479561412134898e+01, 1.389379715357489e+01, 1.835851382090845e+02, 3.694414304274224e+02
441, 5.000000000022125e-05, 7.499999999998177e-03, 6.854841537584719e-04, -4.366214422269858e-05, 4.838544600524239e+01, -3.689058383119836e+02, 1.239681655863542e+02, 4.853910179252422e+02
442, 1.000000000001556e-04, 7.499999999996980e-03, 6.850351486568498e-04, -5.040439050405505e-05, 3.778211990531793e+01, -7.472088051488756e+02, 5.019694596459770e+01, 7.913846637092038e+02
443, 1.500000000000885e-04, 7.499999999995787e-03, 6.845914833480119e-04, -5.714881174687318e-05, 2.270327662023577e+01, -1.120437039505281e+03, -3.762119937837488e+01, 1.145613896966258e+03
444, 2.000000000000339e-04, 7.499999999994593e-03, 6.841530285678283e-04, -6.389612018232236e-05, 2.865377596721288e+00, -1.488012036544033e+03, -1.393772256249338e+02, 1.516713390224613e+03
445, -1.999999999999404e-04, 7.400000000004559e-03, 6.743176541646353e-04, -9.102746530395246e-06, 4.681043350595230e+01, 1.696908444957559e+03, 2.967414436571624e+02, 1.753580732367772e+03
446, -1.499999999998756e-04, 7.400000000003323e-03, 6.738408742512659e-04, -1.583077903152418e-05, 5.431923885881844e+01, 1.271744493491659e+03, 2.928536291805416e+02, 1.350991207637819e+03
447, -9.999999999978329e-05, 7.400000000002085e-03, 6.733703136983099e-04, -2.255737388804350e-05, 5.862968628635886e+01, 8.489137534977758e+02, 2.738266758770623e+02, 9.614952420973004e+02
448, -4.999999999972218e-05, 7.400000000000849e-03, 6.729059069614682e-04, -2.928327916768578e-05, 5.945548280157917e+01, 4.289898155534126e+02, 2.397622417714649e+02, 6.053919006721649e+02
449, 3.077507866600104e-16, 7.399999999999613e-03, 6.724475750651321e-04, -3.600924161637223e-05, 5.651302236999004e+01, 1.254934318632822e+01, 1.907621414217869e+02, 3.840489337137485e+02
450, 5.000000000021107e-05, 7.399999999998373e-03, 6.719952256081537e-04, -4.273600660450707e-05, 4.951896505106734e+01, -3.998296426711721e+02, 1.269295084890770e+02, 5.160993816727837e+02
451, 1.000000000001480e-04, 7.399999999997137e-03, 6.715487527557892e-04, -4.946431808263717e-05, 3.818950940958412e+01, -8.075679901718411e+02, 4.836878614081695e+01, 8.512719342191241e+02
452, 1.500000000000842e-04, 7.399999999995899e-03, 6.711080372261643e-04, -5.619491853602098e-05, 2.223996706204957e+01, -1.210085522906974e+03, -4.481420737696961e+01, 1.235580578496885e+03
453, 2.000000000000320e-04, 7.399999999994663e-03, 6.706729462698389e-04, -6.292854893946056e-05, 1.384245130390752e+00, -1.606801107851364e+03, -1.525121748751362e+02, 1.636856738839911e+03
454, -1.999999999999424e-04, 7.300000000004963e-03, 6.608502302686863e-04, -8.255093673059365e-06, 4.953113605455761e+01, 1.819923489471568e+03, 3.155855743894510e+02, 1.879538800899917e+03
455, -1.499999999998800e-04, 7.300000000003675e-03, 6.603739262939978e-04, -1.496798764243288e-05, 5.699396264226078e+01, 1.363468352350959e+03, 3.096451235530284e+02, 1.445820092931827e+03
456, -9.999999999979085e-05, 7.300000000002383e-03, 6.599042922505675e-04, -2.167941632129535e-05, 6.111724408958158e+01, 9.094759359414722e+02, 2.879935543809428e+02, 1.025413877173762e+03
457, -4.999999999973237e-05, 7.300000000001096e-03, 6.594412594190277e-04, -2.839015650164039e-05, 6.161970223327883e+01, 4.585265439616410e+02, 2.507312467086991e+02, 6.395308228030743e+02
458, 2.949029909160572e-16, 7.299999999999806e-03, 6.589847456135310e-04, -3.510098363128999e-05, 5.821672732923244e+01, 1.119882440733477e+01, 1.979593364034584e+02, 3.987007382390499e+02
459, 5.000000000020089e-05, 7.299999999998517e-03, 6.585346551765623e-04, -4.181267180387474e-05, 5.062344176034509e+01, -4.319272425873824e+02, 1.297797436355797e+02, 5.479290924900114e+02
460, 1.000000000001404e-04, 7.299999999997227e-03, 6.580908789685951e-04, -4.852599372754931e-05, 3.855442242851746e+01, -8.702703432329852e+02, 4.629544885124704e+01, 9.135291615580966e+02
461, 1.500000000000799e-04, 7.299999999995936e-03, 6.576532943520877e-04, -5.524172069118793e-05, 2.172356777853831e+01, -1.303247672395089e+03, -5.238942763656727e+01, 1.329107744240319e+03
462, 2.000000000000302e-04, 7.299999999994650e-03, 6.572217651711692e-04, -6.196062253235470e-05, -1.562179723811994e-01, -1.730274930243038e+03, -1.661696829464809e+02, 1.761749191193574e+03
463, -1.999999999999443e-04, 7.200000000005343e-03, 6.474127277607451e-04, -7.415990666778854e-06, 5.228455803919331e+01, 1.947594430539209e+03, 3.349453227497424e+02, 2.010212175299846e+03
464, -1.499999999998843e-04, 7.200000000003976e-03, 6.469369853877920e-04, -1.411264187267833e-05, 5.968442530828264e+01, 1.458682408638960e+03, 3.268290835357361e+02, 1.544171090502130e+03
465, -9.999999999979844e-05, 7.200000000002606e-03, 6.464683801139605e-04, -2.080780178038425e-05, 6.360942381923837e+01, 9.723666040550113e+02, 3.024291433223561e+02, 1.091646994019976e+03
466, -4.999999999974257e-05, 7.200000000001237e-03, 6.460068400562780e-04, -2.750227591127957e-05, 6.377552554604634e+01, 4.892263085648882e+02, 2.618442663473123e+02, 6.747281289876646e+02
467, 2.821094052807283e-16, 7.199999999999870e-03, 6.455522798506141e-04, -3.419686848747835e-05, 5.989868503025494e+01, 9.842874852890077e+00, 2.051740142387924e+02, 4.133897538739356e+02
468, 5.000000000019069e-05, 7.199999999998501e-03, 6.451046006320768e-04, -4.089238240924425e-05, 5.169345890586098e+01, -4.652014772233467e+02, 1.325187346648613e+02, 5.808831510249900e+02
469, 1.000000000001328e-04, 7.199999999997132e-03, 6.446636900168174e-04, -4.758961923383667e-05, 3.887339055155053e+01, -9.353232016777405e+02, 4.397966487536598e+01, 9.781594164559075e+02
470, 1.500000000000756e-04, 7.199999999995762e-03, 6.442294220815687e-04, -5.428937914981520e-05, 2.115100379434585e+01, -1.399937313070924e+03, -6.034094069641837e+01, 1.426203393919493e+03
471, 2.000000000000282e-04, 7.199999999994395e-03, 6.438016573412466e-04, -6.099246094735279e-05, -1.761430166059156e+00, -1.858456630288643e+03, -1.803397821191583e+02, 1.891403398066469e+03
472, -1.999999999999461e-04, 7.100000000005715e-03, 6.340073645294701e-04, -6.585893219150531e-06, 5.512219688865292e+01, 2.079982535677785e+03, 3.548033742162891e+02, 2.145600412244156e+03
473, -1.499999999998886e-04, 7.100000000004259e-03, 6.335322739668551e-04, -1.326515667863645e-05, 6.242574308383499e+01, 1.557434575585551e+03, 3.443927023910641e+02, 1.646048827677668e+03
474, -9.999999999980600e-05, 7.100000000002804e-03, 6.330648041419258e-04, -1.994290441524838e-05, 6.612428722051015e+01, 1.037616892839085e+03, 3.171242622923366e+02, 1.160202169326278e+03
475, -4.999999999975274e-05, 7.100000000001348e-03, 6.326048801055952e-04, -2.661997073218151e-05, 6.593277323000149e+01, 5.211095181952101e+02, 2.730953223765418e+02, 7.109923273657121e+02
476, 2.692616095367750e-16, 7.099999999999895e-03, 6.321524133968526e-04, -3.329718867736458e-05, 6.156538534664358e+01, 8.494337529927037e+00, 2.124035706302803e+02, 4.281093824974338e+02
477, 5.000000000018050e-05, 7.099999999998441e-03, 6.317073020242221e-04, -3.997539002603225e-05, 5.273558604723597e+01, -4.996448699459293e+02, 1.351474474394841e+02, 6.149662579043257e+02
478, 1.000000000001252e-04, 7.099999999996985e-03, 6.312694304438413e-04, -4.665540526113888e-05, 3.915580318045323e+01, -1.002722722088878e+03, 4.142623807428124e+01, 1.045167639291106e+03
479, 1.500000000000712e-04, 7.099999999995530e-03, 6.308386695374992e-04, -5.333806355103821e-05, 2.053747174142575e+01, -1.500152145985841e+03, -6.865985715153508e+01, 1.526877079990324e+03
480, 2.000000000000263e-04, 7.099999999994075e-03, 6.304148765890348e-04, -6.002419272713942e-05, -3.409395542400830e+00, -1.991344744507131e+03, -1.950094329228965e+02, 2.025833573465294e+03
481, -1.999999999999481e-04, 7.000000000006086e-03, 6.206364426506448e-04, -5.765266603190429e-06, 5.797251324262328e+01, 2.217052961443451e+03, 3.751461896382804e+02, 2.285731181964224e+03
482, -1.499999999998929e-04, 7.000000000004546e-03, 6.201620978967084e-04, -1.242595643132758e-05, 6.517030434389724e+01, 1.659706699075535e+03, 3.623247715187780e+02, 1.751474599972352e+03
483, -9.999999999981362e-05, 7.000000000003004e-03, 6.196958741289719e-04, -1.908510767578502e-05, 6.863062386754450e+01, 1.105218658454883e+03, 3.320710640358023e+02, 1.231096876662889e+03
484, -4.999999999976293e-05, 7.000000000001462e-03, 6.192376933838880e-04, -2.574358346100219e-05, 6.806899407235250e+01, 5.541709502332702e+02, 2.844799154021018e+02, 7.483384266842234e+02
485, 2.564544713742900e-16, 6.999999999999921e-03, 6.187874641693712e-04, -3.240224570966131e-05, 6.319948859767118e+01, 7.147478306137032e+00, 2.196469085291496e+02, 4.428553777062808e+02
486, 5.000000000017032e-05, 6.999999999998381e-03, 6.183450814354192e-04, -3.906195513022672e-05, 5.373463966823863e+01, -5.352663938066601e+02, 1.376683752314182e+02, 6.501788550775340e+02
487, 1.000000000001176e-04, 6.999999999996837e-03, 6.179104265499673e-04, -4.572357119543586e-05, 3.938580893656291e+01, -1.072483578471042e+03, 3.864149556394472e+01, 1.114552015552363e+03
488, 1.500000000000668e-04, 6.999999999995296e-03, 6.174833672742725e-04, -5.238795212204010e-05, 1.986317881725171e+01, -1.603915257724265e+03, -7.733565665249799e+01, 1.631128329144186e+03
489, 2.000000000000244e-04, 6.999999999993755e-03, 6.170637577376715e-04, -5.905595484937160e-05, -5.124780974153978e+00, -2.128971160559599e+03, -2.101642815196696e+02, 2.165040310244804e+03
490, -1.999999999999499e-04, 6.900000000006458e-03, 6.073023458685652e-04, -4.954585214287441e-06, 6.086683055755131e+01, 2.358851257660362e+03, 3.959608847180174e+02, 2.430611551876139e+03
491, -1.499999999998973e-04, 6.900000000004828e-03, 6.068288450495525e-04, -1.159547455074848e-05, 6.793261609221412e+01, 1.765528421422377e+03, 3.806159598921937e+02, 1.860458425757799e+03
492, -9.999999999982122e-05, 6.900000000003202e-03, 6.063639820258137e-04, -1.823480397409894e-05, 7.113413936943792e+01, 1.175191093208476e+03, 3.472631390318314e+02, 1.304342174523734e+03
493, -4.999999999977310e-05, 6.900000000001573e-03, 6.059076759236282e-04, -2.487346545568179e-05, 7.018668541602497e+01, 5.884235085373481e+02, 2.959947240133220e+02, 7.867788198812751e+02
494, 2.436337806846489e-16, 6.899999999999946e-03, 6.054598323061872e-04, -3.151234984750709e-05, 6.480264297504814e+01, 5.810370369768862e+00, 2.269038428154613e+02, 4.576259430635789e+02
495, 5.000000000016015e-05, 6.899999999998319e-03, 6.050203431509973e-04, -3.815234684689201e-05, 5.469329151849499e+01, -5.720616933056892e+02, 1.400845239310013e+02, 6.865249495698349e+02
496, 1.000000000001100e-04, 6.899999999996692e-03, 6.045890868242563e-04, -4.479434497704557e-05, 3.956874605527469e+01, -1.144604103869066e+03, 3.563162878556427e+01, 1.186315215437105e+03
497, 1.500000000000625e-04, 6.899999999995065e-03, 6.041659280549373e-04, -5.143923156657860e-05, 1.913794444424462e+01, -1.711226347745712e+03, -8.635911602079238e+01, 1.738962958595042e+03
498, 2.000000000000225e-04, 6.899999999993437e-03, 6.037507179085664e-04, -5.808789273180988e-05, -6.890544126829354e+00, -2.271335364045270e+03, -2.257910898420860e+02, 2.309033738918460e+03
499, -1.999999999999519e-04, 6.800000000006828e-03, 5.940075411927570e-04, -4.154332123782875e-06, 6.377487605884897e+01, 2.505368072234770e+03, 4.172327740565353e+02, 2.580253880260661e+03
500, -1.499999999999017e-04, 6.800000000005111e-03, 5.935349862285309e-04, -1.077415311015213e-05, 7.069167259157771e+01, 1.874895516954753e+03, 3.992555792437764e+02, 1.973010791213265e+03
501, -9.999999999982880e-05, 6.800000000003401e-03, 5.930716025048825e-04, -1.739239428165934e-05, 7.362268018487612e+01, 1.247534972514311e+03, 3.626937200048658e+02, 1.379948190406444e+03
502, -4.999999999978328e-05, 6.800000000001686e-03, 5.926173063102496e-04, -2.400997654365293e-05, 7.227879659810918e+01, 6.238693868197522e+02, 3.076366901834853e+02, 8.263253062863675e+02
503, 2.308130899950078e-16, 6.799999999999972e-03, 5.921720003496169e-04, -3.062781972242882e-05, 6.637167066346831e+01, 4.484824413432307e+00, 2.341752509780063e+02, 4.724216066409587e+02
504, 5.000000000014997e-05, 6.799999999998255e-03, 5.917355737197641e-04, -3.724684255592705e-05, 5.561192808211703e+01, -6.100303382028865e+02, 1.424008728789549e+02, 7.240108155627156e+02
505, 1.000000000001024e-04, 6.799999999996542e-03, 5.913079018811605e-04, -4.386796267398447e-05, 3.970889100629535e+01, -1.219085652334631e+03, 3.240588108655792e+01, 1.260461925986214e+03
506, 1.500000000000582e-04, 6.799999999994830e-03, 5.908888466294674e-04, -5.049209657819024e-05, 1.837067653368592e+01, -1.822088557067410e+03, -9.571646682217202e+01, 1.850388272398854e+03
507, 2.000000000000206e-04, 6.799999999993115e-03, 5.904782560690671e-04, -5.712015961832233e-05, -8.695938338746259e+00, -2.418444663983606e+03, -2.418718144006930e+02, 2.457823593985735e+03
508, -1.999999999999538e-04, 6.700000000007203e-03, 5.807545779323155e-04, -3.364998603440811e-06, 6.672255554545751e+01, 2.656639899920391e+03, 4.389408510700785e+02, 2.734656858482726e+03
509, -1.499999999999060e-04, 6.700000000005407e-03, 5.802830747306481e-04, -9.962442292170835e-06, 7.346910930583297e+01, 1.987838818461428e+03, 4.182287691006890e+02, 2.089132019894001e+03
510, -9.999999999983645e-05, 6.700000000003612e-03, 5.798212927665301e-04, -1.655828768359384e-05, 7.610822222601780e+01, 1.322271625943961e+03, 3.783526867026567e+02, 1.457918465109199e+03
511, -4.999999999979346e-05, 6.700000000001816e-03, 5.793691456027569e-04, -2.315348463351457e-05, 7.435084467670825e+01, 6.605219312234684e+02, 3.194008458761525e+02, 8.669856654460997e+02
512, 2.179923993053667e-16, 6.700000000000018e-03, 5.789265332014075e-04, -2.974898199112965e-05, 6.790803842643462e+01, 3.177445698803695e+00, 2.414611891168754e+02, 4.872412883098191e+02
513, 5.000000000013978e-05, 6.699999999998221e-03, 5.784933418905814e-04, -3.634572758631168e-05, 5.648929607428101e+01, -6.491719490565201e+02, 1.446224327866575e+02, 7.626404035586351e+02
514, 1.000000000000948e-04, 6.699999999996424e-03, 5.780694443325922e-04, -4.294466821316216e-05, 3.980264807728770e+01, -1.295934184914085e+03, 2.897418259150170e+01, 1.336993231111215e+03
515, 1.500000000000538e-04, 6.699999999994629e-03, 5.776546994932570e-04, -4.954674960868758e-05, 1.755460495964113e+01, -1.936515126686860e+03, -1.053929586151746e+02, 1.965405611836821e+03
516, 2.000000000000187e-04, 6.699999999992831e-03, 5.772489526109188e-04, -5.615291642820147e-05, -1.054993494349742e+01, -2.570318616348139e+03, -2.583873276008076e+02, 2.611411830133042e+03
517, -1.999999999999557e-04, 6.600000000007607e-03, 5.675460898409449e-04, -2.587083906246878e-06, 6.969450154432556e+01, 2.812679022785115e+03, 4.610632615527519e+02, 2.893835069312211e+03
518, -1.499999999999103e-04, 6.600000000005753e-03, 5.670757477559653e-04, -9.160800292112003e-06, 7.625033759287413e+01, 2.104369324743926e+03, 4.375167615527824e+02, 2.208834600553230e+03
519, -9.999999999984406e-05, 6.600000000003900e-03, 5.666156934888698e-04, -1.573290121520981e-05, 7.857820201838612e+01, 1.399408681193364e+03, 3.942280230431408e+02, 1.538263986228507e+03
520, -4.999999999980367e-05, 6.600000000002050e-03, 5.661658380038517e-04, -2.230436551721076e-05, 7.639318186472875e+01, 6.983862353823628e+02, 3.312811535052699e+02, 9.087706912611779e+02
521, 2.051717086157256e-16, 6.600000000000198e-03, 5.657260786383778e-04, -2.887617111640494e-05, 6.940491830057212e+01, 1.890782541547281e+00, 2.487611454830776e+02, 5.020822527589474e+02
522, 5.000000000012958e-05, 6.599999999998345e-03, 5.652962990648170e-04, -3.544929499353502e-05, 5.732134651027272e+01, -6.894865286861115e+02, 1.467538406488494e+02, 8.024143327708508e+02
523, 1.000000000000872e-04, 6.599999999996491e-03, 5.648763692572535e-04, -4.202471317013834e-05, 3.984891724460886e+01, -1.375152167708803e+03, 2.534602597604416e+01, 1.415908808698655e+03
524, 1.500000000000495e-04, 6.599999999994639e-03, 5.644661454594556e-04, -4.860340068651494e-05, 1.669267628783072e+01, -2.054510183195417e+03, -1.153745298497438e+02, 2.084016893809592e+03
525, 2.000000000000168e-04, 6.599999999992787e-03, 5.640654701527413e-04, -5.518633158158605e-05, -1.244391280571921e+01, -2.726962372599074e+03, -2.753190137952697e+02, 2.769803730589531e+03
526, -1.999999999999576e-04, 6.500000000008018e-03, 5.543847947995788e-04, -1.821095632170241e-06, 7.263286110712485e+01, 2.973461050207037e+03, 4.835867439412778e+02, 3.057814372773400e+03
527, -1.499999999999147e-04, 6.500000000006126e-03, 5.539157261895432e-04, -8.369693389587147e-06, 7.898613556175943e+01, 2.224465320080135e+03, 4.571115773773296e+02, 2.332141699788243e+03
528, -9.999999999985163e-05, 6.500000000004228e-03, 5.534575287097542e-04, -1.491665978902745e-05, 8.099974648214706e+01, 1.478933854957801e+03, 4.103147623775128e+02, 1.621003574499230e+03
529, -4.999999999981387e-05, 6.500000000002332e-03, 5.530101108189044e-04, -2.146300268269980e-05, 7.838408070089417e+01, 7.374549270961601e+02, 3.432762498157792e+02, 9.516978067214999e+02
530, 1.923510179260846e-16, 6.500000000000438e-03, 5.525733673213811e-04, -2.800972910811976e-05, 7.084818345877920e+01, 6.193309426211613e-01, 2.560777448696815e+02, 5.169480993251674e+02
531, 5.000000000011942e-05, 6.499999999998543e-03, 5.521471793309712e-04, -3.455784525054826e-05, 5.809917291433703e+01, -7.309799305346025e+02, 1.488020023670608e+02, 8.433350313686544e+02
532, 1.000000000000796e-04, 6.499999999996646e-03, 5.517314142358849e-04, -4.110835641873268e-05, 3.984248369588624e+01, -1.456747409233141e+03, 2.153275012929716e+01, 1.497209385800744e+03
533, 1.500000000000451e-04, 6.499999999994751e-03, 5.513259256636824e-04, -4.766226702234630e-05, 1.578192532751314e+01, -2.176085185448436e+03, -1.256452559814361e+02, 2.206224909818550e+03
534, 2.000000000000149e-04, 6.499999999992855e-03, 5.509305534469517e-04, -5.422058054726864e-05, -1.437994964441944e+01, -2.888392568456611e+03, -2.926462672685222e+02, 2.933004583030260e+03
535, -1.999999999999595e-04, 6.400000000008258e-03, 5.412734921062477e-04, -1.067548353916825e-06, 7.559221838818345e+01, 3.139040051683539e+03, 5.064911344101736e+02, 3.226584216205495e+03
536, -1.499999999999190e-04, 6.400000000006336e-03, 5.408058129673187e-04, -7.589594931136140e-06, 8.171805070015330e+01, 2.348168697757216e+03, 4.770001626150836e+02, 2.459047611593693e+03
537, -9.999999999985919e-05, 6.400000000004416e-03, 5.403496048801648e-04, -1.410999537830393e-05, 8.339846043088829e+01, 1.560874969215202e+03, 4.266048189834884e+02, 1.706137016868582e+03
538, -4.999999999982406e-05, 6.400000000002495e-03, 5.399047739381971e-04, -2.062978664893545e-05, 8.033966499177848e+01, 7.777463184007626e+02, 3.553828209269791e+02, 9.957729851021205e+02
539, 1.795438797635995e-16, 6.400000000000575e-03, 5.394712125443455e-04, -2.715000495465841e-05, 7.224881942615770e+01, -6.255332672413942e-01, 2.634126358469147e+02, 5.318416476506508e+02
540, 5.000000000010922e-05, 6.399999999998654e-03, 5.390487993832460e-04, -3.367168573964700e-05, 5.883187487804116e+01, -7.736459289271106e+02, 1.507736827020038e+02, 8.854095704307396e+02
541, 1.000000000000720e-04, 6.399999999996736e-03, 5.386373993858047e-04, -4.019586365840758e-05, 3.979309256686872e+01, -1.540717577750585e+03, 1.754636191791838e+01, 1.580900211352237e+03
542, 1.500000000000408e-04, 6.399999999994814e-03, 5.382368636925383e-04, -4.672357255337496e-05, 1.483499076827789e+01, -2.301240567010026e+03, -1.361878944281493e+02, 2.332036569115753e+03
543, 2.000000000000129e-04, 6.399999999992895e-03, 5.378470296161118e-04, -5.325584543287383e-05, -1.634157478476985e+01, -3.054612355341531e+03, -3.103463926706069e+02, 3.101023842178518e+03
544, -1.999999999999615e-04, 6.300000000008254e-03, 5.282150657640686e-04, -3.269631788304883e-07, 7.856076263090327e+01, 3.309422038011080e+03, 5.297474348678769e+02, 3.400146167409219e+03
545, -1.499999999999234e-04, 6.300000000006307e-03, 5.277488952221461e-04, -6.820984767667213e-06, 8.444422153074996e+01, 2.475490838669376e+03, 4.971591499386655e+02, 2.589550695931827e+03
546, -9.999999999986685e-05, 6.300000000004357e-03, 5.272948122700382e-04, -1.331334649250546e-05, 8.577449825396820e+01, 1.645242512764529e+03, 4.430824988002840e+02, 1.793663539032314e+03
547, -4.999999999983422e-05, 6.300000000002410e-03, 5.268527207600910e-04, -1.980511447666309e-05, 8.225974443639694e+01, 8.192676802997695e+02, 3.675924770410812e+02, 1.040998373790459e+03
548, 1.667096365468024e-16, 6.300000000000461e-03, 5.264225108340775e-04, -2.629735416432350e-05, 7.360622206721240e+01, -1.840297694637314e+00, 2.707643079692313e+02, 5.467590138483333e+02
549, 5.000000000009904e-05, 6.299999999998514e-03, 5.260040588868453e-04, -3.279113031664240e-05, 5.951847306972195e+01, -8.174852702205013e+02, 1.526739739418537e+02, 9.286403690459807e+02
550, 1.000000000000644e-04, 6.299999999996569e-03, 5.255972275295062e-04, -3.928750699423988e-05, 3.969928556847856e+01, -1.627068290052286e+03, 1.339839583842596e+01, 1.666982969074637e+03
551, 1.500000000000364e-04, 6.299999999994618e-03, 5.252018655511335e-04, -4.578754753773472e-05, 1.384965043894408e+01, -2.429987597911243e+03, -1.469844772062004e+02, 2.461454497361698e+03
552, 2.000000000000111e-04, 6.299999999992672e-03, 5.248178078794550e-04, -5.229231454593030e-05, -1.833175847552985e+01, -3.225638951079951e+03, -3.283956640687426e+02, 3.273865341831984e+03
553, -1.999999999999633e-04, 6.200000000008235e-03, 5.152124849425269e-04, 4.001320480008746e-07, 8.152317510004329e+01, 3.484620386414322e+03, 5.533289584023377e+02, 3.578513989700401e+03
554, -1.499999999999277e-04, 6.200000000006244e-03, 5.147479447939534e-04, -6.064349307769297e-06, 8.714614609416390e+01, 2.606438500662921e+03, 5.175670838603834e+02, 2.723662371324970e+03
555, -9.999999999987445e-05, 6.200000000004252e-03, 5.142961254352299e-04, -1.252715807920316e-05, 8.811324876045995e+01, 1.732041339542436e+03, 4.597327992855896e+02, 1.883591397999558e+03
556, -4.999999999984441e-05, 6.200000000002263e-03, 5.138569286115013e-04, -1.898938956913288e-05, 8.413383037283884e+01, 8.620223006857123e+02, 3.798969303956110e+02, 1.087380882277104e+03
557, 1.538618408028491e-16, 6.200000000000271e-03, 5.134302423371611e-04, -2.545213850434000e-05, 7.491320453733536e+01, -3.023784819975276e+00, 2.781310636321259e+02, 5.616954054811489e+02
558, 5.000000000008886e-05, 6.199999999998280e-03, 5.130159408537368e-04, -3.191649901905433e-05, 6.015448801254144e+01, -8.624994255721319e+02, 1.545076072824028e+02, 9.730265397642793e+02
559, 1.000000000000568e-04, 6.199999999996288e-03, 5.126138845905363e-04, -3.838356463999900e-05, 3.955889937424482e+01, -1.715804192116093e+03, 9.099848940374244e+00, 1.755457436672694e+03
560, 1.500000000000321e-04, 6.199999999994299e-03, 5.122239201243839e-04, -4.485442826970945e-05, 1.282572794923320e+01, -2.562334675141476e+03, -1.580179701226817e+02, 2.594480644979467e+03
561, 2.000000000000091e-04, 6.199999999992307e-03, 5.118458801373788e-04, -5.133018217022813e-05, -2.034731640916343e+01, -3.401484105956206e+03, -3.467706144322175e+02, 3.451533778737110e+03
562, -1.999999999999653e-04, 6.100000000008216e-03, 5.022688034540328e-04, 1.113203071820032e-06, 8.444920454280339e+01, 3.664631425786547e+03, 5.772137243061979e+02, 3.761702735653033e+03
563, -1.499999999999321e-04, 6.100000000006179e-03, 5.018060179000444e-04, -5.320181264999180e-06, 8.979822224176837e+01, 2.741008899250376e+03, 5.382079973912313e+02, 2.861396415687271e+03
564, -9.999999999988203e-05, 6.100000000004146e-03, 5.013566030650719e-04, -1.175188122425613e-05, 9.039647342617792e+01, 1.821271014389948e+03, 4.765448531877521e+02, 1.975931847244607e+03
565, -4.999999999985460e-05, 6.100000000002112e-03, 5.009204587163899e-04, -1.818302132614249e-05, 8.595004133946884e+01, 9.060109814161351e+02, 3.922907099385787e+02, 1.134930812805733e+03
566, 1.410275975860520e-16, 6.100000000000079e-03, 5.004974708690323e-04, -2.461472561740879e-05, 7.616320794724697e+01, -4.175150255555309e+00, 2.855132958980534e+02, 5.766503449552418e+02
567, 5.000000000007866e-05, 6.099999999998046e-03, 5.000875117467132e-04, -3.104811765053472e-05, 6.073825321411005e+01, -9.086882892274045e+02, 1.562811635169314e+02, 1.018569108834022e+03
568, 1.000000000000492e-04, 6.099999999996011e-03, 4.996904397400783e-04, -3.748432046943548e-05, 3.937541252845207e+01, -1.806926225724965e+03, 4.663699442182789e+00, 1.846325198817153e+03
569, 1.500000000000277e-04, 6.099999999993980e-03, 4.993060993632814e-04, -4.392445659604931e-05, 1.177290316230543e+01, -2.698283540362347e+03, -1.692688016780586e+02, 2.731119484016690e+03
570, 2.000000000000072e-04, 6.099999999991945e-03, 4.989343212098707e-04, -5.036964801551831e-05, -2.237310042804216e+01, -3.582151630746951e+03, -3.654449923488551e+02, 3.634036784988681e+03
571, -1.999999999999672e-04, 6.000000000008407e-03, 4.893871586153526e-04, 1.811710232801071e-06, 8.736094797616090e+01, 3.849486043622472e+03, 6.013742045073495e+02, 3.949707453809605e+03
572, -1.499999999999365e-04, 6.000000000006308e-03, 4.889262544514733e-04, -4.588978761849698e-06, 9.241770780981727e+01, 2.879227298093481e+03, 5.590620926207432e+02, 3.002750303658122e+03
573, -9.999999999988962e-05, 6.000000000004209e-03, 4.884793875931167e-04, -1.098797241333534e-05, 9.263417271340876e+01, 1.912949810685294e+03, 4.935052243781010e+02, 2.070685550198029e+03
574, -4.999999999986476e-05, 6.000000000002106e-03, 4.880464559803200e-04, -1.738642451043166e-05, 8.771333934124033e+01, 9.512458217231999e+02, 4.047669107447632e+02, 1.183652548793009e+03
575, 1.282204594235670e-16, 6.000000000000007e-03, 4.876273437840429e-04, -2.378548845503992e-05, 7.735827642677299e+01, -5.287738890597211e+00, 2.929108684263245e+02, 5.916227439989891e+02
576, 5.000000000006848e-05, 5.999999999997906e-03, 4.872219213677346e-04, -3.018631725459254e-05, 6.127025894195458e+01, -9.560504016596918e+02, 1.580014952550312e+02, 1.065269551098816e+03
577, 1.000000000000416e-04, 5.999999999995806e-03, 4.868300452423212e-04, -3.659006351379199e-05, 3.914840536147136e+01, -1.900438335446343e+03, 1.039791296762758e-01, 1.939586751956230e+03
578, 1.500000000000234e-04, 5.999999999993707e-03, 4.864515580193967e-04, -4.299787942389249e-05, 1.068957412844441e+01, -2.837844397699866e+03, -1.807155965550126e+02, 2.871372197401950e+03
579, 2.000000000000053e-04, 5.999999999991606e-03, 4.860862883633938e-04, -4.941091674976429e-05, -2.441182812098995e+01, -3.767658239476714e+03, -3.843901778752241e+02, 3.821376313779539e+03
580, -1.999999999999690e-04, 5.900000000008779e-03, 4.765707730790181e-04, 2.495109078354524e-06, 9.025818364976419e+01, 4.039202020448061e+03, 6.257756013481780e+02, 4.142527952731031e+03
581, -1.499999999999408e-04, 5.900000000006594e-03, 4.761118793164386e-04, -3.871244725347247e-06, 9.500689056145012e+01, 3.021112007534751e+03, 5.801015472258147e+02, 3.147723363949327e+03
582, -9.999999999989724e-05, 5.900000000004408e-03, 4.756677060660077e-04, -1.023589296582117e-05, 9.482697038718555e+01, 2.007092370683965e+03, 5.105948775233923e+02, 2.167853195441221e+03
583, -4.999999999987495e-05, 5.900000000002220e-03, 4.752381496046715e-04, -1.660001872459802e-05, 8.942314582213493e+01, 9.977374105306592e+02, 4.173150739464892e+02, 1.233548656212977e+03
584, 1.153862162067698e-16, 5.900000000000033e-03, 4.748230924353077e-04, -2.296480478664970e-05, 7.849772081109893e+01, -6.354854371093438e+00, 3.003215776342848e+02, 6.066070882260054e+02
585, 5.000000000005830e-05, 5.899999999997847e-03, 4.744224032366602e-04, -2.933143365132246e-05, 6.175073634508158e+01, -1.004582716926790e+03, 1.596743735686241e+02, 1.113126522846727e+03
586, 1.000000000000340e-04, 5.899999999995659e-03, 4.740359368135946e-04, -3.570108752795782e-05, 3.887991138444926e+01, -1.996340898831535e+03, -4.565777629851809e+00, 2.035241295679131e+03
587, 1.500000000000191e-04, 5.899999999993472e-03, 4.736635340474851e-04, -4.207494832704297e-05, 9.580630902084067e+00, -2.981020579903492e+03, -1.923372344200383e+02, 3.015239633768628e+03
588, 2.000000000000034e-04, 5.899999999991286e-03, 4.733050218463531e-04, -4.845419765032860e-05, -2.645400860494365e+01, -3.958009350247403e+03, -4.035774155401552e+02, 4.013555322371131e+03
589, -1.999999999999710e-04, 5.800000000009150e-03, 4.638229557137121e-04, 3.162850332695772e-06, 9.310891872052645e+01, 4.233780180868594e+03, 6.503854219414518e+02, 4.340180098737231e+03
590, -1.499999999999452e-04, 5.800000000006880e-03, 4.633662029618920e-04, -3.167486787292999e-06, 9.753648575193068e+01, 3.166663428462042e+03, 6.013010268725022e+02, 3.296330063895425e+03
591, -9.999999999990477e-05, 5.800000000004606e-03, 4.629248705961374e-04, -9.496108812057946e-06, 9.695254945557804e+01, 2.103700316770580e+03, 5.277966658782841e+02, 2.267446555858082e+03
592, -4.999999999988512e-05, 5.800000000002332e-03, 4.624988534057871e-04, -1.582422808950120e-05, 9.106327211101927e+01, 1.045487384207687e+03, 4.299263826439769e+02, 1.284629193084469e+03
593, 1.025655255171287e-16, 5.800000000000059e-03, 4.620880324003179e-04, -2.215305680862294e-05, 7.957044167076288e+01, -7.375905022305801e+00, 3.077447832982456e+02, 6.216004132820441e+02
594, 5.000000000004811e-05, 5.799999999997786e-03, 4.616922747481030e-04, -2.848380699656314e-05, 6.217289626008568e+01, -1.054286538757973e+03, 1.613071893471914e+02, 1.162136699094046e+03
595, 1.000000000000264e-04, 5.799999999995513e-03, 4.613114337222586e-04, -3.481769051137507e-05, 3.856695231619034e+01, -2.094637774822335e+03, -9.330257592936221e+00, 2.133286343347548e+03
596, 1.500000000000147e-04, 5.799999999993240e-03, 4.609453486485375e-04, -4.115591903228253e-05, 8.446537282016095e+00, -3.127819107617212e+03, -2.041105102878425e+02, 3.162721390988308e+03
597, 2.000000000000015e-04, 5.799999999990969e-03, 4.605938448543732e-04, -4.749970404874610e-05, -2.849671318877654e+01, -4.153216250799174e+03, -4.229755583009494e+02, 4.210575323589988e+03
598, -1.999999999999729e-04, 5.700000000009518e-03, 4.511471004570624e-04, 3.814380379409688e-06, 9.588935260440894e+01, 4.433224422749518e+03, 6.751758454647703e+02, 4.542678196824749e+03
599, -1.499999999999495e-04, 5.700000000007160e-03, 4.506926206785986e-04, -2.478216875004552e-06, 9.998319138438944e+01, 3.315883528503617e+03, 6.226410736661034e+02, 3.448585594812440e+03
600, -9.999999999991239e-05, 5.700000000004800e-03, 4.502542778638889e-04, -8.769090049735432e-06, 9.899206409775923e+01, 2.202775425303033e+03, 5.450983453438712e+02, 2.369479532570532e+03
601, -4.999999999989533e-05, 5.700000000002444e-03, 4.498319655052471e-04, -1.505948076550429e-05, 9.261986540274665e+01, 1.094497248672811e+03, 4.425957985528683e+02, 1.336907795883724e+03
602, 8.974483482748763e-17, 5.700000000000083e-03, 4.494255632944379e-04, -2.135063063841407e-05, 8.056713434894232e+01, -8.350388960439659e+00, 3.151828763851275e+02, 6.366060855953899e+02
603, 5.000000000003792e-05, 5.699999999997726e-03, 4.490349370643043e-04, -2.764378125758017e-05, 6.253160188988267e+01, -1.105163036384547e+03, 1.629099572472229e+02, 1.212299214276747e+03
604, 1.000000000000188e-04, 5.699999999995369e-03, 4.486599387328619e-04, -3.394017417148243e-05, 3.820836238847704e+01, -2.195332340325132e+03, -1.417168128391458e+01, 2.233720532403294e+03
605, 1.500000000000104e-04, 5.699999999993010e-03, 4.483004062487760e-04, -4.024105087571350e-05, 7.289974846015753e+00, -3.278246020803408e+03, -2.160098092648616e+02, 3.313817697083323e+03
606, 1.999999999999996e-04, 5.699999999990651e-03, 4.479561635378385e-04, -4.654765279999825e-05, -3.053343578733768e+01, -4.353287860733518e+03, -4.425511526838884e+02, 4.412438317909854e+03
607, -1.999999999999748e-04, 5.600000000009672e-03, 4.385466854868325e-04, 4.449142273407453e-06, 9.859945489141614e+01, 4.637548123254862e+03, 7.001166519774958e+02, 4.750021928322332e+03
608, -1.499999999999538e-04, 5.600000000007281e-03, 4.380946119997527e-04, -1.803950258146170e-06, 1.023480479567397e+02, 3.468784594621210e+03, 6.441008912822249e+02, 3.604491483596601e+03
609, -9.999999999991998e-05, 5.600000000004890e-03, 4.376594087371976e-04, -8.055310092169007e-06, 1.009455287009268e+02, 2.304327588923505e+03, 5.624869874840489e+02, 2.473956132930860e+03
610, -4.999999999990553e-05, 5.600000000002499e-03, 4.372409680889849e-04, -1.430620817993403e-05, 9.409226493805812e+01, 1.144774050161062e+03, 4.553181228566093e+02, 1.390392241709534e+03
611, 7.692414413784654e-17, 5.600000000000110e-03, 4.368391686194534e-04, -2.055791560036959e-05, 8.148733689746541e+01, -9.274239954779262e+00, 3.226385500146948e+02, 6.516288818453681e+02
612, 5.000000000002774e-05, 5.599999999997718e-03, 4.364538750151718e-04, -2.681170354003853e-05, 6.282733493083998e+01, -1.157211314468490e+03, 1.644934520635657e+02, 1.263616511887723e+03
613, 1.000000000000112e-04, 5.599999999995330e-03, 4.360849380287194e-04, -3.306884327866118e-05, 3.780615168518528e+01, -2.298427115926854e+03, -1.907105499471614e+01, 2.336544607160684e+03
614, 1.500000000000060e-04, 5.599999999992939e-03, 4.357321944215879e-04, -3.933060617603444e-05, 6.114955995779212e+00, -3.432307511298729e+03, -2.280078616908380e+02, 3.468529861997294e+03
615, 1.999999999999977e-04, 5.599999999990549e-03, 4.353954669070777e-04, -4.559826365801234e-05, -3.255781444657077e+01, -4.558234315538308e+03, -4.622687663366258e+02, 4.619146830514863e+03
616, -1.999999999999767e-04, 5.500000000009695e-03, 4.260252739246680e-04, 5.066576692423279e-06, 1.012576615804247e+02, 4.846779508595351e+03, 7.251687904835329e+02, 4.962202807147383e+03
617, -1.499999999999582e-04, 5.500000000007305e-03, 4.255757412546058e-04, -1.145204602278288e-06, 1.046467300673523e+02, 3.625390282195423e+03, 6.656511396582341e+02, 3.764040504400107e+03
618, -9.999999999992762e-05, 5.500000000004914e-03, 4.251438286901843e-04, -7.355244796395158e-06, 1.028232570737433e+02, 2.408374333418072e+03, 5.799432720680145e+02, 2.580872441811162e+03
619, -4.999999999991570e-05, 5.500000000002524e-03, 4.247294277247332e-04, -1.356484422999522e-05, 9.548690864355751e+01, 1.196329918720820e+03, 4.680838102476072e+02, 1.445083093285517e+03
620, 6.410345344820545e-17, 5.500000000000133e-03, 4.243324160071289e-04, -1.977530348798342e-05, 8.233535889087830e+01, -1.014004934879847e+01, 3.301117848832585e+02, 6.666684807341185e+02
621, 5.000000000001756e-05, 5.499999999997745e-03, 4.239526572883321e-04, -2.598792339518640e-05, 6.306375836446392e+01, -1.210428256616074e+03, 1.660670014029268e+02, 1.316090767401332e+03
622, 1.000000000000036e-04, 5.499999999995354e-03, 4.235900013638844e-04, -3.220400500692218e-05, 3.736451587354139e+01, -2.403923066255392e+03, -2.400983775233405e+01, 2.441759805528076e+03
623, 1.500000000000017e-04, 5.499999999992964e-03, 4.232442840146764e-04, -3.842484959794852e-05, 4.927200238034914e+00, -3.590008552949507e+03, -2.400770409612627e+02, 3.626859662563875e+03
624, 1.999999999999958e-04, 5.499999999990576e-03, 4.229153269466312e-04, -4.465175865015163e-05, -3.456151885869053e+01, -4.768064510730242e+03, -4.820918318229787e+02, 4.830703956081211e+03
625, -1.999999999999786e-04, 5.400000000009719e-03, 4.135865155511521e-04, 5.666122230195953e-06, 1.038436771065722e+02, 5.060923483561635e+03, 7.502905942454186e+02, 5.179226207728056e+03
626, -1.499999999999625e-04, 5.400000000007331e-03, 4.131396588006109e-04, -5.024995662018300e-07, 1.068634589810882e+02, 3.785705977046685e+03, 6.872591891005675e+02, 3.927236056661211e+03
627, -9.999999999993521e-05, 5.400000000004939e-03, 4.127111886805659e-04, -6.669371970903243e-06, 1.046141374643381e+02, 2.514921134853199e+03, 5.974450233686848e+02, 2.690230853561408e+03
628, -4.999999999992589e-05, 5.400000000002551e-03, 4.123009959905086e-04, -1.283582473371488e-05, 9.679620548156259e+01, 1.249169310460681e+03, 4.808811752475408e+02, 1.500983208403425e+03
629, 5.128276275856436e-17, 5.400000000000158e-03, 4.119089576761695e-04, -1.900318798099749e-05, 8.310645764845867e+01, -1.094523271977295e+01, 3.376011806458799e+02, 6.817213134082650e+02
630, 5.000000000000737e-05, 5.399999999997771e-03, 4.115349367680938e-04, -2.517279221723744e-05, 6.323871597309301e+01, -1.264813787114326e+03, 1.676392663676931e+02, 1.369720827566681e+03
631, 9.999999999999598e-05, 5.399999999995381e-03, 4.111787823205234e-04, -3.134596831973044e-05, 3.688389245883917e+01, -2.511823126965998e+03, -2.896949214346240e+01, 2.549365489051273e+03
632, 1.499999999999973e-04, 5.399999999992991e-03, 4.108403293494811e-04, -3.752404753032337e-05, 3.729964294876424e+00, -3.751355495513923e+03, -2.521890640486696e+02, 3.788807742096507e+03
633, 1.999999999999938e-04, 5.399999999990601e-03, 4.105193987700383e-04, -4.370836144592886e-05, -3.653810699739699e+01, -4.982788636485353e+03, -5.019823796902230e+02, 5.047111999801245e+03
634, -1.999999999999805e-04, 5.300000000009745e-03, 4.012341464894733e-04, 6.247215775889563e-06, 1.063382131809412e+02, 5.279988185862959e+03, 7.754426699864674e+02, 5.401101681840069e+03
635, -1.499999999999669e-04, 5.300000000007331e-03, 4.007901009160071e-04, 1.236435894346360e-07, 1.089791637662055e+02, 3.949737157307983e+03, 7.088952259111477e+02, 4.094087411161800e+03
636, -9.999999999994280e-05, 5.300000000004915e-03, 4.003652251633938e-04, -5.998170919756100e-06, 1.063029388262709e+02, 2.623972700289309e+03, 6.149719924438135e+02, 2.802039120666699e+03
637, -4.999999999993605e-05, 5.300000000002501e-03, 3.999594095517364e-04, -1.211958691219652e-05, 9.800894587217510e+01, 1.303295831609355e+03, 4.936998328324300e+02, 1.558099668405429e+03
638, 3.846207206892327e-17, 5.300000000000087e-03, 3.995725305387420e-04, -1.824196408026124e-05, 8.379310690601858e+01, -1.168791604641274e+01, 3.451063517310421e+02, 6.967856210948112e+02
639, 4.999999999999720e-05, 5.299999999997673e-03, 3.992044506528498e-04, -2.436666264415653e-05, 6.334809518535974e+01, -1.320368371303200e+03, 1.692198934068142e+02, 1.424504387122076e+03
640, 9.999999999998842e-05, 5.299999999995259e-03, 3.988550184276484e-04, -3.049504334718608e-05, 3.636345283963203e+01, -2.622130651259496e+03, -3.393035845463399e+01, 2.659360069345492e+03
641, 1.499999999999930e-04, 5.299999999992844e-03, 3.985240683365162e-04, -3.662846744884743e-05, 2.525628882698470e+00, -3.916355138717044e+03, -2.643142764883921e+02, 3.954374112003753e+03
642, 1.999999999999920e-04, 5.299999999990430e-03, 3.982114207273403e-04, -4.276829671629342e-05, -3.848194643323313e+01, -5.202417421032908e+03, -5.219007176118610e+02, 5.268372710999486e+03
643, -1.999999999999824e-04, 5.200000000009989e-03, 3.889719887277979e-04, 6.809293379979265e-06, 1.087331089919373e+02, 5.503987238669755e+03, 8.005845483077759e+02, 5.627833472994933e+03
644, -1.499999999999712e-04, 5.200000000007502e-03, 3.885308894953196e-04, 7.327027742752369e-07, 1.109861378858276e+02, 4.117495954223848e+03, 7.305294557201872e+02, 4.264600104477822e+03
645, -9.999999999995044e-05, 5.200000000005017e-03, 3.881097599238120e-04, -5.342121719055402e-06, 1.078821693254824e+02, 2.735538535712076e+03, 6.325044343231285e+02, 2.916303382291643e+03
646, -4.999999999994625e-05, 5.200000000002529e-03, 3.877084900871398e-04, -1.141656868754376e-05, 9.911887620459822e+01, 1.358716335470604e+03, 5.065301079116288e+02, 1.616439531895098e+03
647, 2.564138137928218e-17, 5.200000000000042e-03, 3.873269561851478e-04, -1.749202741181035e-05, 8.439105590570159e+01, -1.236398546779839e+01, 3.526278207842905e+02, 7.118616845957495e+02
648, 4.999999999998700e-05, 5.199999999997556e-03, 3.869650204746070e-04, -2.356988786039306e-05, 6.339022761494874e+01, -1.377090781095425e+03, 1.708196952198225e+02, 1.480440140483643e+03
649, 9.999999999998081e-05, 5.199999999995069e-03, 3.866225311999845e-04, -2.965154068407377e-05, 3.580459442016030e+01, -2.734847491085818e+03, -3.887128351376842e+01, 2.771742572037789e+03
650, 1.499999999999887e-04, 5.199999999992581e-03, 3.862993225247686e-04, -3.573837720876120e-05, 1.319096332845334e+00, -4.085012619585618e+03, -2.764211736769962e+02, 4.123559330669198e+03
651, 1.999999999999900e-04, 5.199999999990096e-03, 3.859952144632176e-04, -4.183178942700213e-05, -4.038450445007538e+01, -5.426959697210588e+03, -5.418049641675523e+02, 5.494488400574650e+03
652, -1.999999999999843e-04, 5.100000000010360e-03, 3.768039503748950e-04, 7.351791133823554e-06, 1.110230010703396e+02, 5.732935479363756e+03, 8.256723554883497e+02, 5.859423117343716e+03
653, -1.499999999999755e-04, 5.100000000007788e-03, 3.763659322259550e-04, 1.324155938216116e-06, 1.128799744666030e+02, 4.288996054156248e+03, 7.521291875493034e+02, 4.438776720009321e+03
654, -9.999999999995803e-05, 5.100000000005215e-03, 3.759487002047154e-04, -4.701704390732972e-06, 1.093472132801529e+02, 2.849629565363141e+03, 6.500208439980893e+02, 3.033027490753327e+03
655, -4.999999999995644e-05, 5.100000000002642e-03, 3.755521443858902e-04, -1.072720789012370e-05, 1.001217479964912e+02, 1.415438641075688e+03, 5.193615364824141e+02, 1.676008398406466e+03
656, 1.282069068964109e-17, 5.100000000000066e-03, 3.751761409577926e-04, -1.675377345587786e-05, 8.489726234272132e+01, -1.296877008033374e+01, 3.601660917811266e+02, 7.269499398017679e+02
657, 4.999999999997683e-05, 5.099999999997495e-03, 3.748205521499170e-04, -2.278282083895237e-05, 6.336394910877573e+01, -1.434979618943212e+03, 1.724501294728507e+02, 1.537527117336007e+03
658, 9.999999999997324e-05, 5.099999999994921e-03, 3.744852261615265e-04, -2.881577063883440e-05, 3.520857701901599e+01, -2.849975716256019e+03, -4.376984894099324e+01, 2.886512013636222e+03
659, 1.499999999999843e-04, 5.099999999992348e-03, 3.741699970903093e-04, -3.485404429650277e-05, 1.145060121924075e-01, -4.257333720099195e+03, -2.884763724076778e+02, 4.296363563267077e+03
660, 1.999999999999881e-04, 5.099999999989774e-03, 3.738746848609815e-04, -4.089906408581374e-05, -4.223834267879869e+01, -5.656425155723242e+03, -5.616508988655827e+02, 5.725460723867398e+03
661, -1.999999999999862e-04, 5.000000000010596e-03, 3.647340261467628e-04, 7.874145880593307e-06, 1.131971847309912e+02, 5.966845764113685e+03, 8.506598010582297e+02, 6.095874841190124e+03
662, -1.499999999999799e-04, 5.000000000007969e-03, 3.642992229496373e-04, 1.897481815751030e-06, 1.146502655399083e+02, 4.464247715474869e+03, 7.736597646358480e+02, 4.616621676306852e+03
663, -9.999999999996564e-05, 5.000000000005344e-03, 3.638860389725169e-04, -4.077398137046135e-06, 1.106892193359330e+02, 2.966253889957809e+03, 6.674983539935478e+02, 3.152216013924206e+03
664, -4.999999999996662e-05, 5.000000000002718e-03, 3.634943645474302e-04, -1.005194148688306e-05, 1.010106722449947e+02, 1.473468678271045e+03, 5.321828926889684e+02, 1.736811879101532e+03
665, 0.000000000000000e+00, 5.000000000000093e-03, 3.631240761041210e-04, -1.602759677718699e-05, 8.530690015487426e+01, -1.349889470254948e+01, 3.677214672689157e+02, 7.420504666523863e+02
666, 4.999999999996663e-05, 4.999999999997467e-03, 3.627750360975532e-04, -2.200581357739839e-05, 6.326665538547843e+01, -1.494034482517856e+03, 1.741229722506741e+02, 1.595763789530473e+03
667, 9.999999999996559e-05, 4.999999999994841e-03, 3.624470929348213e-04, -2.798804247753148e-05, 3.457519760535689e+01, -2.967518334342278e+03, -4.860283553018883e+01, 3.003666845215715e+03
668, 1.499999999999799e-04, 4.999999999992216e-03, 3.621400809012445e-04, -3.397573508221799e-05, -1.085740256214876e+00, -4.433325289364120e+03, -3.004452500111674e+02, 4.472786247261692e+03
669, 1.999999999999863e-04, 4.999999999989590e-03, 3.618538200857844e-04, -3.997034400410848e-05, -4.403802071383780e+01, -5.890824807011235e+03, -5.813925195761210e+02, 5.961290529046385e+03
670, -1.999999999999881e-04, 4.900000000010410e-03, 3.527662974752516e-04, 8.375795913926814e-06, 1.152350811458105e+02, 6.205721522492969e+03, 8.755010248546921e+02, 6.337194432106375e+03
671, -1.499999999999843e-04, 4.900000000007836e-03, 3.523348417773242e-04, 2.452160663810511e-06, 1.162801348530330e+02, 4.643254375678461e+03, 7.950869512511966e+02, 4.798140141481557e+03
672, -9.999999999997321e-05, 4.900000000005265e-03, 3.519258550413028e-04, -3.469680565712643e-06, 1.118960913045037e+02, 3.085415837169880e+03, 6.849141577879135e+02, 3.273873744237030e+03
673, -4.999999999997681e-05, 4.900000000002690e-03, 3.515392281062571e-04, -9.391204789424380e-06, 1.017772231976797e+02, 1.532810386770331e+03, 5.449829219982607e+02, 1.798855596295545e+03
674, -1.282069068964109e-17, 4.900000000000120e-03, 3.511748378981682e-04, -1.531389022668640e-05, 8.561467212267956e+01, -1.395182978677707e+01, 3.752943985550685e+02, 7.571638070125437e+02
675, 4.999999999995644e-05, 4.899999999997547e-03, 3.508325473568078e-04, -2.123921629873575e-05, 6.309606188677498e+01, -1.554254995453668e+03, 1.758504662173568e+02, 1.655148932439524e+03
676, 9.999999999995801e-05, 4.899999999994974e-03, 3.505122053594284e-04, -2.716866362606695e-05, 3.390533986362186e+01, -3.087477670405409e+03, -5.334617479472973e+01, 3.123205909679520e+03
677, 1.499999999999756e-04, 4.899999999992402e-03, 3.502136466432797e-04, -3.310371402458381e-05, -2.277246364947416e+00, -4.612992770660355e+03, -3.122918958218331e+02, 4.652827372551303e+03
678, 1.999999999999843e-04, 4.899999999989829e-03, 3.499366917277328e-04, -3.904585050007560e-05, -4.577510597720845e+01, -6.130167508927179e+03, -6.009820525584370e+02, 6.201979411693072e+03
679, -1.999999999999901e-04, 4.800000000010084e-03, 3.409049321555096e-04, 8.856182025535173e-06, 1.171417506193256e+02, 6.449583415464860e+03, 9.001460263402406e+02, 6.583378229573035e+03
680, -1.499999999999886e-04, 4.800000000007600e-03, 3.404769549561851e-04, 2.987675264760149e-06, 1.177734337260325e+02, 4.826034143632303e+03, 8.163732285952061e+02, 4.983330202376213e+03
681, -9.999999999998080e-05, 4.800000000005114e-03, 3.400723130574850e-04, -2.879026747265457e-06, 1.129688582873042e+02, 3.207129404181067e+03, 7.022429392594998e+02, 3.398000892690417e+03
682, -4.999999999998701e-05, 4.800000000002629e-03, 3.396908980746891e-04, -8.745430550043234e-06, 1.024209621839962e+02, 1.593473792665058e+03, 5.577487573890354e+02, 1.862142112933822e+03
683, -2.564138137928218e-17, 4.800000000000143e-03, 3.393325877065488e-04, -1.461304406163276e-05, 8.582007028557865e+01, -1.432127709784709e+01, 3.828845543408045e+02, 7.722892057168699e+02
684, 4.999999999994627e-05, 4.799999999997659e-03, 3.389972456559592e-04, -2.048337658543045e-05, 6.285267817088948e+01, -1.615638531027020e+03, 1.776448389372264e+02, 1.715681641377209e+03
685, 9.999999999995042e-05, 4.799999999995174e-03, 3.386847215492616e-04, -2.635793881102977e-05, 3.320138243998389e+01, -3.209854860204667e+03, -5.797508627130713e+01, 3.245128385051830e+03
686, 1.499999999999713e-04, 4.799999999992687e-03, 3.383948508550566e-04, -3.223824281231454e-05, -3.455149777669817e+00, -4.796341325538048e+03, -3.239790050196120e+02, 4.836487100837646e+03
687, 1.999999999999824e-04, 4.799999999990203e-03, 3.381274548025622e-04, -3.812580204338801e-05, -4.744210644728946e+01, -6.374463076044111e+03, -6.203696532248523e+02, 6.447528858119768e+03
688, -1.999999999999919e-04, 4.700000000009747e-03, 3.291541853950072e-04, 9.314748446008135e-06, 1.189166061301446e+02, 6.698452568034367e+03, 9.245387744542138e+02, 6.834426183365221e+03
689, -1.499999999999929e-04, 4.700000000007334e-03, 3.287298156120455e-04, 3.503511810588619e-06, 1.191276243982223e+02, 5.012604945579609e+03, 8.374756242512761e+02, 5.172193149697411e+03
690, -9.999999999998839e-05, 4.700000000004922e-03, 3.283296640227712e-04, -2.305908351233697e-06, 1.139030950857961e+02, 3.331407847983655e+03, 7.194558830758072e+02, 3.524599822063474e+03
691, -4.999999999999717e-05, 4.700000000002511e-03, 3.279536233155390e-04, -8.115048105477434e-06, 1.029374087302882e+02, 1.655468268801025e+03, 5.704655026532608e+02, 1.926674759875608e+03
692, -3.846207206892327e-17, 4.700000000000096e-03, 3.276015722573462e-04, -1.392544509012159e-05, 8.591973283532468e+01, -1.460139449184413e+01, 3.904906978344059e+02, 7.874239248460323e+02
693, 4.999999999993608e-05, 4.699999999997685e-03, 3.272733756077607e-04, -1.973863852248008e-05, 6.253512197164633e+01, -1.678182662577985e+03, 1.795183193948281e+02, 1.777359196516210e+03
694, 9.999999999994281e-05, 4.699999999995272e-03, 3.269688840345891e-04, -2.555616920113008e-05, 3.246460763206966e+01, -3.334650935573808e+03, -6.246400178651601e+01, 3.369432309362418e+03
695, 1.499999999999669e-04, 4.699999999992859e-03, 3.266879340298158e-04, -3.137957950509955e-05, -4.614766601215649e+00, -4.983375454791941e+03, -3.354677450283622e+02, 5.023764765799751e+03
696, 1.999999999999805e-04, 4.699999999990447e-03, 3.264303478254954e-04, -3.721041339204225e-05, -4.903016913916986e+01, -6.623719477855814e+03, -6.395033930381835e+02, 6.697939822436623e+03
697, -1.999999999999939e-04, 4.600000000009572e-03, 3.175184004867055e-04, 9.750943303797036e-06, 1.205176798306659e+02, 6.952320568277917e+03, 9.486262254094373e+02, 7.090352429092255e+03
698, -1.499999999999973e-04, 4.600000000007185e-03, 3.170977641860503e-04, 3.999160480657633e-06, 1.203074715472135e+02, 5.202960794745279e+03, 8.583542957333857e+02, 5.364741670558999e+03
699, -9.999999999999598e-05, 4.600000000004799e-03, 3.167022455903622e-04, -1.750792962252944e-06, 1.146733309172250e+02, 3.458249108932067e+03, 7.365264560956213e+02, 3.653680865297715e+03
700, -5.000000000000737e-05, 4.600000000002412e-03, 3.163317387500346e-04, -7.500482617469086e-06, 1.033085577003191e+02, 1.718793396766766e+03, 5.831199774708208e+02, 1.992462521041695e+03
701, -5.126921023140829e-17, 4.600000000000025e-03, 3.159861237889036e-04, -1.325147586199189e-05, 8.590140224088134e+01, -1.479273952162970e+01, 3.981130524370293e+02, 8.025679536763251e+02
702, 4.999999999992590e-05, 4.599999999997638e-03, 3.156652668143638e-04, -1.900534185694697e-05, 6.213573392335900e+01, -1.741889469396553e+03, 1.814845713750166e+02, 1.840177581865985e+03
703, 9.999999999993524e-05, 4.599999999995251e-03, 3.153690198295149e-04, -2.476365154814471e-05, 3.169118781214917e+01, -3.461870630464197e+03, -6.678580396120034e+01, 3.496114350612878e+03
704, 1.499999999999625e-04, 4.599999999992864e-03, 3.150972206455626e-04, -3.052797766608074e-05, -5.756815328737389e+00, -5.174103705552992e+03, -3.467175354055418e+02, 5.214658356510185e+03
705, 1.999999999999786e-04, 4.599999999990477e-03, 3.148496927941575e-04, -3.629989472369317e-05, -5.053684505611409e+01, -6.877949597276404e+03, -6.583291593119279e+02, 6.953211777098526e+03
706, -1.999999999999958e-04, 4.500000000009600e-03, 3.060020073112998e-04, 1.016421973342197e-05, 1.219420436408893e+02, 7.211203703929049e+03, 9.723557832988151e+02, 7.351158681819503e+03
707, -1.500000000000016e-04, 4.500000000007212e-03, 3.055852275082386e-04, 4.474116496924047e-06, 1.213085866902551e+02, 5.397114858032006e+03, 8.789709725573614e+02, 5.560979382727713e+03
708, -1.000000000000036e-04, 4.500000000004825e-03, 3.051944815125692e-04, -1.214143061020181e-06, 1.152743687937094e+02, 3.587663445387770e+03, 7.534293463344399e+02, 3.785248871464268e+03
709, -5.000000000001756e-05, 4.500000000002437e-03, 3.048296650440490e-04, -6.902154077869225e-06, 1.035298715084523e+02, 1.783456915298980e+03, 5.957000462953912e+02, 2.059511848250479e+03
710, -6.409667718462742e-17, 4.500000000000053e-03, 3.044906598876130e-04, -1.259151368995618e-05, 8.576225370282623e+01, -1.489003215287443e+01, 4.057529333244028e+02, 8.177240697529985e+02
711, 4.999999999991571e-05, 4.499999999997665e-03, 3.041773338045118e-04, -1.828382102922749e-05, 6.165434265606496e+01, -1.806756137376023e+03, 1.835585803511555e+02, 1.904135691482060e+03
712, 9.999999999992765e-05, 4.499999999995279e-03, 3.038895404418253e-04, -2.398067722406188e-05, 3.088457518971188e+01, -3.591513570321925e+03, -7.091167951111294e+01, 3.625173401338272e+03
713, 1.499999999999582e-04, 4.499999999992891e-03, 3.036271192415298e-04, -2.968368539985235e-05, -6.872999343931895e+00, -5.368527890172370e+03, -3.576856667792670e+02, 5.409168079586899e+03
714, 1.999999999999767e-04, 4.499999999990504e-03, 3.033898953492434e-04, -3.539445067951961e-05, -5.194871582117878e+01, -7.137158053397006e+03, -6.767901641718817e+02, 7.213346731063945e+03
715, -1.999999999999977e-04, 4.400000000009622e-03, 2.946095228408683e-04, 1.055403725910880e-05, 1.231975846106374e+02, 7.475124056410094e+03, 9.956677280839524e+02, 7.616839222783755e+03
716, -1.500000000000059e-04, 4.400000000007235e-03, 2.941967191391033e-04, 4.927881418059444e-06, 1.221376123097303e+02, 5.595086918797158e+03, 8.992807475099094e+02, 5.760902495507898e+03
717, -1.000000000000112e-04, 4.400000000004850e-03, 2.938108818767789e-04, -6.964148220822198e-07, 1.157089653216022e+02, 3.719665759200277e+03, 7.701347717332658e+02, 3.919302851104372e+03
718, -5.000000000002772e-05, 4.400000000002464e-03, 2.934519087682721e-04, -6.320476177136187e-06, 1.036017384738399e+02, 1.849469311451114e+03, 6.081908247041320e+02, 2.127824687184244e+03
719, -7.691736787426851e-17, 4.400000000000076e-03, 2.931196835861201e-04, -1.194592956725834e-05, 8.550177246307885e+01, -1.488688356869898e+01, 4.134102693346998e+02, 8.328926013751250e+02
720, 4.999999999990552e-05, 4.399999999997690e-03, 2.928140760711376e-04, -1.757440412353681e-05, 6.109059053788212e+01, -1.872780373018517e+03, 1.857550672330931e+02, 1.969232511334717e+03
721, 9.999999999991999e-05, 4.399999999995304e-03, 2.925349418396792e-04, -2.320753119183212e-05, 3.004523797767945e+01, -3.723581832421228e+03, -7.481210393369130e+01, 3.756607989558056e+03
722, 1.499999999999539e-04, 4.399999999992917e-03, 2.922821222896454e-04, -2.884694433567464e-05, -7.961766828497389e+00, -5.566655051949538e+03, -3.683277367739174e+02, 5.607292780367165e+03
723, 1.999999999999748e-04, 4.399999999990530e-03, 2.920554445060214e-04, -3.449427933674178e-05, -5.326266517702004e+01, -7.401357060898422e+03, -6.948274408527175e+02, 7.478344197660336e+03
724, -1.999999999999997e-04, 4.300000000009517e-03, 2.833455523717601e-04, 1.091986260095332e-05, 1.242655400073506e+02, 7.744086493473213e+03, 1.018499184324385e+03, 7.887397144607030e+03
725, -1.500000000000103e-04, 4.300000000007164e-03, 2.829368402427563e-04, 5.359964053169456e-06, 1.227789516777228e+02, 5.796882035365334e+03, 9.192356335096410e+02, 5.964513593242012e+03
726, -1.000000000000188e-04, 4.300000000004808e-03, 2.825560437217299e-04, -1.980571510926273e-07, 1.159657603844764e+02, 3.854261820462678e+03, 7.866103963801248e+02, 4.055845299758041e+03
727, -5.000000000003792e-05, 4.300000000002456e-03, 2.822030628415212e-04, -5.755855317187292e-06, 1.035159415884455e+02, 1.916835684695815e+03, 6.205756587073216e+02, 2.197404169346887e+03
728, -8.973805856390960e-17, 4.300000000000101e-03, 2.818777836941172e-04, -1.131508717092874e-05, 8.511448180881223e+01, -1.477980308751773e+01, 4.210839723427820e+02, 8.480717630076221e+02
729, 4.999999999989533e-05, 4.299999999997747e-03, 2.815800783347718e-04, -1.687741187085631e-05, 6.044171779606552e+01, -1.939960984074606e+03, 1.880883903066750e+02, 2.035465533956325e+03
730, 9.999999999991241e-05, 4.299999999995395e-03, 2.813098046852569e-04, -2.244449101616630e-05, 2.917330877733355e+01, -3.858077075426014e+03, -7.845738151745959e+01, 3.890416146422819e+03
731, 1.499999999999495e-04, 4.299999999993039e-03, 2.810668064363458e-04, -2.801798865189398e-05, -9.019825458869377e+00, -5.768490172854938e+03, -3.785988647680301e+02, 5.809031509997958e+03
732, 1.999999999999729e-04, 4.299999999990687e-03, 2.808509129494310e-04, -3.359957127318538e-05, -5.447130593418626e+01, -7.670555037970362e+03, -7.123806879182323e+02, 7.748204720544075e+03
733, -2.000000000000014e-04, 4.200000000009198e-03, 2.722147892839607e-04, 1.126117059391574e-05, 1.251319077365608e+02, 8.018100035983638e+03, 1.040787166220406e+03, 8.162836368260765e+03
734, -1.500000000000147e-04, 4.200000000006931e-03, 2.718102795186162e-04, 5.769881382503907e-06, 1.232192738354357e+02, 6.002508097155476e+03, 9.387881235739932e+02, 6.171817368641935e+03
735, -1.000000000000264e-04, 4.200000000004664e-03, 2.714346510571581e-04, 2.804892756486988e-07, 1.160336505596894e+02, 3.991458706913796e+03, 8.028241622800961e+02, 4.194880917210902e+03
736, -5.000000000004811e-05, 4.200000000002396e-03, 2.710878065897499e-04, -5.208689617295447e-06, 1.032640929477611e+02, 1.985561944785736e+03, 6.328382116595333e+02, 2.268255279191388e+03
737, -1.025587492535507e-16, 4.200000000000129e-03, 2.707696348704881e-04, -1.069934184085851e-05, 8.459497537002790e+01, -1.456451859328172e+01, 4.287735574603963e+02, 8.632610610655590e+02
738, 4.999999999988515e-05, 4.199999999997860e-03, 2.704800106150072e-04, -1.619315660608191e-05, 5.970568326300634e+01, -2.008295712849146e+03, 1.905739677157966e+02, 2.102832262213412e+03
739, 9.999999999990481e-05, 4.199999999995591e-03, 2.702187943990130e-04, -2.169182579974127e-05, 2.827067570022564e+01, -3.994999313071086e+03, -8.181617211380086e+01, 4.026596198605632e+03
740, 1.499999999999452e-04, 4.199999999993324e-03, 2.699858325569533e-04, -2.719704399139251e-05, -1.004046959002585e+01, -5.974035577450262e+03, -3.884517375059277e+02, 6.014384146034100e+03
741, 1.999999999999710e-04, 4.199999999991056e-03, 2.697809570809120e-04, -3.271050843845523e-05, -5.556316770971432e+01, -7.944757429412346e+03, -7.293867352241755e+02, 8.022930021941213e+03
742, -2.000000000000034e-04, 4.100000000008875e-03, 2.612220149506807e-04, 1.157744541727047e-05, 1.257925969863971e+02, 8.297180738638053e+03, 1.062465541411608e+03, 8.443157955899766e+03
743, -1.500000000000190e-04, 4.100000000006694e-03, 2.608218131592413e-04, 6.157159710999293e-06, 1.234531055754361e+02, 6.211979051690074e+03, 9.578886694618174e+02, 6.382816855342513e+03
744, -1.000000000000340e-04, 4.100000000004513e-03, 2.604514748557332e-04, 7.387931254071369e-07, 1.159058702675109e+02, 4.131267045188061e+03, 8.187430119180025e+02, 4.336413938188742e+03
745, -5.000000000005830e-05, 4.100000000002334e-03, 2.601109057519209e-04, -4.679367814645132e-06, 1.028396643195950e+02, 2.055655737681533e+03, 6.449618760715501e+02, 2.340383281157954e+03
746, -1.153726636796137e-16, 4.100000000000152e-03, 2.597999976245744e-04, -1.009903948551156e-05, 8.393789641216756e+01, -1.423636034518984e+01, 4.364788845495465e+02, 8.784608422236729e+02
747, 4.999999999987496e-05, 4.099999999997971e-03, 2.595186282096200e-04, -1.552194117459599e-05, 5.887884361990166e+01, -2.077783135407849e+03, 1.932281609719959e+02, 2.171329754181354e+03
748, 9.999999999989721e-05, 4.099999999995790e-03, 2.592666610970604e-04, -2.094979508949006e-05, 2.733568895313044e+01, -4.134350839764831e+03, -8.485556882911720e+01, 4.165145451668863e+03
749, 1.499999999999408e-04, 4.099999999993610e-03, 2.590439456262132e-04, -2.638432636570957e-05, -1.102346908045342e+01, -6.183298065111810e+03, -3.978368650391071e+02, 6.223348806996971e+03
750, 1.999999999999691e-04, 4.099999999991429e-03, 2.588503167809388e-04, -3.182726307280297e-05, -5.653560678034421e+01, -8.223975695255978e+03, -7.457794848372719e+02, 8.302519241703418e+03
751, -2.000000000000054e-04, 4.000000000008551e-03, 2.503720991966005e-04, 1.186818168418396e-05, 1.262300696736301e+02, 8.581334337967322e+03, 1.083466374235966e+03, 8.728366727178594e+03
752, -1.500000000000234e-04, 4.000000000006458e-03, 2.499763051453781e-04, 6.521335785837684e-06, 1.234652234503727e+02, 6.425300791827130e+03, 9.764863970267883e+02, 6.597517280399639e+03
753, -1.000000000000416e-04, 4.000000000004365e-03, 2.496113732548208e-04, 1.176433536186018e-06, 1.155703479216226e+02, 4.273692862325457e+03, 8.343331595752520e+02, 4.480449768657088e+03
754, -5.000000000006849e-05, 4.000000000002271e-03, 2.492772126283413e-04, -4.168268135513654e-06, 1.022333836125592e+02, 2.127122286921492e+03, 6.569298287808519e+02, 2.413794164901351e+03
755, -1.282069068964109e-16, 4.000000000000177e-03, 2.489737184347444e-04, -9.514515454158852e-06, 8.313677021988622e+01, -1.379159228477647e+01, 4.442000757774991e+02, 8.936721640180917e+02
756, 4.999999999986478e-05, 3.999999999998083e-03, 2.487007718003393e-04, -1.486405780834241e-05, 5.795771420743517e+01, -2.148421541593163e+03, 1.960680505222356e+02, 2.240955185221150e+03
757, 9.999999999988963e-05, 3.999999999995989e-03, 2.484582397009757e-04, -2.021864775967417e-05, 2.636818704996347e+01, -4.276132399767134e+03, -8.754152485686910e+01, 4.306061468889933e+03
758, 1.499999999999365e-04, 3.999999999993896e-03, 2.482459748538877e-04, -2.558004105149924e-05, -1.196509284694946e+01, -6.396281058965716e+03, -4.067032518091708e+02, 6.435924214545073e+03
759, 1.999999999999672e-04, 3.999999999991804e-03, 2.480638156094016e-04, -3.094999661655026e-05, -5.738059909814376e+01, -8.508216387836252e+03, -7.614909286485270e+02, 8.586972648487523e+03
760, -2.000000000000072e-04, 3.900000000008219e-03, 2.396700000762808e-04, 1.213288561057455e-05, 1.264327836928877e+02, 8.870568930010642e+03, 1.103720614377400e+03, 9.018465153436433e+03
761, -1.500000000000277e-04, 3.900000000006203e-03, 2.392787071441845e-04, 6.861957998715004e-06, 1.232456767022276e+02, 6.642481182131298e+03, 9.945298027358228e+02, 6.815921778407235e+03
762, -1.000000000000492e-04, 3.900000000004186e-03, 2.389192915205827e-04, 1.593001325480934e-06, 1.150187179159449e+02, 4.418743496694122e+03, 8.495602558078467e+02, 4.626992271925948e+03
763, -5.000000000007867e-05, 3.900000000002170e-03, 2.385916660779680e-04, -3.675757088367158e-06, 1.014385002676241e+02, 2.199967724311943e+03, 6.687250268668824e+02, 2.488493027999175e+03
764, -1.410275975860520e-16, 3.900000000000153e-03, 2.382957297572760e-04, -8.946093333895717e-06, 8.218669652175117e+01, -1.322588824509853e+01, 4.519375159729915e+02, 9.088969329397273e+02
765, 4.999999999985460e-05, 3.899999999998138e-03, 2.380313674579044e-04, -1.421978692511472e-05, 5.693961301241711e+01, -2.220208926711430e+03, 1.991115464964251e+02, 2.311706534956209e+03
766, 9.999999999988204e-05, 3.899999999996121e-03, 2.377984499263212e-04, -1.949862081034105e-05, 2.536813403281178e+01, -4.420344779183721e+03, -8.983853285936831e+01, 4.449342328331854e+03
767, 1.499999999999321e-04, 3.899999999994104e-03, 2.375968336442038e-04, -2.478438138225875e-05, -1.286228387788731e+01, -6.612988593706606e+03, -4.149977328830112e+02, 6.652109423249548e+03
768, 1.999999999999652e-04, 3.899999999992088e-03, 2.374263607166026e-04, -3.007885848665016e-05, -5.809172520583400e+01, -8.797487346730130e+03, -7.764503066790692e+02, 8.876290674853213e+03
769, -2.000000000000091e-04, 3.800000000007874e-03, 2.291207639823374e-04, 1.237107641582189e-05, 1.264036124205028e+02, 9.164902552091291e+03, 1.123154647688292e+03, 9.313450946503404e+03
770, -1.500000000000321e-04, 3.800000000005924e-03, 2.287340586363929e-04, 7.178587731533018e-06, 1.227950813105640e+02, 6.863535673747114e+03, 1.011963369737428e+03, 7.038029779795137e+03
771, -1.000000000000568e-04, 3.800000000003971e-03, 2.283802621722109e-04, 1.988100298603188e-06, 1.142492093511922e+02, 4.566431044666060e+03, 8.643871501771769e+02, 4.776042679486161e+03
772, -5.000000000008884e-05, 3.800000000002021e-03, 2.280592916279085e-04, -3.202188184195233e-06, 1.004522443712279e+02, 2.274201134438048e+03, 6.803286940539880e+02, 2.564482942988616e+03
773, -1.538415120121150e-16, 3.800000000000070e-03, 2.277710501159186e-04, -8.394083690549268e-06, 8.108505875522133e+01, -1.253308130622497e+01, 4.596908134898607e+02, 9.241357758340730e+02
774, 4.999999999984441e-05, 3.799999999998119e-03, 2.275154267092255e-04, -1.358939588435903e-05, 5.582299055954536e+01, -2.293142152619692e+03, 2.023766426640855e+02, 2.383581856336174e+03
775, 9.999999999987444e-05, 3.799999999996168e-03, 2.272922963262576e-04, -1.878993813387185e-05, 2.433576295787759e+01, -4.566988146407428e+03, -9.171021970545763e+01, 4.594986213069981e+03
776, 1.499999999999278e-04, 3.799999999994218e-03, 2.271015196151045e-04, -2.399752752369291e-05, -1.371252824074497e+01, -6.833424592645239e+03, -4.226655761203612e+02, 6.871903477082084e+03
777, 1.999999999999633e-04, 3.799999999992265e-03, 2.269429428375344e-04, -2.921398486433688e-05, -5.866331873463412e+01, -9.091796354232585e+03, -7.905845190431963e+02, 9.170473704449922e+03
778, -2.000000000000110e-04, 3.700000000007529e-03, 2.187295264472824e-04, 1.258228750310911e-05, 1.261278756180147e+02, 9.464340660380265e+03, 1.141691558385070e+03, 9.613327024056140e+03
779, -1.500000000000364e-04, 3.700000000005644e-03, 2.183474874798851e-04, 7.470800569121517e-06, 1.221008231267548e+02, 7.088470497159658e+03, 1.028728856069529e+03, 7.263844620621079e+03
780, -1.000000000000644e-04, 3.700000000003758e-03, 2.179994053807056e-04, 2.361348477352338e-06, 1.132515277453624e+02, 4.716761903711712e+03, 8.787746990652815e+02, 4.927604658299908e+03
781, -5.000000000009902e-05, 3.700000000001873e-03, 2.176852017588073e-04, -2.747900695811129e-06, 9.926642935600103e+01, 2.349828193379748e+03, 6.917208422815714e+02, 2.641768185945275e+03
782, -1.666825314924902e-16, 3.699999999999988e-03, 2.174047843077215e-04, -7.858782820923550e-06, 7.982586424346277e+01, -1.170886852792194e+01, 4.674591246223725e+02, 9.393884926239986e+02
783, 4.999999999983423e-05, 3.699999999998102e-03, 2.171580466862620e-04, -1.297313773539821e-05, 5.460431577448583e+01, -2.367218842646331e+03, 2.058816321004034e+02, 2.456578188539637e+03
784, 9.999999999986681e-05, 3.699999999996217e-03, 2.169448683993660e-04, -1.809280926045543e-05, 2.327043123015926e+01, -4.716062528540785e+03, -9.311916452953483e+01, 4.742990788393114e+03
785, 1.499999999999234e-04, 3.699999999994331e-03, 2.167651146782077e-04, -2.321964521590712e-05, -1.451302754128426e+01, -7.057591920166892e+03, -4.296502715483325e+02, 7.095305328956223e+03
786, 1.999999999999614e-04, 3.699999999992445e-03, 2.166186363593086e-04, -2.835549743221564e-05, -5.908912361094690e+01, -9.391150070317492e+03, -8.038179844797197e+02, 9.469522423107595e+03
787, -2.000000000000130e-04, 3.600000000007325e-03, 2.085015120432789e-04, 1.276606768915399e-05, 1.255954016786911e+02, 9.768892388918690e+03, 1.159253109094790e+03, 9.918096988227922e+03
788, -1.500000000000407e-04, 3.600000000005489e-03, 2.081242098999751e-04, 7.738187529840577e-06, 1.211518701126796e+02, 7.317293362950606e+03, 1.044767338755663e+03, 7.493370907239680e+03
789, -1.000000000000720e-04, 3.600000000003653e-03, 2.077819290057379e-04, 2.712379351188816e-06, 1.120156003140280e+02, 4.869742951749968e+03, 8.926832883274388e+02, 5.081683123103800e+03
790, -5.000000000010923e-05, 3.600000000001818e-03, 2.074745959602125e-04, -2.313218391167693e-06, 9.787251386278047e+01, 2.426854725172740e+03, 7.028812937328019e+02, 2.720354130056640e+03
791, -1.794761171278192e-16, 3.599999999999982e-03, 2.072021234586155e-04, -7.340471475506336e-06, 7.840240989795234e+01, -1.074892493864115e+01, 4.752418330155320e+02, 9.546555189674428e+02
792, 4.999999999982404e-05, 3.599999999998146e-03, 2.069644101692032e-04, -1.237124993357653e-05, 5.327906539186461e+01, -2.442436629068358e+03, 2.096455731526814e+02, 2.530691979073142e+03
793, 9.999999999985923e-05, 3.599999999996311e-03, 2.067613406103548e-04, -1.740742806990874e-05, 2.217023256804441e+01, -4.867567951817207e+03, -9.402652099868317e+01, 4.893352987312445e+03
794, 1.499999999999191e-04, 3.599999999994474e-03, 2.065927850268151e-04, -2.245088447988293e-05, -1.526240619211035e+01, -7.285493323986851e+03, -4.358930680877007e+02, 7.322313067964671e+03
795, 1.999999999999595e-04, 3.599999999992638e-03, 2.064585992647109e-04, -2.750350206673146e-05, -5.936358139180379e+01, -9.695554199624459e+03, -8.160721337057596e+02, 9.773436680132498e+03
796, -2.000000000000149e-04, 3.500000000007369e-03, 1.984420343977154e-04, 1.292198261152278e-05, 1.247972681860914e+02, 1.007856554514153e+04, 1.175758591923272e+03, 1.022776299966175e+04
797, -1.500000000000451e-04, 3.500000000005565e-03, 1.980695305227683e-04, 7.980356454856480e-06, 1.199397735285543e+02, 7.550012140729642e+03, 1.060018178098521e+03, 7.726611775768368e+03
798, -1.000000000000796e-04, 3.500000000003764e-03, 1.977331286459283e-04, 3.040843250059319e-06, 1.105332931163570e+02, 5.025381363161061e+03, 9.060721130748691e+02, 5.238281993935606e+03
799, -5.000000000011939e-05, 3.500000000001962e-03, 1.974327607886270e-04, -1.898448172161581e-06, 9.626297489999513e+01, 2.505286677468406e+03, 7.137891599717342e+02, 2.800245535503811e+03
800, -1.923239128717724e-16, 3.500000000000160e-03, 1.971683450809842e-04, -6.839413507070475e-06, 7.680809324946290e+01, -9.649073394027710e+00, 4.830380919378831e+02, 9.699371292594091e+02
801, 4.999999999981385e-05, 3.499999999998358e-03, 1.969397856367785e-04, -1.178395299860584e-05, 5.184178268482538e+01, -2.518793728614506e+03, 2.136877735147407e+02, 2.605919567091801e+03
802, 9.999999999985163e-05, 3.499999999996555e-03, 1.967469724268050e-04, -1.673397146174857e-05, 2.103095592338468e+01, -5.021505762107685e+03, -9.439273021904984e+01, 5.046069411211500e+03
803, 1.499999999999148e-04, 3.499999999994753e-03, 1.965897811511969e-04, -2.169137830404759e-05, -1.596374635203472e+01, -7.517134218263094e+03, -4.413340391113967e+02, 7.552924028810557e+03
804, 1.999999999999576e-04, 3.499999999992950e-03, 1.964680731108294e-04, -2.665808754620195e-05, -5.948790218510783e+01, -1.000501853497947e+04, -8.272664218784191e+02, 1.008221495996396e+04
805, -2.000000000000167e-04, 3.400000000007423e-03, 1.885564963511012e-04, 1.304961620339300e-05, 1.237291991603242e+02, 1.039336951078761e+04, 1.191124134319918e+03, 1.054232512037253e+04
806, -1.500000000000494e-04, 3.400000000005649e-03, 1.881888425221329e-04, 8.196933479185672e-06, 1.184602575289119e+02, 7.786636400093093e+03, 1.074417912676420e+03, 7.963568343256075e+03
807, -1.000000000000872e-04, 3.400000000003875e-03, 1.878583877724105e-04, 3.346408797639192e-06, 1.087999360557467e+02, 5.183685928572155e+03, 9.188983441316828e+02, 5.397403496537112e+03
808, -5.000000000012958e-05, 3.400000000002102e-03, 1.875650699903557e-04, -1.503878636681647e-06, 9.443336434096432e+01, 2.585131709497369e+03, 7.244223492476679e+02, 2.881445680022945e+03
809, -2.051242747706794e-16, 3.400000000000329e-03, 1.873088131911251e-04, -6.355854443026714e-06, 7.503950260909551e+01, -8.403022025344058e+00, 4.908466306021686e+02, 9.852331267326409e+02
810, 4.999999999980369e-05, 3.399999999998554e-03, 1.870895273875832e-04, -1.121144909311467e-05, 5.029096899791136e+01, -2.596285413546849e+03, 2.180278518226424e+02, 2.682258586588045e+03
811, 9.999999999984403e-05, 3.399999999996781e-03, 1.869071084597946e-04, -1.607259793731071e-05, 1.985396372847026e+01, -5.177872943388541e+03, -9.417722854023600e+01, 5.201138567897442e+03
812, 1.499999999999104e-04, 3.399999999995008e-03, 1.867614380236092e-04, -2.094124122917205e-05, -1.661175216695722e+01, -7.752513335943473e+03, -4.459116371093645e+02, 7.787138246256723e+03
813, 1.999999999999557e-04, 3.399999999993234e-03, 1.866523832988293e-04, -2.581932414909704e-05, -5.945268830677094e+01, -1.031954436709692e+04, -8.373180227510346e+02, 1.039585913438970e+04
814, -2.000000000000187e-04, 3.300000000007353e-03, 1.788503903077067e-04, 1.314857215792782e-05, 1.223862173826358e+02, 1.071331256275496e+04, 1.205262351430669e+03, 1.086178393249499e+04
815, -1.500000000000538e-04, 3.300000000005614e-03, 1.784876278840660e-04, 8.387564493085110e-06, 1.167072571587152e+02, 8.027174114036949e+03, 1.087900294320681e+03, 8.204242444936710e+03
816, -1.000000000000948e-04, 3.300000000003875e-03, 1.781631779176771e-04, 3.628764372003254e-06, 1.068092886604086e+02, 5.344664150084035e+03, 9.311172689764182e+02, 5.559050370673351e+03
817, -5.000000000013977e-05, 3.300000000002137e-03, 1.778769846249786e-04, -1.129778617864607e-06, 9.237786493409635e+01, 2.666396488887078e+03, 7.347578174076940e+02, 2.963958177407986e+03
818, -2.179652942510546e-16, 3.300000000000398e-03, 1.776289783717426e-04, -5.890020022769742e-06, 7.309182360307625e+01, -7.005332939923164e+00, 4.986661649901113e+02, 1.000543517749255e+03
819, 4.999999999979350e-05, 3.299999999998659e-03, 1.774190755390419e-04, -1.065392055502969e-05, 4.862339778473563e+01, -2.674907891972237e+03, 2.226863854535265e+02, 2.759706432095760e+03
820, 9.999999999983644e-05, 3.299999999996922e-03, 1.772471783887644e-04, -1.542344612259463e-05, 1.863820860377723e+01, -5.336667778926731e+03, -9.333746063522591e+01, 5.358558551169470e+03
821, 1.499999999999061e-04, 3.299999999995182e-03, 1.771131749284077e-04, -2.020056785679528e-05, -1.720476750178227e+01, -7.991631526274419e+03, -4.495611865962657e+02, 8.024955026229396e+03
822, 1.999999999999538e-04, 3.299999999993444e-03, 1.770169387754018e-04, -2.498726213725766e-05, -5.925338511354050e+01, -1.063913567035920e+04, -8.461403334241638e+02, 1.071436993131391e+04
823, -2.000000000000206e-04, 3.200000000007042e-03, 1.693292984431419e-04, 1.321847537615957e-05, 1.207590652827639e+02, 1.103839917752486e+04, 1.218083329550233e+03, 1.118614203429182e+04
824, -1.500000000000580e-04, 3.200000000005365e-03, 1.689714575678367e-04, 8.551916588990757e-06, 1.146710389348322e+02, 8.271630196917293e+03, 1.100397423342348e+03, 8.448637799206916e+03
825, -1.000000000001024e-04, 3.200000000003689e-03, 1.686530587969178e-04, 3.887619561411151e-06, 1.045521723921357e+02, 5.508321281578879e+03, 9.426830864863012e+02, 5.723226903730993e+03
826, -5.000000000014997e-05, 3.200000000002012e-03, 1.683740531496943e-04, -7.763957226904200e-07, 9.008814883075331e+01, 2.749086050273451e+03, 7.447719981183994e+02, 3.047787912011228e+03
827, -2.307656561499616e-16, 3.200000000000335e-03, 1.681343778201240e-04, -5.442114735771080e-06, 7.095775407895053e+01, -5.451848188284430e+00, 5.064954940956370e+02, 1.015868677278402e+03
828, 4.999999999978330e-05, 3.199999999998658e-03, 1.679339560387245e-04, -1.011152844034376e-05, 4.683296769989340e+01, -2.754658554657794e+03, 2.276846610647963e+02, 2.838259320319191e+03
829, 9.999999999982882e-05, 3.199999999996980e-03, 1.677726969338489e-04, -1.478663332162051e-05, 1.737893553209597e+01, -5.497889912743056e+03, -9.182953581966404e+01, 5.518325934860114e+03
830, 1.499999999999017e-04, 3.199999999995303e-03, 1.676504953922644e-04, -1.946943141827142e-05, -1.774608786548424e+01, -8.234491405687637e+03, -4.522161216955476e+02, 8.266371713202700e+03
831, 1.999999999999519e-04, 3.199999999993626e-03, 1.675672319188115e-04, -2.416193035185837e-05, -5.889081899131179e+01, -1.096379809587018e+04, -8.536439899163267e+02, 1.103774591859256e+04
832, -2.000000000000225e-04, 3.100000000006703e-03, 1.599988926625676e-04, 1.325897351486680e-05, 1.188408640218120e+02, 1.136863367419005e+04, 1.229494998465363e+03, 1.151540142924763e+04
833, -1.500000000000624e-04, 3.100000000005093e-03, 1.596459915017360e-04, 8.689679602708266e-06, 1.123443676324146e+02, 8.520009998947700e+03, 1.111839863548592e+03, 8.696757608252818e+03
834, -1.000000000001100e-04, 3.100000000003483e-03, 1.593336783274576e-04, 4.122706699492289e-06, 1.020212631739464e+02, 5.674663134461776e+03, 9.535489571958346e+02, 5.889937171202030e+03
835, -5.000000000016015e-05, 3.100000000001875e-03, 1.590619114503168e-04, -4.439548024989308e-07, 8.755718565201857e+01, 2.833206110698684e+03, 7.544407976254347e+02, 3.132939783669121e+03
836, -2.436134518939148e-16, 3.100000000000265e-03, 1.588306353844810e-04, -5.012320298044182e-06, 6.863102295729232e+01, -3.737436417330628e+00, 5.143334310776347e+02, 1.031209342087544e+03
837, 4.999999999977311e-05, 3.099999999998656e-03, 1.586397807057455e-04, -9.584411006518839e-06, 4.491466972867647e+01, -2.835533319027628e+03, 2.330445337787083e+02, 2.917913575626732e+03
838, 9.999999999982122e-05, 3.099999999997047e-03, 1.584892639084644e-04, -1.416225400768978e-05, 1.607295348311743e+01, -5.661536739503692e+03, -8.960845700609198e+01, 5.680437529642046e+03
839, 1.499999999998973e-04, 3.099999999995438e-03, 1.583789872616975e-04, -1.874788227592437e-05, -1.823639425341639e+01, -8.481092194258563e+03, -4.538082092038250e+02, 8.511386247530061e+03
840, 1.999999999999499e-04, 3.099999999993829e-03, 1.583088386648055e-04, -2.334333471250704e-05, -5.836268476040004e+01, -1.129353331442012e+04, -8.597373775725580e+02, 1.136598664925970e+04
841, -2.000000000000244e-04, 3.000000000006373e-03, 1.508649346761016e-04, 1.326973864524741e-05, 1.166297525966100e+02, 1.170402199105185e+04, 1.239401970624325e+03, 1.184956234917402e+04
842, -1.500000000000668e-04, 3.000000000004845e-03, 1.505169786534102e-04, 8.800567758779693e-06, 1.097240918953619e+02, 8.772320440140596e+03, 1.122155500099860e+03, 8.948603654104318e+03
843, -1.000000000001176e-04, 3.000000000003318e-03, 1.502107726865701e-04, 4.333782490854758e-06, 9.921196621440868e+01, 5.843696617928264e+03, 9.636662145652731e+02, 6.059184285541603e+03
844, -5.000000000017031e-05, 3.000000000001789e-03, 1.499462828829846e-04, -1.326563418735270e-07, 8.477966106570807e+01, 2.918763215093746e+03, 7.637391429519438e+02, 3.219418068286452e+03
845, -2.564273663199779e-16, 3.000000000000262e-03, 1.497234615865613e-04, -4.600794050574622e-06, 6.610635223504153e+01, -1.856237341140627e+00, 5.221786259935660e+02, 1.046566282353877e+03
846, 4.999999999976296e-05, 2.999999999998735e-03, 1.495422472312476e-04, -9.072682115838033e-06, 4.286397090777677e+01, -2.917527376248722e+03, 2.387885046666429e+02, 2.998665824689840e+03
847, 9.999999999981362e-05, 2.999999999997206e-03, 1.494025641938535e-04, -1.355037822699164e-05, 1.471716518026960e+01, -5.827604907912476e+03, -8.662774643654839e+01, 5.844890475582704e+03
848, 1.499999999998930e-04, 2.999999999995678e-03, 1.493043226460247e-04, -1.803594631979908e-05, -1.867675139060702e+01, -8.731432517562040e+03, -4.542668866373501e+02, 8.759996955372433e+03
849, 1.999999999999481e-04, 2.999999999994151e-03, 1.492474184053588e-04, -2.253145661232526e-05, -5.766782755180327e+01, -1.162834276796534e+04, -8.643257437371935e+02, 1.169909203920805e+04
850, -2.000000000000263e-04, 2.900000000006043e-03, 1.419332762913052e-04, 1.325046890879849e-05, 1.141232414092074e+02, 1.204456873935048e+04, 1.247705260312285e+03, 1.218862598678748e+04
851, -1.500000000000711e-04, 2.900000000004594e-03, 1.415902572382375e-04, 8.884321318048073e-06, 1.068055310982259e+02, 9.028566638841947e+03, 1.131269403170138e+03, 9.204178568120253e+03
852, -1.000000000001252e-04, 2.900000000003146e-03, 1.412901664543840e-04, 4.520629655744107e-06, 9.611848994181094e+01, 6.015427294086106e+03, 9.729842949944521e+02, 6.230971872191654e+03
853, -5.000000000018052e-05, 2.900000000001698e-03, 1.410329783657304e-04, 1.573251819019063e-07, 8.174934188098973e+01, 3.005763098497306e+03, 7.726409223306565e+02, 3.307227302185522e+03
854, -2.692480570096190e-16, 2.900000000000249e-03, 1.408186536703896e-04, -4.207667323405778e-06, 6.337761814091084e+01, 1.972540869014665e-01, 5.300295242794757e+02, 1.061940179498688e+03
855, 4.999999999975274e-05, 2.899999999998802e-03, 1.406471391885827e-04, -8.576429604137902e-06, 4.067542452019256e+01, -3.000635880550141e+03, 2.449397072150632e+02, 3.080512342944112e+03
856, 9.999999999980604e-05, 2.899999999997354e-03, 1.405183677117615e-04, -1.295104997143117e-05, 1.330739717062579e+01, -5.996090676731532e+03, -8.283943405183771e+01, 6.011681520003789e+03
857, 1.499999999998886e-04, 2.899999999995905e-03, 1.404322578506449e-04, -1.733362334537710e-05, -1.906935493874255e+01, -8.985510128338272e+03, -4.535191860746175e+02, 9.012201659496564e+03
858, 1.999999999999462e-04, 2.899999999994458e-03, 1.403887138821896e-04, -2.172625129514081e-05, -5.680542774986338e+01, -1.196822583747650e+04, -8.673110876860417e+02, 1.203706152964854e+04
859, -2.000000000000283e-04, 2.800000000005697e-03, 1.332098595564617e-04, 1.320089015007633e-05, 1.113134318418363e+02, 1.239027259231669e+04, 1.254303697366407e+03, 1.253259546644339e+04
860, -1.500000000000755e-04, 2.800000000004316e-03, 1.328717548246817e-04, 8.940708229471562e-06, 1.035802708751078e+02, 9.288749288246345e+03, 1.139105172069540e+03, 9.463486262990971e+03
861, -1.000000000001328e-04, 2.800000000002934e-03, 1.325777726900877e-04, 4.683058595137168e-06, 9.273269531959545e+01, 6.189857878178511e+03, 9.814515409278085e+02, 6.405304364681717e+03
862, -5.000000000019071e-05, 2.800000000001552e-03, 1.323278964275467e-04, 4.258429693470804e-07, 7.845822916652423e+01, 3.094209632701020e+03, 7.811193959465321e+02, 3.396372560661710e+03
863, -2.820416426449479e-16, 2.800000000000171e-03, 1.321220956245224e-04, -3.833043765558383e-06, 6.043698822619717e+01, 2.427263916649622e+00, 5.378844939124679e+02, 1.077331909524802e+03
864, 4.999999999974258e-05, 2.799999999998790e-03, 1.319603260277643e-04, -8.095713615441983e-06, 3.834148088987001e+01, -3.084855030521951e+03, 2.515217962055039e+02, 3.163448957192251e+03
865, 9.999999999979847e-05, 2.799999999997408e-03, 1.318425293884614e-04, -1.236428552188204e-05, 1.183652030708822e+01, -6.166991467644541e+03, -7.819441135462273e+01, 6.180806805633287e+03
866, 1.499999999998843e-04, 2.799999999996027e-03, 1.317686333060966e-04, -1.664088540862370e-05, -1.942086665782631e+01, -9.243324584771708e+03, -4.514903910490095e+02, 9.267997307610389e+03
867, 1.999999999999443e-04, 2.799999999994645e-03, 1.317385510709005e-04, -2.092764622657197e-05, -5.578142263143923e+01, -1.231318503970679e+04, -8.685928407077190e+02, 1.237989327593767e+04
868, -2.000000000000301e-04, 2.700000000005420e-03, 1.247007166049452e-04, 1.312075771808828e-05, 1.082013277103479e+02, 1.274113550213069e+04, 1.259093490302582e+03, 1.288147086029102e+04
869, -1.500000000000799e-04, 2.700000000004097e-03, 1.243674882610721e-04, 8.969525919780670e-06, 1.000477217135638e+02, 9.552872572139537e+03, 1.145584232820198e+03, 9.726528187939201e+03
870, -1.000000000001404e-04, 2.700000000002773e-03, 1.240795929034291e-04, 4.820909163914586e-06, 8.905184256054804e+01, 6.366993594438185e+03, 9.890146906166613e+02, 6.582184506149211e+03
871, -5.000000000020087e-05, 2.700000000001450e-03, 1.238370232021029e-04, 6.727796587164998e-07, 7.490216405015315e+01, 3.184108760597634e+03, 7.891468833252596e+02, 3.486857736395658e+03
872, -2.948962146524792e-16, 2.700000000000125e-03, 1.236397581863688e-04, -3.476997595627484e-06, 5.727968062281627e+01, 4.840154979116278e+00, 5.457416686359960e+02, 1.092742320674065e+03
873, 4.999999999973239e-05, 2.699999999998801e-03, 1.234877630873996e-04, -7.630564861102655e-06, 3.585756186429444e+01, -3.170178337616298e+03, 2.585589250625433e+02, 3.247472410918424e+03
874, 9.999999999979085e-05, 2.699999999997478e-03, 1.233809891793654e-04, -1.179007171438635e-05, 1.030107032267858e+01, -6.340300913847025e+03, -7.264231818796122e+01, 6.352263626999989e+03
875, 1.499999999998800e-04, 2.699999999996155e-03, 1.233193736192376e-04, -1.595767509803156e-05, -1.973250149512216e+01, -9.504869726659919e+03, -4.481037583832050e+02, 9.527382436604274e+03
876, 1.999999999999424e-04, 2.699999999994831e-03, 1.233028392855647e-04, -2.013553937095983e-05, -5.459395046281247e+01, -1.266321482472043e+04, -8.680676711086339e+02, 1.272758760634791e+04
877, -2.000000000000321e-04, 2.600000000005380e-03, 1.164119699174682e-04, 1.300985835571667e-05, 1.047927697875487e+02, 1.309716109716721e+04, 1.261966357888200e+03, 1.323525107839155e+04
878, -1.500000000000841e-04, 2.600000000004088e-03, 1.160835638581003e-04, 8.970603149648894e-06, 9.620957827042412e+01, 9.820941068650896e+03, 1.150624265438867e+03, 9.993305126976988e+03
879, -1.000000000001480e-04, 2.600000000002797e-03, 1.158017171711487e-04, 4.934052503792014e-06, 8.507432239996581e+01, 6.546839663749422e+03, 9.956179277073978e+02, 6.761614567435395e+03
880, -5.000000000021105e-05, 2.600000000001504e-03, 1.155664324877965e-04, 8.980491425090296e-07, 7.107721904139510e+01, 3.275466228107659e+03, 7.966942270763876e+02, 3.578686307467035e+03
881, -3.077169053421203e-16, 2.600000000000212e-03, 1.153776988499183e-04, -3.139571796367540e-06, 5.390024108661510e+01, 7.441892946889311e+00, 5.535987041927486e+02, 1.108171683110263e+03
882, 4.999999999972220e-05, 2.599999999998920e-03, 1.152354915485629e-04, -7.180982821406184e-06, 3.321733740652917e+01, -3.256600057606121e+03, 2.660757282047454e+02, 3.332579131106501e+03
883, 9.999999999978321e-05, 2.599999999997628e-03, 1.151397719609119e-04, -1.122836414531737e-05, 8.694340183387453e+00, -6.516014077827544e+03, -6.613136581177164e+01, 6.526048832964647e+03
884, 1.499999999998756e-04, 2.599999999996335e-03, 1.150904873860229e-04, -1.528390374102342e-05, -2.001109582128106e+01, -9.770142230300024e+03, -4.432801387652168e+02, 9.790354756862827e+03
885, 1.999999999999405e-04, 2.599999999995043e-03, 1.150875708796692e-04, -1.934979739560517e-05, -5.324955271985800e+01, -1.301831405778244e+04, -8.656289496185314e+02, 1.308014340648084e+04
886, -2.000000000000340e-04, 2.500000000005436e-03, 1.083498326782155e-04, 1.286801197063923e-05, 1.010824769707756e+02, 1.345834274830183e+04, 1.262811153286011e+03, 1.359393872251649e+04
887, -1.500000000000885e-04, 2.500000000004174e-03, 1.080261776232106e-04, 8.943801805595518e-06, 9.205933210198725e+01, 1.009295174626680e+04, 1.154140994232096e+03, 1.026382067350982e+04
888, -1.000000000001556e-04, 2.500000000002911e-03, 1.077503242859865e-04, 5.022392849995759e-06, 8.079345198651390e+01, 6.729396661558920e+03, 1.001204038934484e+03, 6.943598688623313e+03
889, -5.000000000022121e-05, 2.500000000001650e-03, 1.075222858348848e-04, 1.101598381828962e-06, 6.697633956845789e+01, 3.368285182198749e+03, 8.037315080830784e+02, 3.671862936272397e+03
890, -3.205375960317614e-16, 2.500000000000388e-03, 1.073420619075190e-04, -2.820776298036902e-06, 5.029135379932950e+01, 1.023739141029262e+01, 5.614531860464291e+02, 1.123620505504330e+03
891, 4.999999999971200e-05, 2.499999999999127e-03, 1.072096384441640e-04, -6.746933930796580e-06, 3.041353614622972e+01, -3.344114194709364e+03, 2.740974915627978e+02, 3.418765149266248e+03
892, 9.999999999977564e-05, 2.499999999997865e-03, 1.071249875203472e-04, -1.067908536228107e-05, 7.009567468834348e+00, -6.694124473248394e+03, -5.860838394433057e+01, 6.702159144807998e+03
893, 1.499999999998713e-04, 2.499999999996604e-03, 1.070880671782141e-04, -1.461944960393715e-05, -2.026231295893206e+01, -1.003913562657036e+04, -4.369383418605775e+02, 1.005691219672056e+04
894, 1.999999999999386e-04, 2.499999999995341e-03, 1.070988212566392e-04, -1.857025389217531e-05, -5.175226600762471e+01, -1.337847690090382e+04, -8.611672051066387e+02, 1.343756024414230e+04
895, -2.000000000000358e-04, 2.400000000005491e-03, 1.005206084935106e-04, 1.269507355291922e-05, 9.707526742958839e+01, 1.382467866104997e+04, 1.261514227772273e+03, 1.395753443556652e+04
896, -1.500000000000929e-04, 2.400000000004260e-03, 1.002016150881279e-04, 8.889018803472533e-06, 8.759831541257768e+01, 1.036890559064691e+04, 1.156048373834304e+03, 1.053807718031929e+04
897, -1.000000000001632e-04, 2.400000000003029e-03, 9.993168164096682e-05, 5.085869426151520e-06, 7.620713425424151e+01, 6.914667426403290e+03, 1.005714612956566e+03, 7.128140479687304e+03
898, -5.000000000023145e-05, 2.400000000001797e-03, 9.971083245365404e-05, 1.283409295673858e-06, 6.259500307714484e+01, 3.462570196112912e+03, 8.102282426529277e+02, 3.766392243782956e+03
899, -3.333650629849805e-16, 2.400000000000566e-03, 9.953907835998954e-05, -2.520586093999397e-06, 4.644681289674759e+01, 1.323262064321386e+01, 5.693028351328945e+02, 1.139090011776269e+03
900, 4.999999999970184e-05, 2.399999999999334e-03, 9.941641655582331e-05, -6.328349697523527e-06, 2.743896093519038e+01, -3.432713784800369e+03, 2.826504111227740e+02, 3.506026532052036e+03
901, 9.999999999976805e-05, 2.399999999998102e-03, 9.934283042748869e-05, -1.014212298599221e-05, 5.239260186561523e+00, -6.874624577281002e+03, -5.001844410829455e+01, 6.880591093873982e+03
902, 1.499999999998670e-04, 2.399999999996872e-03, 9.931828937891181e-05, -1.396415601342629e-05, -2.049314619142933e+01, -1.031184224369630e+04, -4.289944476348487e+02, 1.032705239606735e+04
903, 1.999999999999366e-04, 2.399999999995640e-03, 9.934274865730284e-05, -1.779670748143767e-05, -5.010801496407532e+01, -1.374369616838561e+04, -8.545694759372957e+02, 1.379983740746033e+04
904, -2.000000000000378e-04, 2.300000000005451e-03, 9.293069156682557e-05, 1.249093519643732e-05, 9.277627220297632e+01, 1.419616403258247e+04, 1.257958408586617e+03, 1.432603866218981e+04
905, -1.500000000000972e-04, 2.300000000004251e-03, 9.261625140247583e-05, 8.806188082867999e-06, 8.282781040046825e+01, 1.064880106743954e+04, 1.156257374475741e+03, 1.081607670704045e+04
906, -1.000000000001708e-04, 2.300000000003051e-03, 9.235214526895664e-05, 5.124458419641419e-06, 7.131344764124469e+01, 7.102653312928447e+03, 1.009089226681530e+03, 7.315243302228297e+03
907, -5.000000000024163e-05, 2.300000000001851e-03, 9.213840921195727e-05, 1.443500718944958e-06, 5.792851968449190e+01, 3.558324954866185e+03, 8.161527917856961e+02, 3.862278695484189e+03
908, -3.461857536746216e-16, 2.300000000000652e-03, 9.197506587818234e-05, -2.238939297682909e-06, 4.235968447464097e+01, 1.643307743095022e+01, 5.771450368759251e+02, 1.154581206894885e+03
909, 4.999999999969163e-05, 2.299999999999453e-03, 9.186212434151440e-05, -5.925124774689836e-06, 2.428491669763321e+01, -3.522392095272494e+03, 2.917611434433153e+02, 3.594358925668213e+03
910, 9.999999999976044e-05, 2.299999999998253e-03, 9.179957992757023e-05, -9.617327795733958e-06, 3.373403658579946e+00, -7.057507057827230e+03, -4.030536363623276e+01, 7.061340593735970e+03
911, 1.499999999998626e-04, 2.299999999997052e-03, 9.178741403670728e-05, -1.331782945599532e-05, -2.071455712049601e+01, -1.058825487728054e+04, -4.193624948375151e+02, 1.060077204860635e+04
912, 1.999999999999347e-04, 2.299999999995853e-03, 9.182559396546798e-05, -1.702891993367449e-05, -4.832766586520461e+01, -1.411396503871200e+04, -8.457196943268040e+02, 1.416697292684338e+04
913, -2.000000000000396e-04, 2.200000000005174e-03, 8.558656678459730e-05, 1.225552809102758e-05, 8.819000725048568e+01, 1.457279046136223e+04, 1.252023177191342e+03, 1.469945231837403e+04
914, -1.500000000001016e-04, 2.200000000004032e-03, 8.527655138728459e-05, 8.695282619263110e-06, 7.774893045522822e+01, 1.093263403717002e+04, 1.154676617884630e+03, 1.109782154512932e+04
915, -1.000000000001784e-04, 2.200000000002889e-03, 8.501815986426663e-05, 5.138174990298834e-06, 6.611057241754952e+01, 7.293354094603719e+03, 1.011265685819061e+03, 7.504910530995178e+03
916, -5.000000000025179e-05, 2.200000000001748e-03, 8.481144062981299e-05, 1.581930405280116e-06, 5.297242030238954e+01, 3.655552476616970e+03, 8.214724571201028e+02, 3.959526619860425e+03
917, -3.590132206278407e-16, 2.200000000000606e-03, 8.465642877521698e-05, -1.975735147929736e-06, 3.802325797419735e+01, 1.984440899280082e+01, 5.849768478996532e+02, 1.170094919596160e+03
918, 4.999999999968146e-05, 2.199999999999464e-03, 8.455314589104023e-05, -5.537114974813597e-06, 2.094295437315827e+01, -3.613141430661033e+03, 3.014567554221734e+02, 3.683758137976487e+03
919, 9.999999999975283e-05, 2.199999999998322e-03, 8.450159988758607e-05, -9.104511753925689e-06, 1.402364946671014e+00, -7.242762745481399e+03, -2.941182449137352e+01, 7.244403934681098e+03
920, 1.499999999998582e-04, 2.199999999997180e-03, 8.450178481375552e-05, -1.268023761541756e-05, -2.093676490558369e+01, -1.086836345695719e+04, -4.079546710154303e+02, 1.087806848175938e+04
921, 1.999999999999328e-04, 2.199999999996038e-03, 8.455368067448282e-05, -1.626661421830198e-05, -4.642177498776221e+01, -1.448927344967640e+04, -8.344992149462876e+02, 1.453896558411361e+04
922, -2.000000000000416e-04, 2.100000000004828e-03, 7.849480967477530e-05, 1.198882463900825e-05, 8.332673910286098e+01, 1.495455039236980e+04, 1.243584890871465e+03, 1.507777524930987e+04
923, -1.500000000001059e-04, 2.100000000003754e-03, 7.818906950094662e-05, 8.556316511037901e-06, 7.236709470669848e+01, 1.122040115994472e+04, 1.151212015691889e+03, 1.138331322331073e+04
924, -1.000000000001860e-04, 2.100000000002678e-03, 7.793625874160524e-05, 5.127075348690084e-06, 6.059941301034200e+01, 7.486769973431912e+03, 1.012179932528966e+03, 7.697145058768828e+03
925, -5.000000000026199e-05, 2.100000000001603e-03, 7.773643882185100e-05, 1.698797095772589e-06, 4.772391728100615e+01, 3.754256254388178e+03, 8.261534917201079e+02, 4.058140009110881e+03
926, -3.718339113174818e-16, 2.100000000000528e-03, 7.758965792710611e-05, -1.730831947761888e-06, 3.343180703520420e+01, 2.347303445251544e+01, 5.927951369112911e+02, 1.185632099149673e+03
927, 4.999999999967128e-05, 2.099999999999452e-03, 7.749595082142552e-05, -5.164135214000679e-06, 1.740516836528423e+01, -3.704952850562985e+03, 3.117650238313179e+02, 3.774220309072823e+03
928, 9.999999999974523e-05, 2.099999999998377e-03, 7.745533866396402e-05, -8.603445953148972e-06, -6.831394755483871e-01, -7.430380594711101e+03, -1.727884923326110e+01, 7.429777823788336e+03
929, 1.499999999998539e-04, 2.099999999997302e-03, 7.746782882375856e-05, -1.205110731844324e-05, -2.116957657340686e+01, -1.115215523967651e+04, -3.946805156066882e+02, 1.115893958536406e+04
930, 1.999999999999309e-04, 2.099999999996226e-03, 7.753341469307383e-05, -1.550947244983043e-05, -4.440009506446154e+01, -1.486960757686632e+04, -8.207858839214130e+02, 1.491581492066231e+04
931, -2.000000000000435e-04, 2.000000000004496e-03, 7.166208653406265e-05, 1.169084058555238e-05, 7.819540517522114e+01, 1.534143162284295e+04, 1.232516315611227e+03, 1.546100791375891e+04
932, -1.500000000001103e-04, 2.000000000003499e-03, 7.136044989635318e-05, 8.389347112178362e-06, 6.668648805504404e+01, 1.151209543938864e+04, 1.145766830173805e+03, 1.167255381567262e+04
933, -1.000000000001936e-04, 2.000000000002501e-03, 7.111306383760395e-05, 5.091258876872065e-06, 5.478000566963215e+01, 7.682898772520573e+03, 1.011766017473665e+03, 7.891950191026398e+03
934, -5.000000000027220e-05, 2.000000000001505e-03, 7.092000345104229e-05, 1.794242630944060e-06, 4.217923568000174e+01, 3.854438264070222e+03, 8.301610838596813e+02, 4.158123206467440e+03
935, -3.846512138753339e-16, 2.000000000000507e-03, 7.078133068149785e-05, -1.504044961793321e-06, 2.857817338148880e+01, 2.732446488936591e+01, 6.005965478360968e+02, 1.201193749931929e+03
936, 4.999999999966107e-05, 1.999999999999510e-03, 7.069709413962592e-05, -4.805957418968418e-06, 1.366146713591638e+01, -3.797817950727224e+03, 3.227143730239575e+02, 3.865741018099806e+03
937, 9.999999999973761e-05, 1.999999999998513e-03, 7.066732891429304e-05, -8.113858532885666e-06, -2.895688768980563e+00, -7.620349993691461e+03, -3.845911986443582e+00, 7.617458188381350e+03
938, 1.499999999998495e-04, 1.999999999997515e-03, 7.069205638311384e-05, -1.143012246245182e-05, -2.142767382689635e+01, -1.143961817996699e+04, -3.794470806570104e+02, 1.144338213914856e+04
939, 1.999999999999290e-04, 1.999999999996517e-03, 7.077128402117896e-05, -1.475713382308852e-05, -4.227854217975460e+01, -1.525495432210595e+04, -8.044541000092881e+02, 1.529751907928995e+04
940, -2.000000000000454e-04, 1.900000000004165e-03, 6.509515436891613e-05, 1.136163722085813e-05, 7.280918586442999e+01, 1.573342152591433e+04, 1.218686948889668e+03, 1.584915046249796e+04
941, -1.500000000001146e-04, 1.900000000003247e-03, 6.479742636191142e-05, 8.194477213269674e-06, 6.071417712252992e+01, 1.180770939175083e+04, 1.138241747669271e+03, 1.196554527286780e+04
942, -1.000000000002012e-04, 1.900000000002328e-03, 6.455528564169325e-05, 5.030870301438058e-06, 4.865411550284557e+01, 7.881737890563172e+03, 1.009956177302474e+03, 8.089329227284487e+03
943, -5.000000000028235e-05, 1.900000000001409e-03, 6.436882164391919e-05, 1.868454112780515e-06, 3.633549704338725e+01, 3.956100407511869e+03, 8.334593415139947e+02, 4.259480584433712e+03
944, -3.974685164331859e-16, 1.900000000000491e-03, 6.423811075492096e-05, -1.295144265699372e-06, 2.345542818501576e+01, 3.140462887103558e+01, 6.083774034940791e+02, 1.216780773237454e+03
945, 4.999999999965091e-05, 1.899999999999572e-03, 6.416321612212939e-05, -4.462308389393783e-06, 9.701466544270033e+00, -3.891727289624172e+03, 3.343336745574230e+02, 3.958315596719180e+03
946, 9.999999999973007e-05, 1.899999999998654e-03, 6.414418746246368e-05, -7.635432556572220e-06, -5.248511919798375e+00, -7.812658536501809e+03, 1.094873546324578e+01, 7.807440732479284e+03
947, 1.499999999998452e-04, 1.899999999997735e-03, 6.418106086869255e-05, -1.081692190786177e-05, -2.172644851987684e+01, -1.173073745145785e+04, -3.621594450163769e+02, 1.173139277841215e+04
948, 1.999999999999271e-04, 1.899999999996817e-03, 6.427385861362516e-05, -1.400919252494551e-05, -4.007419963217762e+01, -1.564529729649341e+04, -7.853753570873075e+02, 1.568407618283243e+04
949, -2.000000000000473e-04, 1.800000000003828e-03, 5.880086090919293e-05, 1.100132363013096e-05, 6.718091744631488e+01, 1.613050280558624e+04, 1.201963001335362e+03, 1.624220336987294e+04
950, -1.500000000001189e-04, 1.800000000002982e-03, 5.850682229326914e-05, 7.971857290456896e-06, 5.445769933721158e+01, 1.210723259746039e+04, 1.128534960533744e+03, 1.226228964644923e+04
951, -1.000000000002088e-04, 1.800000000002135e-03, 5.826972313357733e-05, 4.946101930425722e-06, 4.222400856086233e+01, 8.083282941936532e+03, 1.006680856966802e+03, 8.289285503657979e+03
952, -5.000000000029254e-05, 1.800000000001289e-03, 5.808966789782886e-05, 1.921666131639295e-06, 3.019009056513573e+01, 4.059243715439159e+03, 8.360113436034842e+02, 4.362216521293426e+03
953, -4.102858189910380e-16, 1.800000000000442e-03, 5.796674811219843e-05, -1.103852529588804e-06, 1.805659961960987e+01, 3.571943025272549e+01, 6.161337826052113e+02, 1.232394144685700e+03
954, 4.999999999964072e-05, 1.799999999999596e-03, 5.790104216800567e-05, -4.132867591112720e-06, 5.514425255565811e+00, -3.986670613630367e+03, 3.466523802007326e+02, 4.051939396819751e+03
955, 9.999999999972246e-05, 1.799999999998750e-03, 5.789261512636939e-05, -7.167803813402792e-06, -7.755440059412649e+00, -8.007292123956362e+03, 2.716829354744152e+01, 7.999721221499542e+03
956, 1.499999999998409e-04, 1.799999999997903e-03, 5.794151852071557e-05, -1.021109728727051e-05, -2.208202695076784e+01, -1.202549559536884e+04, -3.427202549075794e+02, 1.202296826856741e+04
957, 1.999999999999252e-04, 1.799999999997057e-03, 5.804779015718801e-05, -1.326519554047625e-05, -3.780460722182397e+01, -1.604061615337151e+04, -7.634178772241351e+02, 1.607548458997872e+04
958, -2.000000000000492e-04, 1.700000000003484e-03, 5.278614450760506e-05, 1.061005902956714e-05, 6.132887597809827e+01, 1.653265771165097e+04, 1.182207500630872e+03, 1.664016622245884e+04
959, -1.500000000001233e-04, 1.700000000002704e-03, 5.249555058770000e-05, 7.721687820726293e-06, 4.792803881601731e+01, 1.241065383171543e+04, 1.116542014233753e+03, 1.256278843683269e+04
960, -1.000000000002164e-04, 1.700000000001925e-03, 5.226326366300221e-05, 4.837195956706881e-06, 3.549405651922393e+01, 8.287528810030886e+03, 1.001868642013237e+03, 8.491821988040143e+03
961, -5.000000000030273e-05, 1.700000000001145e-03, 5.208940394037442e-05, 1.954163056628720e-06, 2.374140924258131e+01, 4.163868755008640e+03, 8.377790803208206e+02, 4.466335140677725e+03
962, -4.231031215488901e-16, 1.700000000000365e-03, 5.197407880126954e-05, -9.298427401845147e-07, 1.237467848613869e+01, 4.027462597389990e+01, 6.238614620369972e+02, 1.248034816152810e+03
963, 4.999999999963053e-05, 1.699999999999585e-03, 5.191738260499146e-05, -3.817264891226163e-06, 1.088483449087107e+00, -4.082637515229832e+03, 3.597004423719945e+02, 4.146607729850579e+03
964, 9.999999999971485e-05, 1.699999999998805e-03, 5.191939649000043e-05, -6.710558567215896e-06, -1.043266858284096e+01, -8.204236309413171e+03, 4.487729589464874e+01, 8.194295210158813e+03
965, 1.499999999998365e-04, 1.699999999998025e-03, 5.198018817309690e-05, -9.612190768405757e-06, -2.251454138406143e+01, -1.232387489122816e+04, -3.210299879859458e+02, 1.231810486517555e+04
966, 1.999999999999232e-04, 1.699999999997246e-03, 5.209981174611592e-05, -1.252464044059402e-05, -3.549322750582110e+01, -1.644089056974033e+04, -7.384466059555474e+02, 1.647174172684796e+04
967, -2.000000000000511e-04, 1.600000000003144e-03, 4.705803412702333e-05, 1.018805514817465e-05, 5.527275492160697e+01, 1.693986482633575e+04, 1.159279732256019e+03, 1.704303867884304e+04
968, -1.500000000001277e-04, 1.600000000002436e-03, 4.677061358345030e-05, 7.444221656111932e-06, 4.113734869788800e+01, 1.271795912184719e+04, 1.102155770874860e+03, 1.286704315844489e+04
969, -1.000000000002240e-04, 1.600000000001727e-03, 4.654288285023028e-05, 4.704446819509954e-06, 2.846967889998405e+01, 8.494468707132337e+03, 9.954462352566931e+02, 8.696941552935608e+03
970, -5.000000000031292e-05, 1.600000000001018e-03, 4.637497859731736e-05, 1.966281386198901e-06, 1.698863307444844e+01, 4.269975365659871e+03, 8.387234710874638e+02, 4.571840372471424e+03
971, -4.359339766338982e-16, 1.600000000000309e-03, 4.626702479384481e-05, -7.727358617202283e-07, 6.403165545150387e+00, 4.507618354031274e+01, 6.315559492872105e+02, 1.263703790704583e+03
972, 4.999999999962034e-05, 1.599999999999600e-03, 4.621913250815512e-05, -3.515078231450942e-06, -3.587890722226803e+00, -4.179616323441550e+03, 3.735083498474997e+02, 4.242316280112012e+03
973, 9.999999999970728e-05, 1.599999999998891e-03, 4.623139970649051e-05, -6.263231243779232e-06, -1.329600440935701e+01, -8.403474068533287e+03, 6.414163512006019e+01, 8.391158712903120e+03
974, 1.499999999998322e-04, 1.599999999998182e-03, 4.630391104982574e-05, -9.019692758150771e-06, -2.304313432200615e+01, -1.262585322141779e+04, -2.969868859745050e+02, 1.261679939339477e+04
975, 1.999999999999214e-04, 1.599999999997473e-03, 4.643673768846523e-05, -1.178697309856293e-05, -3.316193699955920e+01, -1.684609399335630e+04, -7.103234750774590e+02, 1.687284570215269e+04
976, -2.000000000000531e-04, 1.500000000002802e-03, 4.162364923046072e-05, 9.735578665505206e-06, 4.903464322436184e+01, 1.735209955739791e+04, 1.133035775256940e+03, 1.745082048776366e+04
977, -1.500000000001320e-04, 1.500000000002160e-03, 4.133910292719267e-05, 7.139766447655049e-06, 3.410003046073575e+01, 1.302913252250671e+04, 1.085266544763028e+03, 1.317505534569241e+04
978, -1.000000000002316e-04, 1.500000000001518e-03, 4.111564442617377e-05, 4.548203620146226e-06, 2.115773496636120e+01, 8.704094473709316e+03, 9.873386017963747e+02, 8.904647127618311e+03
979, -5.000000000032311e-05, 1.500000000000877e-03, 4.095342760214189e-05, 1.958412155139096e-06, 9.931546847436039e+00, 4.377562538434751e+03, 8.388045065182383e+02, 4.678736205354520e+03
980, -4.487512791917503e-16, 1.500000000000236e-03, 4.085259376172987e-05, -6.320984374448733e-07, 1.352352516532846e-01, 5.012963493710777e+01, 6.392126284550853e+02, 1.279402429849867e+03
981, 4.999999999961016e-05, 1.499999999999595e-03, 4.081327143983233e-05, -3.225831239703001e-06, -8.527633882935561e+00, -4.277595461100424e+03, 3.881072639925208e+02, 4.339060855396994e+03
982, 9.999999999969963e-05, 1.499999999998952e-03, 4.083557619577403e-05, -5.825302055425888e-06, -1.636394727098241e+01, -8.604988169584054e+03, 8.502869448167417e+01, 8.590307651513060e+03
983, 1.499999999998278e-04, 1.499999999998311e-03, 4.091961041002516e-05, -8.433039542345652e-06, -2.369132630137869e+01, -1.293140812748162e+04, -2.704868106622494e+02, 1.291904816456846e+04
984, 1.999999999999195e-04, 1.499999999997670e-03, 4.106546307908835e-05, -1.105158534837930e-05, -3.083840489051113e+01, -1.725619902608782e+04, -6.789070347527381e+02, 1.727879357992456e+04
985, -2.000000000000549e-04, 1.400000000002461e-03, 3.649019967057077e-05, 9.252953709766724e-06, 4.264031293993617e+01, 1.776933490520997e+04, 1.103328205435274e+03, 1.786351123612745e+04
986, -1.500000000001364e-04, 1.400000000001890e-03, 3.620819943503918e-05, 6.808687130938005e-06, 2.683286734109015e+01, 1.334415611625046e+04, 1.065761908598935e+03, 1.348682662078903e+04
987, -1.000000000002392e-04, 1.400000000001320e-03, 3.598870006260258e-05, 4.368872592034137e-06, 1.356665838426147e+01, 8.916396776780439e+03, 9.774688227512755e+02, 9.114941871170937e+03
988, -5.000000000033329e-05, 1.400000000000748e-03, 3.583187339409364e-05, 1.931003394009671e-06, 2.570836203130511e+00, 4.486628882846382e+03, 8.379811868563858e+02, 4.787026889810317e+03
989, -4.615719698813914e-16, 1.400000000000178e-03, 3.573787884399597e-05, -5.074401384851731e-07, -6.435598882069144e+00, 5.544091696994042e+01, 6.468267492303102e+02, 1.295132455501516e+03
990, 4.999999999959998e-05, 1.399999999999606e-03, 3.570686318871592e-05, -2.948990788759409e-06, -1.374389096617006e+01, -4.376562163780983e+03, 4.035289933029128e+02, 4.436837373101598e+03
991, 9.999999999969204e-05, 1.399999999999035e-03, 3.573896036061769e-05, -5.396194575621243e-06, -1.965578810597617e+01, -8.808759334140803e+03, 1.076072277884022e+02, 8.791738076444906e+03
992, 1.499999999998235e-04, 1.399999999998463e-03, 3.583429124657640e-05, -7.851610885448367e-06, -2.448389666832918e+01, -1.324051392401177e+04, -2.414235364179239e+02, 1.322484748416365e+04
993, 1.999999999999176e-04, 1.399999999997893e-03, 3.599296349027901e-05, -1.031781261732851e-05, -2.855198818017607e+01, -1.767117361827913e+04, -6.440528103717776e+02, 1.768958207739873e+04
994, -2.000000000000568e-04, 1.300000000002126e-03, 3.166498558564203e-05, 8.740564417729135e-06, 3.611738979611891e+01, 1.819153943266681e+04, 1.070006025136596e+03, 1.828111050046111e+04
995, -1.500000000001407e-04, 1.300000000001629e-03, 3.138517295405783e-05, 6.451408462741002e-06, 1.935327926925606e+01, 1.366300802433793e+04, 1.043526541329677e+03, 1.380235868873407e+04
996, -1.000000000002468e-04, 1.300000000001133e-03, 3.116928919821459e-05, 4.166919619199768e-06, 5.704637821527285e+00, 9.131363266238241e+03, 9.657578280415050e+02, 9.327829229359326e+03
997, -5.000000000034346e-05, 1.300000000000637e-03, 3.101752490630282e-05, 1.884562632598457e-06, -5.093323652215986e+00, 4.597171728393345e+03, 8.362112320255753e+02, 4.896717319546111e+03
998, -4.743892724392434e-16, 1.300000000000140e-03, 3.093005838980217e-05, -3.982112700818631e-07, -1.331609815576348e+01, 6.101692504959306e+01, 6.543932830305229e+02, 1.310895752468789e+03
999, 4.999999999958981e-05, 1.299999999999644e-03, 3.090705546311408e-05, -2.683964508465348e-06, -1.924996851488936e+01, -4.476500882355640e+03, 4.198061566703655e+02, 4.535640477997301e+03
1000, 9.999999999968445e-05, 1.299999999999148e-03, 3.094866922859387e-05, -4.975273257584489e-06, -2.319163885691319e+01, -9.014764852759048e+03, 1.319478216997742e+02, 8.995444945724899e+03
1001, 1.499999999998191e-04, 1.299999999998652e-03, 3.105503988216543e-05, -7.274727562090581e-06, -2.544797563320390e+01, -1.355314187873714e+04, -2.096881097193774e+02, 1.353419294784533e+04
1002, 1.999999999999157e-04, 1.299999999998155e-03, 3.122629452450212e-05, -9.584931480312164e-06, -2.633652225000560e+01, -1.809098321343774e+04, -6.056129132004131e+02, 1.810520720897666e+04
1003, -2.000000000000587e-04, 1.200000000001781e-03, 2.715539721429326e-05, 8.198857573692050e-06, 2.949775656684483e+01, 1.861867796715650e+04, 1.032915026255311e+03, 1.870361662106113e+04
1004, -1.500000000001450e-04, 1.200000000001350e-03, 2.687738218031400e-05, 6.068417652554135e-06, 1.167869494703655e+01, 1.398565867927198e+04, 1.018442065630666e+03, 1.412165052557591e+04
1005, -1.000000000002543e-04, 1.200000000000919e-03, 2.666473887048560e-05, 3.942872841267723e-06, -2.423188441676984e+00, 9.348972779357811e+03, 9.521232204994758e+02, 9.543309753677377e+03
1006, -5.000000000035367e-05, 1.200000000000488e-03, 2.651767738977387e-05, 1.819659455219532e-06, -1.306376939987672e+01, 4.709184026235642e+03, 8.334490769675007e+02, 5.007811268306389e+03
1007, -4.872353741173022e-16, 1.200000000000057e-03, 2.643639573567593e-05, -3.038002769968077e-07, -2.051389471424341e+01, 6.686798826755103e+01, 6.619050728186511e+02, 1.326690956917133e+03
1008, 4.999999999957962e-05, 1.199999999999626e-03, 2.642107957070488e-05, -2.430098332423663e-06, -2.505784829453592e+01, -4.577385898763153e+03, 4.369714852268740e+02, 4.635457582018082e+03
1009, 9.999999999967686e-05, 1.199999999999196e-03, 2.647190201750176e-05, -4.561840982250750e-06, -2.699022594437838e+01, -9.222970336818926e+03, 1.581238134155110e+02, 9.201416345382730e+03
1010, 1.499999999998148e-04, 1.199999999998765e-03, 2.658902343491512e-05, -6.701648876868234e-06, -2.661280934870183e+01, -1.386925657905086e+04, -1.751670289949925e+02, 1.384707624327467e+04
1011, 1.999999999999137e-04, 1.199999999998334e-03, 2.677259122694322e-05, -8.852157163403164e-06, -2.423301747591063e+01, -1.851559357937045e+04, -5.634344776671069e+02, 1.852566460541928e+04
1012, -2.000000000000607e-04, 1.100000000001707e-03, 2.296891464989616e-05, 7.628345358373260e-06, 2.282236669315216e+01, 1.905071438065066e+04, 9.918999674286451e+02, 1.913102549986194e+04
1013, -1.500000000001494e-04, 1.100000000001301e-03, 2.269227448006428e-05, 5.660267229255656e-06, 3.823348717569843e+00, 1.431205750467295e+04, 9.903877223667522e+02, 1.444468885175819e+04
1014, -1.000000000002619e-04, 1.100000000000895e-03, 2.248246367035316e-05, 3.697325529960598e-06, -1.082100150966926e+01, 9.569176983885973e+03, 9.364758050032066e+02, 9.761368199879060e+03
1015, -5.000000000036384e-05, 1.100000000000489e-03, 2.233971248091607e-05, 1.736928199233451e-06, -2.135253745098635e+01, 4.822642838262768e+03, 8.296388143444896e+02, 5.120302085717595e+03
1016, -5.000628410705213e-16, 1.100000000000083e-03, 2.226423922320729e-05, -2.235313297916866e-07, -2.803979780240024e+01, 7.301254326733465e+01, 6.693452052916919e+02, 1.342499009691844e+03
1017, 4.999999999956943e-05, 1.099999999999677e-03, 2.225625022900761e-05, -2.186674313455454e-06, -3.117599026283779e+01, -4.679161765133091e+03, 4.550538915813428e+02, 4.736250409381827e+03
1018, 9.999999999966927e-05, 1.099999999999272e-03, 2.231593962624052e-05, -4.155136901233768e-06, -3.106538849314188e+01, -9.433307137610518e+03, 1.862129521102882e+02, 9.409614814804074e+03
1019, 1.499999999998105e-04, 1.099999999998866e-03, 2.244348905566148e-05, -6.131570310583770e-06, -2.800843415996610e+01, -1.418880413676085e+04, -1.377363392728121e+02, 1.416347486062035e+04
1020, 1.999999999999118e-04, 1.099999999998460e-03, 2.263906722851160e-05, -8.118640924836510e-06, -2.229769752089055e+01, -1.894498201789750e+04, -5.173544829463870e+02, 1.895095260224998e+04
1021, -2.000000000000626e-04, 1.000000000002109e-03, 1.911310753457266e-05, 7.029608150618574e-06, 1.614845834229959e+01, 1.948761894705228e+04, 9.468118675779343e+02, 1.956333238083557e+04
1022, -1.500000000001537e-04, 1.000000000001674e-03, 1.883738575045414e-05, 5.227578511739448e-06, -4.197759889304280e+00, 1.464211379126182e+04, 9.592438760832626e+02, 1.477142638029909e+04
1023, -1.000000000002696e-04, 1.000000000001239e-03, 1.862996605882118e-05, 3.430939735200163e-06, -1.950395791252072e+01, 9.791868567017567e+03, 9.187126974673199e+02, 9.981941840388761e+03
1024, -5.000000000037402e-05, 1.000000000000804e-03, 1.849109885190114e-05, 1.637071106266929e-06, -2.998315600826118e+01, 4.937491459768042e+03, 8.246967931017364e+02, 5.234147806528879e+03
1025, -5.128852258260569e-16, 1.000000000000369e-03, 1.842102289513599e-05, -1.566621289356386e-07, -3.591281582586589e+01, 7.948427798311081e+01, 6.766676811249179e+02, 1.358246329638130e+03
1026, 4.999999999955924e-05, 9.999999999999337e-04, 1.841996579110581e-05, -1.952909259160175e-06, -3.761614423674655e+01, -4.781713238781201e+03, 4.740664103707617e+02, 4.837914125760441e+03
1027, 9.999999999966167e-05, 9.999999999994987e-04, 1.848814419753768e-05, -3.754335235395112e-06, -3.543066233356421e+01, -9.645634365997539e+03, 2.162995476458885e+02, 9.619935405352991e+03
1028, 1.499999999998061e-04, 9.999999999990637e-04, 1.862576287037157e-05, -5.563621686201993e-06, -2.967360797486936e+01, -1.451169674140037e+04, -9.724858547014134e+01, 1.448332914721526e+04
1029, 1.999999999999099e-04, 9.999999999986283e-04, 1.883301355271677e-05, -7.383467136049170e-06, -2.061329399973079e+01, -1.937916056932265e+04, -4.671865736311029e+02, 1.938108371039239e+04
1030, -2.000000000000644e-04, 9.000000000025380e-04, 1.559563536987746e-05, 6.403297194300028e-06, 9.552040580341554e+00, 1.992938445817828e+04, 8.975173542641649e+02, 2.000054682127484e+04
1031, -1.500000000001581e-04, 9.000000000020734e-04, 1.532034095933657e-05, 4.771046081390184e-06, -1.234262738849111e+01, 1.497570574443172e+04, 9.248965354601955e+02, 1.510176573786150e+04
1032, -1.000000000002772e-04, 9.000000000016087e-04, 1.511483731400617e-05, 3.144451407565330e-06, -2.843473769724028e+01, 1.001692305232287e+04, 8.987073084207402e+02, 1.020489649307395e+04
1033, -5.000000000038420e-05, 9.000000000011442e-04, 1.497939370678406e-05, 1.520862335743234e-06, -3.894814922937826e+01, 5.053673259102556e+03, 8.184918773817780e+02, 5.349253090101507e+03
1034, -5.256991402521199e-16, 9.000000000006796e-04, 1.491426784228681e-05, -1.023820403195009e-07, -4.416568958953735e+01, 8.633965120788434e+01, 6.837728951573501e+02, 1.373758760694216e+03
1035, 4.999999999954906e-05, 9.000000000002148e-04, 1.491970921867151e-05, -1.727954828104123e-06, -4.444614677957384e+01, -4.884886720036691e+03, 4.939912576350715e+02, 4.940240317404935e+03
1036, 9.999999999965402e-05, 8.999999999997502e-04, 1.499595914587479e-05, -3.358545903202770e-06, -4.017234543469203e+01, -9.859776236423444e+03, 2.484735523563322e+02, 9.832170513208348e+03
1037, 1.499999999998018e-04, 8.999999999992857e-04, 1.514324945280074e-05, -4.996866308001485e-06, -3.168741376745197e+01, -1.483782832771451e+04, -5.351691025044943e+01, 1.480652778346051e+04
1038, 1.999999999999080e-04, 8.999999999988212e-04, 1.536179801634930e-05, -6.645649687514854e-06, -1.929403932653508e+01, -1.981821535161278e+04, -4.127033339101641e+02, 1.981611922898590e+04
1039, -2.000000000000664e-04, 8.000000000027327e-04, 1.242425248661112e-05, 5.750136313449640e-06, 2.966334742902063e+00, 2.037590644615085e+04, 8.438622828089633e+02, 2.044272738634464e+04
1040, -1.500000000001624e-04, 8.000000000022627e-04, 1.214885774468828e-05, 4.291442094996453e-06, -2.038583017795827e+01, 1.531298348158714e+04, 8.871980835150409e+02, 1.543569552072568e+04
1041, -1.000000000002848e-04, 8.000000000017928e-04, 1.194475946315085e-05, 2.838674868706951e-06, -3.723203193241784e+01, 1.024470788024338e+04, 8.763171872016330e+02, 1.043024523239668e+04
1042, -5.000000000039436e-05, 8.000000000013229e-04, 1.181224191773062e-05, 1.389151444738850e-06, -4.794820709867599e+01, 5.171553649970889e+03, 8.108994458718723e+02, 5.465659272330638e+03
1043, -5.385198309417610e-16, 8.000000000008525e-04, 1.175158086559369e-05, -5.981042184858074e-08, -5.283399971081531e+01, 9.365981527458166e+01, 6.905893883132205e+02, 1.388925934250019e+03
1044, 4.999999999953886e-05, 8.000000000003829e-04, 1.176304707216181e-05, -1.510897421284580e-06, -5.204157574582928e+01, -4.988915799209265e+03, 5.148255330530903e+02, 5.043105037199930e+03
1045, 9.999999999964645e-05, 7.999999999999128e-04, 1.184691087153674e-05, -2.966814779418285e-06, -4.574696323384978e+01, -1.007604332294123e+04, 2.828287929029108e+02, 1.004623380018297e+04
1046, 1.499999999997974e-04, 7.999999999994429e-04, 1.200343524310870e-05, -4.430299901888661e-06, -3.433717133761002e+01, -1.516739220490438e+04, -6.356645866904444e+00, 1.513306037378914e+04
1047, 1.999999999999061e-04, 7.999999999989728e-04, 1.223287036601762e-05, -5.904126794352598e-06, -1.831787866298305e+01, -2.026220293647579e+04, -3.536656333943311e+02, 2.025623853914921e+04
1048, -2.000000000000683e-04, 7.000000000024487e-04, 9.606830194400392e-06, 5.070923632804543e-06, -4.354005634755595e+00, 2.082649368832697e+04, 7.853715556608903e+02, 2.088998443203813e+04
1049, -1.500000000001667e-04, 7.000000000020254e-04, 9.330762924514573e-06, 3.789608620407610e-06, -2.775029378330964e+01, 1.565542592625443e+04, 8.457163719185025e+02, 1.577412314760098e+04
1050, -1.000000000002923e-04, 7.000000000016023e-04, 9.127503558852957e-06, 2.514489227047885e-06, -4.420844420038975e+01, 1.047843169683035e+04, 8.514509906868416e+02, 1.065954176762763e+04
1051, -5.000000000040459e-05, 7.000000000011791e-04, 8.997359022110678e-06, 1.242853000575805e-06, -5.554761143487417e+01, 5.293775069208692e+03, 8.023020013470447e+02, 5.584801442048730e+03
1052, -5.513337453678241e-16, 7.000000000007558e-04, 8.940628363813345e-06, -2.799417641513982e-08, -6.188718059947246e+01, 1.015321474599796e+02, 6.977092774403193e+02, 1.404955095399341e+03
1053, 4.999999999952868e-05, 7.000000000003326e-04, 8.957614214751370e-06, -1.300742951426257e-06, -6.182633896776906e+01, -5.096326798009640e+03, 5.370297753329564e+02, 5.147795527259165e+03
1054, 9.999999999963887e-05, 6.999999999999092e-04, 9.048610075174876e-06, -2.578104967074421e-06, -5.393711214130258e+01, -1.029765862567674e+04, 3.194531276640606e+02, 1.026362663243194e+04
1055, 1.499999999997930e-04, 6.999999999994860e-04, 9.213908875253531e-06, -3.862837275913769e-06, -3.831665894100388e+01, -1.550198151689689e+04, 4.410361153884412e+01, 1.546391642997927e+04
1056, 1.999999999999042e-04, 6.999999999990628e-04, 9.453788403952287e-06, -5.157755255951000e-06, -1.698180060791219e+01, -2.071064250857355e+04, -2.901352859429221e+02, 2.070179478772306e+04
1057, -2.000000000000702e-04, 6.000000000020976e-04, 7.151423663496335e-06, 4.366537779361683e-06, -1.614061883627164e+01, 2.127723622205761e+04, 7.200715110519528e+02, 2.134202214440868e+04
1058, -1.500000000001711e-04, 6.000000000017323e-04, 6.874031437698457e-06, 3.266399030844925e-06, -3.274613175366653e+01, 1.600971075756292e+04, 7.986533337701104e+02, 1.612178065958440e+04
1059, -1.000000000003000e-04, 6.000000000013669e-04, 6.670913544723720e-06, 2.172734304198853e-06, -4.470146773387546e+01, 1.073076665850948e+04, 8.244130696571261e+02, 1.090088716469318e+04
1060, -5.000000000041474e-05, 6.000000000010013e-04, 6.542439297429345e-06, 1.082868167216119e-06, -5.776218545683787e+01, 5.430262767570888e+03, 7.954072382987445e+02, 5.713939847776412e+03
1061, -5.641662945187267e-16, 6.000000000006360e-04, 6.489025689471316e-06, -5.902471606444449e-09, -7.102596059329085e+01, 1.099818959247530e+02, 7.089725780849708e+02, 1.429451751556189e+03
1062, 4.999999999951849e-05, 6.000000000002706e-04, 6.511028590441854e-06, -1.096327647391575e-06, -7.739639502660225e+01, -5.217113109146859e+03, 5.632179817887887e+02, 5.261705605737369e+03
1063, 9.999999999963128e-05, 5.999999999999052e-04, 6.608747593324225e-06, -2.191183066768687e-06, -6.939153364404115e+01, -1.053754311884598e+04, 3.585639985677611e+02, 1.049268650894714e+04
1064, 1.499999999997888e-04, 5.999999999995398e-04, 6.782414391677718e-06, -3.293245229797051e-06, -4.556720350456476e+01, -1.584859392929343e+04, 9.614241341261413e+01, 1.580419650442959e+04
1065, 1.999999999999023e-04, 5.999999999991742e-04, 7.032298901799320e-06, -4.405308691331302e-06, -1.160559492439961e+01, -2.115980905457937e+04, -2.237333302897488e+02, 2.115293681698342e+04
1066, -2.000000000000721e-04, 5.000000000017480e-04, 5.066380186603503e-06, 3.637996767650465e-06, -3.866355972050383e+01, 2.172045193204970e+04, 6.413361238008780e+02, 2.179688865592890e+04
1067, -1.500000000001754e-04, 5.000000000014432e-04, 4.786862375102833e-06, 2.722448752599037e-06, -3.251023580727883e+01, 1.639562237289593e+04, 7.407422493527580e+02, 1.649479728062890e+04
1068, -1.000000000003076e-04, 5.000000000011384e-04, 4.582788881666884e-06, 1.813832080348590e-06, -3.423818600589766e+01, 1.103141806443227e+04, 7.968228111417900e+02, 1.117982355058813e+04
1069, -5.000000000042491e-05, 5.000000000008338e-04, 4.454906430784700e-06, 9.098022021315470e-07, -5.093615632321894e+01, 5.602646042164997e+03, 8.001524932930970e+02, 5.875709976262910e+03
1070, -5.769852911424733e-16, 5.000000000005289e-04, 4.403994008046799e-06, 7.585085294104378e-09, -7.958352657414798e+01, 1.185670940515943e+02, 7.374110937460545e+02, 1.488073974361952e+03
1071, 4.999999999950832e-05, 5.000000000002242e-04, 4.430658278147215e-06, -8.960126296249976e-07, -1.010492743152338e+02, -5.373489115563212e+03, 6.029251604927513e+02, 5.408576233742097e+03
1072, 9.999999999962365e-05, 4.999999999999196e-04, 4.535005837601003e-06, -1.804217289567423e-06, -9.588234724251015e+01, -1.082591953846747e+04, 4.011528007752729e+02, 1.075999035331120e+04
1073, 1.499999999997844e-04, 4.999999999996149e-04, 4.716962873795971e-06, -2.719895184388339e-06, -5.910402822810738e+01, -1.622765798431619e+04, 1.439473411863614e+02, 1.617111685626784e+04
1074, 1.999999999999003e-04, 4.999999999993100e-04, 4.976479480258412e-06, -3.645523395757648e-06, 3.873058098555703e+00, -2.160224929423894e+04, -1.611023977483823e+02, 2.160852468435592e+04
1075, -2.000000000000740e-04, 4.000000000013997e-04, 3.360301783372127e-06, 2.886541966410935e-06, -8.167014243991639e+01, 2.214150764470689e+04, 5.330284795372652e+02, 2.224873273692519e+04
1076, -1.500000000001797e-04, 4.000000000011572e-04, 3.077388630887527e-06, 2.157581214823548e-06, -1.530064786739035e+01, 1.686602220969893e+04, 6.616980385390764e+02, 1.693311662388873e+04
1077, -1.000000000003152e-04, 4.000000000009148e-04, 2.870541336986094e-06, 1.436976771723243e-06, -2.435344106784692e+01, 1.141650990632686e+04, 7.772953171995894e+02, 1.154599957449858e+04
1078, -5.000000000043512e-05, 4.000000000006724e-04, 2.741370620944501e-06, 7.234052777668392e-07, -8.231829437641568e+01, 5.786089119936944e+03, 8.377569371810808e+02, 6.102913429137605e+03
1079, -5.898025937003254e-16, 4.000000000004300e-04, 2.691926103975166e-06, 1.370203626828101e-08, -8.711888896150253e+01, 1.252123987919222e+02, 8.093702401984340e+02, 1.632606908791737e+03
1080, 4.999999999949812e-05, 4.000000000001875e-04, 2.723108260266037e-06, -6.970790725954472e-07, -8.387471513740843e+01, -5.543397247875402e+03, 6.769894512411292e+02, 5.624912901889320e+03
1081, 9.999999999961606e-05, 3.999999999999452e-04, 2.834764332893369e-06, -1.413925178205563e-06, -1.185129071945280e+02, -1.119882448235174e+04, 4.547363359390316e+02, 1.111757370757918e+04
1082, 1.499999999997800e-04, 3.999999999997027e-04, 3.025604441687433e-06, -2.140119356017472e-06, -8.916079585259922e+01, -1.669230652047003e+04, 1.756375387003861e+02, 1.660686129685213e+04
1083, 1.999999999998984e-04, 3.999999999994603e-04, 3.294770980747773e-06, -2.877148909880086e-06, 3.866299596387262e+01, -2.202415790868759e+04, -1.195715863423098e+02, 2.206411692608084e+04
1084, -2.000000000000760e-04, 3.000000000010516e-04, 2.040212835720610e-06, 2.113893766483119e-06, -3.403758282348940e+01, 2.265587885772762e+04, 3.796084246878397e+02, 2.270261479000970e+04
1085, -1.500000000001842e-04, 3.000000000008717e-04, 1.752367927526814e-06, 1.569630556567830e-06, -1.734754389891441e+01, 1.742446909277441e+04, 5.797595473331421e+02, 1.748031613324628e+04
1086, -1.000000000003227e-04, 3.000000000006917e-04, 1.539687377739335e-06, 1.039590839911145e-06, -2.847836914718246e+02, 1.157486373233025e+04, 7.930012626113530e+02, 1.196522632577036e+04
1087, -5.000000000044532e-05, 3.000000000005118e-04, 1.407976721828376e-06, 5.234509216574741e-07, -2.340280791705125e+02, 5.843484089493984e+03, 9.215097261692240e+02, 6.350816865723885e+03
1088, -6.026207432911247e-16, 3.000000000003319e-04, 1.359332021827964e-06, 1.384916989661462e-08, -9.469117272425956e+01, 1.251386652669144e+02, 9.220945208583521e+02, 1.857244835572090e+03
1089, 4.999999999948792e-05, 3.000000000001520e-04, 1.394588298669356e-06, -4.965128366832367e-07, 5.462067109397208e+01, -5.599606332564892e+03, 7.989599491585990e+02, 5.875681323075915e+03
1090, 9.999999999960845e-05, 2.999999999999720e-04, 1.513667210393084e-06, -1.014963600900771e-06, 1.349892541148631e+02, -1.135018272828786e+04, 5.463306463336894e+02, 1.153703099440502e+04
1091, 1.499999999997756e-04, 2.999999999997920e-04, 1.715221218902796e-06, -1.548975706806055e-06, -8.863126901229134e+01, -1.724041295308841e+04, 2.068407953302121e+02, 1.715676972499953e+04
1092, 1.999999999998966e-04, 2.999999999996122e-04, 1.994245918429649e-06, -2.099100792732372e-06, -1.655516472240515e+01, -2.254123669839407e+04, -1.192875428257312e+02, 2.252594495831025e+04
1093, -2.000000000000778e-04, 2.000000000007014e-04, 1.102696400049808e-06, 1.319853746776809e-06, 2.711242626413209e+02, 2.336218162645195e+04, 2.951330407134398e+02, 2.309860048197025e+04
1094, -1.500000000001885e-04, 2.000000000005817e-04, 8.068043684241646e-07, 9.563151149277809e-07, -1.166369818238980e+03, 1.641840658564233e+04, 6.163758420489442e+02, 1.762793345486496e+04
1095, -1.000000000003304e-04, 2.000000000004620e-04, 5.944754532193611e-07, 6.272966216923426e-07, -8.616104600853196e+02, 1.088306215316676e+04, 8.375190727484184e+02, 1.186351919041491e+04
1096, -5.000000000045550e-05, 2.000000000003424e-04, 4.657637245007369e-07, 3.147021496678835e-07, -4.774806039129880e+02, 5.480981018618791e+03, 8.840671087846175e+02, 6.215268579757695e+03
1097, -6.154388928819240e-16, 2.000000000002227e-04, 4.197770859842429e-07, 9.735148245012924e-09, -1.048674592255061e+02, 1.081704285102624e+02, 8.668471483121659e+02, 1.746734397599891e+03
1098, 4.999999999947777e-05, 2.000000000001030e-04, 4.563404561046176e-07, -2.956852144971969e-07, 2.794675059558062e+02, -5.269458350040471e+03, 8.004982180288046e+02, 5.775272092604224e+03
1099, 9.999999999960084e-05, 1.999999999999833e-04, 5.763243193992293e-07, -6.096698087397799e-07, 6.994325827516871e+02, -1.068529495998895e+04, 6.683464784573131e+02, 1.146293022239525e+04
1100, 1.499999999997714e-04, 1.999999999998636e-04, 7.813417038534418e-07, -9.410617971024690e-07, 1.067270145025572e+03, -1.623683847882548e+04, 3.571862479037090e+02, 1.731884821022467e+04
1101, 1.999999999998946e-04, 1.999999999997439e-04, 1.072016956122279e-06, -1.308024153986654e-06, -3.090874601542116e+02, -2.323534937048088e+04, -5.820197679413411e+01, 2.292655741844611e+04
1102, -2.000000000000798e-04, 1.000000000003506e-04, 4.853101713397129e-07, 5.090446176621261e-07, -7.312419287830049e+03, 1.301641001905792e+04, 1.332944253100824e+03, 2.050288424871207e+04
1103, -1.500000000001928e-04, 1.000000000002906e-04, 2.278762833316067e-07, 3.663013883524790e-07, -3.407136459872603e+03, 1.098052190459613e+04, 1.076881199930508e+03, 1.454796912588566e+04
1104, -1.000000000003380e-04, 1.000000000002307e-04, 5.544280430573439e-08, 2.383970456709423e-07, -1.414677794265852e+03, 7.879706524915257e+03, 4.115521212504329e+02, 9.330759908317363e+03
1105, -5.000000000046567e-05, 1.000000000001708e-04, -4.506940941500603e-08, 1.193718662365573e-07, -5.364978855769047e+02, 4.098107322798171e+03, -8.426253702121926e+00, 4.634635848101035e+03
1106, -6.282434899455673e-16, 1.000000000001108e-04, -7.985935961562139e-08, 3.770847165650412e-09, -1.030761018046048e+02, 5.763298750829335e+01, -1.704956018905212e+02, 3.769647363399202e+02
1107, 4.999999999946757e-05, 1.000000000000509e-04, -5.074839649272951e-08, -1.120349152265056e-07, 3.353873985944701e+02, -3.989953394659243e+03, -6.295285831566900e+01, 4.327172890845145e+03
1108, 9.999999999959325e-05, 9.999999999999091e-05, 4.452501409788856e-08, -2.317026085696721e-07, 1.233171851314363e+03, -7.790233546578764e+03, 3.004894427183970e+02, 9.043396518757079e+03
1109, 1.499999999997670e-04, 9.999999999993101e-05, 2.126695877683740e-07, -3.607892528138418e-07, 3.279345751193147e+03, -1.090799506946551e+04, 9.058317213059249e+02, 1.430254396919736e+04
1110, 1.999999999998927e-04, 9.999999999987105e-05, 4.674828517121945e-07, -5.052182126193452e-07, 7.293097106495441e+03, -1.292685878072946e+04, 1.087504303836519e+03, 2.033659948282339e+04
